p cnf 344 5544
-1 -3 -17 0
-1 -3 -25 0
-1 -3 -52 0
-1 -3 -53 0
-1 -3 -54 0
-1 -3 -55 0
-1 -17 -25 0
-1 -17 -52 0
-1 -17 -53 0
-1 -17 -54 0
-1 -17 -55 0
-1 -25 -52 0
-1 -25 -53 0
-1 -25 -54 0
-1 -25 -55 0
-1 -52 -53 0
-1 -52 -54 0
-1 -52 -55 0
-1 -53 -54 0
-1 -53 -55 0
-1 -54 -55 0
-3 -17 -25 0
-3 -17 -52 0
-3 -17 -53 0
-3 -17 -54 0
-3 -17 -55 0
-3 -25 -52 0
-3 -25 -53 0
-3 -25 -54 0
-3 -25 -55 0
-3 -52 -53 0
-3 -52 -54 0
-3 -52 -55 0
-3 -53 -54 0
-3 -53 -55 0
-3 -54 -55 0
-17 -25 -52 0
-17 -25 -53 0
-17 -25 -54 0
-17 -25 -55 0
-17 -52 -53 0
-17 -52 -54 0
-17 -52 -55 0
-17 -53 -54 0
-17 -53 -55 0
-17 -54 -55 0
-25 -52 -53 0
-25 -52 -54 0
-25 -52 -55 0
-25 -53 -54 0
-25 -53 -55 0
-25 -54 -55 0
-52 -53 -54 0
-52 -53 -55 0
-52 -54 -55 0
-53 -54 -55 0
3 17 25 52 53 54 55 0
1 17 25 52 53 54 55 0
1 3 25 52 53 54 55 0
1 3 17 52 53 54 55 0
1 3 17 25 53 54 55 0
1 3 17 25 52 54 55 0
1 3 17 25 52 53 55 0
1 3 17 25 52 53 54 0
-2 -5 -18 0
-2 -5 -29 0
-2 -5 -56 0
-2 -5 -57 0
-2 -5 -58 0
-2 -5 -59 0
-2 -18 -29 0
-2 -18 -56 0
-2 -18 -57 0
-2 -18 -58 0
-2 -18 -59 0
-2 -29 -56 0
-2 -29 -57 0
-2 -29 -58 0
-2 -29 -59 0
-2 -56 -57 0
-2 -56 -58 0
-2 -56 -59 0
-2 -57 -58 0
-2 -57 -59 0
-2 -58 -59 0
-5 -18 -29 0
-5 -18 -56 0
-5 -18 -57 0
-5 -18 -58 0
-5 -18 -59 0
-5 -29 -56 0
-5 -29 -57 0
-5 -29 -58 0
-5 -29 -59 0
-5 -56 -57 0
-5 -56 -58 0
-5 -56 -59 0
-5 -57 -58 0
-5 -57 -59 0
-5 -58 -59 0
-18 -29 -56 0
-18 -29 -57 0
-18 -29 -58 0
-18 -29 -59 0
-18 -56 -57 0
-18 -56 -58 0
-18 -56 -59 0
-18 -57 -58 0
-18 -57 -59 0
-18 -58 -59 0
-29 -56 -57 0
-29 -56 -58 0
-29 -56 -59 0
-29 -57 -58 0
-29 -57 -59 0
-29 -58 -59 0
-56 -57 -58 0
-56 -57 -59 0
-56 -58 -59 0
-57 -58 -59 0
5 18 29 56 57 58 59 0
2 18 29 56 57 58 59 0
2 5 29 56 57 58 59 0
2 5 18 56 57 58 59 0
2 5 18 29 57 58 59 0
2 5 18 29 56 58 59 0
2 5 18 29 56 57 59 0
2 5 18 29 56 57 58 0
-4 -7 -20 0
-4 -7 -33 0
-4 -7 -60 0
-4 -7 -61 0
-4 -7 -62 0
-4 -7 -63 0
-4 -20 -33 0
-4 -20 -60 0
-4 -20 -61 0
-4 -20 -62 0
-4 -20 -63 0
-4 -33 -60 0
-4 -33 -61 0
-4 -33 -62 0
-4 -33 -63 0
-4 -60 -61 0
-4 -60 -62 0
-4 -60 -63 0
-4 -61 -62 0
-4 -61 -63 0
-4 -62 -63 0
-7 -20 -33 0
-7 -20 -60 0
-7 -20 -61 0
-7 -20 -62 0
-7 -20 -63 0
-7 -33 -60 0
-7 -33 -61 0
-7 -33 -62 0
-7 -33 -63 0
-7 -60 -61 0
-7 -60 -62 0
-7 -60 -63 0
-7 -61 -62 0
-7 -61 -63 0
-7 -62 -63 0
-20 -33 -60 0
-20 -33 -61 0
-20 -33 -62 0
-20 -33 -63 0
-20 -60 -61 0
-20 -60 -62 0
-20 -60 -63 0
-20 -61 -62 0
-20 -61 -63 0
-20 -62 -63 0
-33 -60 -61 0
-33 -60 -62 0
-33 -60 -63 0
-33 -61 -62 0
-33 -61 -63 0
-33 -62 -63 0
-60 -61 -62 0
-60 -61 -63 0
-60 -62 -63 0
-61 -62 -63 0
7 20 33 60 61 62 63 0
4 20 33 60 61 62 63 0
4 7 33 60 61 62 63 0
4 7 20 60 61 62 63 0
4 7 20 33 61 62 63 0
4 7 20 33 60 62 63 0
4 7 20 33 60 61 63 0
4 7 20 33 60 61 62 0
-6 -9 -22 0
-6 -9 -37 0
-6 -9 -64 0
-6 -9 -65 0
-6 -9 -66 0
-6 -9 -67 0
-6 -22 -37 0
-6 -22 -64 0
-6 -22 -65 0
-6 -22 -66 0
-6 -22 -67 0
-6 -37 -64 0
-6 -37 -65 0
-6 -37 -66 0
-6 -37 -67 0
-6 -64 -65 0
-6 -64 -66 0
-6 -64 -67 0
-6 -65 -66 0
-6 -65 -67 0
-6 -66 -67 0
-9 -22 -37 0
-9 -22 -64 0
-9 -22 -65 0
-9 -22 -66 0
-9 -22 -67 0
-9 -37 -64 0
-9 -37 -65 0
-9 -37 -66 0
-9 -37 -67 0
-9 -64 -65 0
-9 -64 -66 0
-9 -64 -67 0
-9 -65 -66 0
-9 -65 -67 0
-9 -66 -67 0
-22 -37 -64 0
-22 -37 -65 0
-22 -37 -66 0
-22 -37 -67 0
-22 -64 -65 0
-22 -64 -66 0
-22 -64 -67 0
-22 -65 -66 0
-22 -65 -67 0
-22 -66 -67 0
-37 -64 -65 0
-37 -64 -66 0
-37 -64 -67 0
-37 -65 -66 0
-37 -65 -67 0
-37 -66 -67 0
-64 -65 -66 0
-64 -65 -67 0
-64 -66 -67 0
-65 -66 -67 0
9 22 37 64 65 66 67 0
6 22 37 64 65 66 67 0
6 9 37 64 65 66 67 0
6 9 22 64 65 66 67 0
6 9 22 37 65 66 67 0
6 9 22 37 64 66 67 0
6 9 22 37 64 65 67 0
6 9 22 37 64 65 66 0
-8 -11 -26 0
-8 -11 -41 0
-8 -11 -68 0
-8 -11 -69 0
-8 -11 -70 0
-8 -11 -71 0
-8 -26 -41 0
-8 -26 -68 0
-8 -26 -69 0
-8 -26 -70 0
-8 -26 -71 0
-8 -41 -68 0
-8 -41 -69 0
-8 -41 -70 0
-8 -41 -71 0
-8 -68 -69 0
-8 -68 -70 0
-8 -68 -71 0
-8 -69 -70 0
-8 -69 -71 0
-8 -70 -71 0
-11 -26 -41 0
-11 -26 -68 0
-11 -26 -69 0
-11 -26 -70 0
-11 -26 -71 0
-11 -41 -68 0
-11 -41 -69 0
-11 -41 -70 0
-11 -41 -71 0
-11 -68 -69 0
-11 -68 -70 0
-11 -68 -71 0
-11 -69 -70 0
-11 -69 -71 0
-11 -70 -71 0
-26 -41 -68 0
-26 -41 -69 0
-26 -41 -70 0
-26 -41 -71 0
-26 -68 -69 0
-26 -68 -70 0
-26 -68 -71 0
-26 -69 -70 0
-26 -69 -71 0
-26 -70 -71 0
-41 -68 -69 0
-41 -68 -70 0
-41 -68 -71 0
-41 -69 -70 0
-41 -69 -71 0
-41 -70 -71 0
-68 -69 -70 0
-68 -69 -71 0
-68 -70 -71 0
-69 -70 -71 0
11 26 41 68 69 70 71 0
8 26 41 68 69 70 71 0
8 11 41 68 69 70 71 0
8 11 26 68 69 70 71 0
8 11 26 41 69 70 71 0
8 11 26 41 68 70 71 0
8 11 26 41 68 69 71 0
8 11 26 41 68 69 70 0
-10 -13 -30 0
-10 -13 -44 0
-10 -13 -72 0
-10 -13 -73 0
-10 -13 -74 0
-10 -13 -75 0
-10 -30 -44 0
-10 -30 -72 0
-10 -30 -73 0
-10 -30 -74 0
-10 -30 -75 0
-10 -44 -72 0
-10 -44 -73 0
-10 -44 -74 0
-10 -44 -75 0
-10 -72 -73 0
-10 -72 -74 0
-10 -72 -75 0
-10 -73 -74 0
-10 -73 -75 0
-10 -74 -75 0
-13 -30 -44 0
-13 -30 -72 0
-13 -30 -73 0
-13 -30 -74 0
-13 -30 -75 0
-13 -44 -72 0
-13 -44 -73 0
-13 -44 -74 0
-13 -44 -75 0
-13 -72 -73 0
-13 -72 -74 0
-13 -72 -75 0
-13 -73 -74 0
-13 -73 -75 0
-13 -74 -75 0
-30 -44 -72 0
-30 -44 -73 0
-30 -44 -74 0
-30 -44 -75 0
-30 -72 -73 0
-30 -72 -74 0
-30 -72 -75 0
-30 -73 -74 0
-30 -73 -75 0
-30 -74 -75 0
-44 -72 -73 0
-44 -72 -74 0
-44 -72 -75 0
-44 -73 -74 0
-44 -73 -75 0
-44 -74 -75 0
-72 -73 -74 0
-72 -73 -75 0
-72 -74 -75 0
-73 -74 -75 0
13 30 44 72 73 74 75 0
10 30 44 72 73 74 75 0
10 13 44 72 73 74 75 0
10 13 30 72 73 74 75 0
10 13 30 44 73 74 75 0
10 13 30 44 72 74 75 0
10 13 30 44 72 73 75 0
10 13 30 44 72 73 74 0
-12 -15 -34 0
-12 -15 -46 0
-12 -15 -76 0
-12 -15 -77 0
-12 -15 -78 0
-12 -15 -79 0
-12 -34 -46 0
-12 -34 -76 0
-12 -34 -77 0
-12 -34 -78 0
-12 -34 -79 0
-12 -46 -76 0
-12 -46 -77 0
-12 -46 -78 0
-12 -46 -79 0
-12 -76 -77 0
-12 -76 -78 0
-12 -76 -79 0
-12 -77 -78 0
-12 -77 -79 0
-12 -78 -79 0
-15 -34 -46 0
-15 -34 -76 0
-15 -34 -77 0
-15 -34 -78 0
-15 -34 -79 0
-15 -46 -76 0
-15 -46 -77 0
-15 -46 -78 0
-15 -46 -79 0
-15 -76 -77 0
-15 -76 -78 0
-15 -76 -79 0
-15 -77 -78 0
-15 -77 -79 0
-15 -78 -79 0
-34 -46 -76 0
-34 -46 -77 0
-34 -46 -78 0
-34 -46 -79 0
-34 -76 -77 0
-34 -76 -78 0
-34 -76 -79 0
-34 -77 -78 0
-34 -77 -79 0
-34 -78 -79 0
-46 -76 -77 0
-46 -76 -78 0
-46 -76 -79 0
-46 -77 -78 0
-46 -77 -79 0
-46 -78 -79 0
-76 -77 -78 0
-76 -77 -79 0
-76 -78 -79 0
-77 -78 -79 0
15 34 46 76 77 78 79 0
12 34 46 76 77 78 79 0
12 15 46 76 77 78 79 0
12 15 34 76 77 78 79 0
12 15 34 46 77 78 79 0
12 15 34 46 76 78 79 0
12 15 34 46 76 77 79 0
12 15 34 46 76 77 78 0
-14 -16 -38 0
-14 -16 -48 0
-14 -16 -80 0
-14 -16 -81 0
-14 -16 -82 0
-14 -16 -83 0
-14 -38 -48 0
-14 -38 -80 0
-14 -38 -81 0
-14 -38 -82 0
-14 -38 -83 0
-14 -48 -80 0
-14 -48 -81 0
-14 -48 -82 0
-14 -48 -83 0
-14 -80 -81 0
-14 -80 -82 0
-14 -80 -83 0
-14 -81 -82 0
-14 -81 -83 0
-14 -82 -83 0
-16 -38 -48 0
-16 -38 -80 0
-16 -38 -81 0
-16 -38 -82 0
-16 -38 -83 0
-16 -48 -80 0
-16 -48 -81 0
-16 -48 -82 0
-16 -48 -83 0
-16 -80 -81 0
-16 -80 -82 0
-16 -80 -83 0
-16 -81 -82 0
-16 -81 -83 0
-16 -82 -83 0
-38 -48 -80 0
-38 -48 -81 0
-38 -48 -82 0
-38 -48 -83 0
-38 -80 -81 0
-38 -80 -82 0
-38 -80 -83 0
-38 -81 -82 0
-38 -81 -83 0
-38 -82 -83 0
-48 -80 -81 0
-48 -80 -82 0
-48 -80 -83 0
-48 -81 -82 0
-48 -81 -83 0
-48 -82 -83 0
-80 -81 -82 0
-80 -81 -83 0
-80 -82 -83 0
-81 -82 -83 0
16 38 48 80 81 82 83 0
14 38 48 80 81 82 83 0
14 16 48 80 81 82 83 0
14 16 38 80 81 82 83 0
14 16 38 48 81 82 83 0
14 16 38 48 80 82 83 0
14 16 38 48 80 81 83 0
14 16 38 48 80 81 82 0
-19 -23 -49 0
-19 -23 -60 0
-19 -23 -90 0
-19 -23 -91 0
-19 -23 -92 0
-19 -23 -93 0
-19 -49 -60 0
-19 -49 -90 0
-19 -49 -91 0
-19 -49 -92 0
-19 -49 -93 0
-19 -60 -90 0
-19 -60 -91 0
-19 -60 -92 0
-19 -60 -93 0
-19 -90 -91 0
-19 -90 -92 0
-19 -90 -93 0
-19 -91 -92 0
-19 -91 -93 0
-19 -92 -93 0
-23 -49 -60 0
-23 -49 -90 0
-23 -49 -91 0
-23 -49 -92 0
-23 -49 -93 0
-23 -60 -90 0
-23 -60 -91 0
-23 -60 -92 0
-23 -60 -93 0
-23 -90 -91 0
-23 -90 -92 0
-23 -90 -93 0
-23 -91 -92 0
-23 -91 -93 0
-23 -92 -93 0
-49 -60 -90 0
-49 -60 -91 0
-49 -60 -92 0
-49 -60 -93 0
-49 -90 -91 0
-49 -90 -92 0
-49 -90 -93 0
-49 -91 -92 0
-49 -91 -93 0
-49 -92 -93 0
-60 -90 -91 0
-60 -90 -92 0
-60 -90 -93 0
-60 -91 -92 0
-60 -91 -93 0
-60 -92 -93 0
-90 -91 -92 0
-90 -91 -93 0
-90 -92 -93 0
-91 -92 -93 0
23 49 60 90 91 92 93 0
19 49 60 90 91 92 93 0
19 23 60 90 91 92 93 0
19 23 49 90 91 92 93 0
19 23 49 60 91 92 93 0
19 23 49 60 90 92 93 0
19 23 49 60 90 91 93 0
19 23 49 60 90 91 92 0
-21 -27 -50 0
-21 -27 -64 0
-21 -27 -94 0
-21 -27 -95 0
-21 -27 -96 0
-21 -27 -97 0
-21 -50 -64 0
-21 -50 -94 0
-21 -50 -95 0
-21 -50 -96 0
-21 -50 -97 0
-21 -64 -94 0
-21 -64 -95 0
-21 -64 -96 0
-21 -64 -97 0
-21 -94 -95 0
-21 -94 -96 0
-21 -94 -97 0
-21 -95 -96 0
-21 -95 -97 0
-21 -96 -97 0
-27 -50 -64 0
-27 -50 -94 0
-27 -50 -95 0
-27 -50 -96 0
-27 -50 -97 0
-27 -64 -94 0
-27 -64 -95 0
-27 -64 -96 0
-27 -64 -97 0
-27 -94 -95 0
-27 -94 -96 0
-27 -94 -97 0
-27 -95 -96 0
-27 -95 -97 0
-27 -96 -97 0
-50 -64 -94 0
-50 -64 -95 0
-50 -64 -96 0
-50 -64 -97 0
-50 -94 -95 0
-50 -94 -96 0
-50 -94 -97 0
-50 -95 -96 0
-50 -95 -97 0
-50 -96 -97 0
-64 -94 -95 0
-64 -94 -96 0
-64 -94 -97 0
-64 -95 -96 0
-64 -95 -97 0
-64 -96 -97 0
-94 -95 -96 0
-94 -95 -97 0
-94 -96 -97 0
-95 -96 -97 0
27 50 64 94 95 96 97 0
21 50 64 94 95 96 97 0
21 27 64 94 95 96 97 0
21 27 50 94 95 96 97 0
21 27 50 64 95 96 97 0
21 27 50 64 94 96 97 0
21 27 50 64 94 95 97 0
21 27 50 64 94 95 96 0
-22 -23 -24 0
-24 -31 -53 0
-24 -31 -68 0
-24 -31 -98 0
-24 -31 -99 0
-24 -31 -100 0
-24 -31 -101 0
-24 -53 -68 0
-24 -53 -98 0
-24 -53 -99 0
-24 -53 -100 0
-24 -53 -101 0
-24 -68 -98 0
-24 -68 -99 0
-24 -68 -100 0
-24 -68 -101 0
-24 -98 -99 0
-24 -98 -100 0
-24 -98 -101 0
-24 -99 -100 0
-24 -99 -101 0
-24 -100 -101 0
-31 -53 -68 0
-31 -53 -98 0
-31 -53 -99 0
-31 -53 -100 0
-31 -53 -101 0
-31 -68 -98 0
-31 -68 -99 0
-31 -68 -100 0
-31 -68 -101 0
-31 -98 -99 0
-31 -98 -100 0
-31 -98 -101 0
-31 -99 -100 0
-31 -99 -101 0
-31 -100 -101 0
-53 -68 -98 0
-53 -68 -99 0
-53 -68 -100 0
-53 -68 -101 0
-53 -98 -99 0
-53 -98 -100 0
-53 -98 -101 0
-53 -99 -100 0
-53 -99 -101 0
-53 -100 -101 0
-68 -98 -99 0
-68 -98 -100 0
-68 -98 -101 0
-68 -99 -100 0
-68 -99 -101 0
-68 -100 -101 0
-98 -99 -100 0
-98 -99 -101 0
-98 -100 -101 0
-99 -100 -101 0
31 53 68 98 99 100 101 0
24 53 68 98 99 100 101 0
24 31 68 98 99 100 101 0
24 31 53 98 99 100 101 0
24 31 53 68 99 100 101 0
24 31 53 68 98 100 101 0
24 31 53 68 98 99 101 0
24 31 53 68 98 99 100 0
-25 -26 -27 0
-25 -26 -28 0
-25 -27 -28 0
-26 -27 -28 0
-28 -35 -57 0
-28 -35 -72 0
-28 -35 -102 0
-28 -35 -103 0
-28 -35 -104 0
-28 -35 -105 0
-28 -57 -72 0
-28 -57 -102 0
-28 -57 -103 0
-28 -57 -104 0
-28 -57 -105 0
-28 -72 -102 0
-28 -72 -103 0
-28 -72 -104 0
-28 -72 -105 0
-28 -102 -103 0
-28 -102 -104 0
-28 -102 -105 0
-28 -103 -104 0
-28 -103 -105 0
-28 -104 -105 0
-35 -57 -72 0
-35 -57 -102 0
-35 -57 -103 0
-35 -57 -104 0
-35 -57 -105 0
-35 -72 -102 0
-35 -72 -103 0
-35 -72 -104 0
-35 -72 -105 0
-35 -102 -103 0
-35 -102 -104 0
-35 -102 -105 0
-35 -103 -104 0
-35 -103 -105 0
-35 -104 -105 0
-57 -72 -102 0
-57 -72 -103 0
-57 -72 -104 0
-57 -72 -105 0
-57 -102 -103 0
-57 -102 -104 0
-57 -102 -105 0
-57 -103 -104 0
-57 -103 -105 0
-57 -104 -105 0
-72 -102 -103 0
-72 -102 -104 0
-72 -102 -105 0
-72 -103 -104 0
-72 -103 -105 0
-72 -104 -105 0
-102 -103 -104 0
-102 -103 -105 0
-102 -104 -105 0
-103 -104 -105 0
35 57 72 102 103 104 105 0
28 57 72 102 103 104 105 0
28 35 72 102 103 104 105 0
28 35 57 102 103 104 105 0
28 35 57 72 103 104 105 0
28 35 57 72 102 104 105 0
28 35 57 72 102 103 105 0
28 35 57 72 102 103 104 0
-29 -30 -31 0
-29 -30 -32 0
-29 -31 -32 0
-30 -31 -32 0
-32 -39 -61 0
-32 -39 -76 0
-32 -39 -106 0
-32 -39 -107 0
-32 -39 -108 0
-32 -39 -109 0
-32 -61 -76 0
-32 -61 -106 0
-32 -61 -107 0
-32 -61 -108 0
-32 -61 -109 0
-32 -76 -106 0
-32 -76 -107 0
-32 -76 -108 0
-32 -76 -109 0
-32 -106 -107 0
-32 -106 -108 0
-32 -106 -109 0
-32 -107 -108 0
-32 -107 -109 0
-32 -108 -109 0
-39 -61 -76 0
-39 -61 -106 0
-39 -61 -107 0
-39 -61 -108 0
-39 -61 -109 0
-39 -76 -106 0
-39 -76 -107 0
-39 -76 -108 0
-39 -76 -109 0
-39 -106 -107 0
-39 -106 -108 0
-39 -106 -109 0
-39 -107 -108 0
-39 -107 -109 0
-39 -108 -109 0
-61 -76 -106 0
-61 -76 -107 0
-61 -76 -108 0
-61 -76 -109 0
-61 -106 -107 0
-61 -106 -108 0
-61 -106 -109 0
-61 -107 -108 0
-61 -107 -109 0
-61 -108 -109 0
-76 -106 -107 0
-76 -106 -108 0
-76 -106 -109 0
-76 -107 -108 0
-76 -107 -109 0
-76 -108 -109 0
-106 -107 -108 0
-106 -107 -109 0
-106 -108 -109 0
-107 -108 -109 0
39 61 76 106 107 108 109 0
32 61 76 106 107 108 109 0
32 39 76 106 107 108 109 0
32 39 61 106 107 108 109 0
32 39 61 76 107 108 109 0
32 39 61 76 106 108 109 0
32 39 61 76 106 107 109 0
32 39 61 76 106 107 108 0
-33 -34 -35 0
-33 -34 -36 0
-33 -35 -36 0
-34 -35 -36 0
-36 -42 -65 0
-36 -42 -80 0
-36 -42 -110 0
-36 -42 -111 0
-36 -42 -112 0
-36 -42 -113 0
-36 -65 -80 0
-36 -65 -110 0
-36 -65 -111 0
-36 -65 -112 0
-36 -65 -113 0
-36 -80 -110 0
-36 -80 -111 0
-36 -80 -112 0
-36 -80 -113 0
-36 -110 -111 0
-36 -110 -112 0
-36 -110 -113 0
-36 -111 -112 0
-36 -111 -113 0
-36 -112 -113 0
-42 -65 -80 0
-42 -65 -110 0
-42 -65 -111 0
-42 -65 -112 0
-42 -65 -113 0
-42 -80 -110 0
-42 -80 -111 0
-42 -80 -112 0
-42 -80 -113 0
-42 -110 -111 0
-42 -110 -112 0
-42 -110 -113 0
-42 -111 -112 0
-42 -111 -113 0
-42 -112 -113 0
-65 -80 -110 0
-65 -80 -111 0
-65 -80 -112 0
-65 -80 -113 0
-65 -110 -111 0
-65 -110 -112 0
-65 -110 -113 0
-65 -111 -112 0
-65 -111 -113 0
-65 -112 -113 0
-80 -110 -111 0
-80 -110 -112 0
-80 -110 -113 0
-80 -111 -112 0
-80 -111 -113 0
-80 -112 -113 0
-110 -111 -112 0
-110 -111 -113 0
-110 -112 -113 0
-111 -112 -113 0
42 65 80 110 111 112 113 0
36 65 80 110 111 112 113 0
36 42 80 110 111 112 113 0
36 42 65 110 111 112 113 0
36 42 65 80 111 112 113 0
36 42 65 80 110 112 113 0
36 42 65 80 110 111 113 0
36 42 65 80 110 111 112 0
-37 -38 -39 0
-37 -38 -40 0
-37 -39 -40 0
-38 -39 -40 0
-40 -45 -69 0
-40 -45 -84 0
-40 -45 -114 0
-40 -45 -115 0
-40 -45 -116 0
-40 -45 -117 0
-40 -69 -84 0
-40 -69 -114 0
-40 -69 -115 0
-40 -69 -116 0
-40 -69 -117 0
-40 -84 -114 0
-40 -84 -115 0
-40 -84 -116 0
-40 -84 -117 0
-40 -114 -115 0
-40 -114 -116 0
-40 -114 -117 0
-40 -115 -116 0
-40 -115 -117 0
-40 -116 -117 0
-45 -69 -84 0
-45 -69 -114 0
-45 -69 -115 0
-45 -69 -116 0
-45 -69 -117 0
-45 -84 -114 0
-45 -84 -115 0
-45 -84 -116 0
-45 -84 -117 0
-45 -114 -115 0
-45 -114 -116 0
-45 -114 -117 0
-45 -115 -116 0
-45 -115 -117 0
-45 -116 -117 0
-69 -84 -114 0
-69 -84 -115 0
-69 -84 -116 0
-69 -84 -117 0
-69 -114 -115 0
-69 -114 -116 0
-69 -114 -117 0
-69 -115 -116 0
-69 -115 -117 0
-69 -116 -117 0
-84 -114 -115 0
-84 -114 -116 0
-84 -114 -117 0
-84 -115 -116 0
-84 -115 -117 0
-84 -116 -117 0
-114 -115 -116 0
-114 -115 -117 0
-114 -116 -117 0
-115 -116 -117 0
45 69 84 114 115 116 117 0
40 69 84 114 115 116 117 0
40 45 84 114 115 116 117 0
40 45 69 114 115 116 117 0
40 45 69 84 115 116 117 0
40 45 69 84 114 116 117 0
40 45 69 84 114 115 117 0
40 45 69 84 114 115 116 0
-41 -42 -43 0
-43 -47 -73 0
-43 -47 -86 0
-43 -47 -118 0
-43 -47 -119 0
-43 -47 -120 0
-43 -47 -121 0
-43 -73 -86 0
-43 -73 -118 0
-43 -73 -119 0
-43 -73 -120 0
-43 -73 -121 0
-43 -86 -118 0
-43 -86 -119 0
-43 -86 -120 0
-43 -86 -121 0
-43 -118 -119 0
-43 -118 -120 0
-43 -118 -121 0
-43 -119 -120 0
-43 -119 -121 0
-43 -120 -121 0
-47 -73 -86 0
-47 -73 -118 0
-47 -73 -119 0
-47 -73 -120 0
-47 -73 -121 0
-47 -86 -118 0
-47 -86 -119 0
-47 -86 -120 0
-47 -86 -121 0
-47 -118 -119 0
-47 -118 -120 0
-47 -118 -121 0
-47 -119 -120 0
-47 -119 -121 0
-47 -120 -121 0
-73 -86 -118 0
-73 -86 -119 0
-73 -86 -120 0
-73 -86 -121 0
-73 -118 -119 0
-73 -118 -120 0
-73 -118 -121 0
-73 -119 -120 0
-73 -119 -121 0
-73 -120 -121 0
-86 -118 -119 0
-86 -118 -120 0
-86 -118 -121 0
-86 -119 -120 0
-86 -119 -121 0
-86 -120 -121 0
-118 -119 -120 0
-118 -119 -121 0
-118 -120 -121 0
-119 -120 -121 0
47 73 86 118 119 120 121 0
43 73 86 118 119 120 121 0
43 47 86 118 119 120 121 0
43 47 73 118 119 120 121 0
43 47 73 86 119 120 121 0
43 47 73 86 118 120 121 0
43 47 73 86 118 119 121 0
43 47 73 86 118 119 120 0
-51 -58 -87 0
-51 -58 -98 0
-51 -58 -128 0
-51 -58 -129 0
-51 -58 -130 0
-51 -58 -131 0
-51 -87 -98 0
-51 -87 -128 0
-51 -87 -129 0
-51 -87 -130 0
-51 -87 -131 0
-51 -98 -128 0
-51 -98 -129 0
-51 -98 -130 0
-51 -98 -131 0
-51 -128 -129 0
-51 -128 -130 0
-51 -128 -131 0
-51 -129 -130 0
-51 -129 -131 0
-51 -130 -131 0
-58 -87 -98 0
-58 -87 -128 0
-58 -87 -129 0
-58 -87 -130 0
-58 -87 -131 0
-58 -98 -128 0
-58 -98 -129 0
-58 -98 -130 0
-58 -98 -131 0
-58 -128 -129 0
-58 -128 -130 0
-58 -128 -131 0
-58 -129 -130 0
-58 -129 -131 0
-58 -130 -131 0
-87 -98 -128 0
-87 -98 -129 0
-87 -98 -130 0
-87 -98 -131 0
-87 -128 -129 0
-87 -128 -130 0
-87 -128 -131 0
-87 -129 -130 0
-87 -129 -131 0
-87 -130 -131 0
-98 -128 -129 0
-98 -128 -130 0
-98 -128 -131 0
-98 -129 -130 0
-98 -129 -131 0
-98 -130 -131 0
-128 -129 -130 0
-128 -129 -131 0
-128 -130 -131 0
-129 -130 -131 0
58 87 98 128 129 130 131 0
51 87 98 128 129 130 131 0
51 58 98 128 129 130 131 0
51 58 87 128 129 130 131 0
51 58 87 98 129 130 131 0
51 58 87 98 128 130 131 0
51 58 87 98 128 129 131 0
51 58 87 98 128 129 130 0
-54 -94 -126 0
-54 -94 -127 0
-54 -126 -127 0
-94 -126 -127 0
-55 -62 -88 0
-55 -62 -102 0
-55 -62 -132 0
-55 -62 -133 0
-55 -62 -134 0
-55 -62 -135 0
-55 -88 -102 0
-55 -88 -132 0
-55 -88 -133 0
-55 -88 -134 0
-55 -88 -135 0
-55 -102 -132 0
-55 -102 -133 0
-55 -102 -134 0
-55 -102 -135 0
-55 -132 -133 0
-55 -132 -134 0
-55 -132 -135 0
-55 -133 -134 0
-55 -133 -135 0
-55 -134 -135 0
-62 -88 -102 0
-62 -88 -132 0
-62 -88 -133 0
-62 -88 -134 0
-62 -88 -135 0
-62 -102 -132 0
-62 -102 -133 0
-62 -102 -134 0
-62 -102 -135 0
-62 -132 -133 0
-62 -132 -134 0
-62 -132 -135 0
-62 -133 -134 0
-62 -133 -135 0
-62 -134 -135 0
-88 -102 -132 0
-88 -102 -133 0
-88 -102 -134 0
-88 -102 -135 0
-88 -132 -133 0
-88 -132 -134 0
-88 -132 -135 0
-88 -133 -134 0
-88 -133 -135 0
-88 -134 -135 0
-102 -132 -133 0
-102 -132 -134 0
-102 -132 -135 0
-102 -133 -134 0
-102 -133 -135 0
-102 -134 -135 0
-132 -133 -134 0
-132 -133 -135 0
-132 -134 -135 0
-133 -134 -135 0
62 88 102 132 133 134 135 0
55 88 102 132 133 134 135 0
55 62 102 132 133 134 135 0
55 62 88 132 133 134 135 0
55 62 88 102 133 134 135 0
55 62 88 102 132 134 135 0
55 62 88 102 132 133 135 0
55 62 88 102 132 133 134 0
-56 -88 -89 0
-59 -66 -91 0
-59 -66 -106 0
-59 -66 -136 0
-59 -66 -137 0
-59 -66 -138 0
-59 -66 -139 0
-59 -91 -106 0
-59 -91 -136 0
-59 -91 -137 0
-59 -91 -138 0
-59 -91 -139 0
-59 -106 -136 0
-59 -106 -137 0
-59 -106 -138 0
-59 -106 -139 0
-59 -136 -137 0
-59 -136 -138 0
-59 -136 -139 0
-59 -137 -138 0
-59 -137 -139 0
-59 -138 -139 0
-66 -91 -106 0
-66 -91 -136 0
-66 -91 -137 0
-66 -91 -138 0
-66 -91 -139 0
-66 -106 -136 0
-66 -106 -137 0
-66 -106 -138 0
-66 -106 -139 0
-66 -136 -137 0
-66 -136 -138 0
-66 -136 -139 0
-66 -137 -138 0
-66 -137 -139 0
-66 -138 -139 0
-91 -106 -136 0
-91 -106 -137 0
-91 -106 -138 0
-91 -106 -139 0
-91 -136 -137 0
-91 -136 -138 0
-91 -136 -139 0
-91 -137 -138 0
-91 -137 -139 0
-91 -138 -139 0
-106 -136 -137 0
-106 -136 -138 0
-106 -136 -139 0
-106 -137 -138 0
-106 -137 -139 0
-106 -138 -139 0
-136 -137 -138 0
-136 -137 -139 0
-136 -138 -139 0
-137 -138 -139 0
66 91 106 136 137 138 139 0
59 91 106 136 137 138 139 0
59 66 106 136 137 138 139 0
59 66 91 136 137 138 139 0
59 66 91 106 137 138 139 0
59 66 91 106 136 138 139 0
59 66 91 106 136 137 139 0
59 66 91 106 136 137 138 0
-63 -70 -95 0
-63 -70 -110 0
-63 -70 -140 0
-63 -70 -141 0
-63 -70 -142 0
-63 -70 -143 0
-63 -95 -110 0
-63 -95 -140 0
-63 -95 -141 0
-63 -95 -142 0
-63 -95 -143 0
-63 -110 -140 0
-63 -110 -141 0
-63 -110 -142 0
-63 -110 -143 0
-63 -140 -141 0
-63 -140 -142 0
-63 -140 -143 0
-63 -141 -142 0
-63 -141 -143 0
-63 -142 -143 0
-70 -95 -110 0
-70 -95 -140 0
-70 -95 -141 0
-70 -95 -142 0
-70 -95 -143 0
-70 -110 -140 0
-70 -110 -141 0
-70 -110 -142 0
-70 -110 -143 0
-70 -140 -141 0
-70 -140 -142 0
-70 -140 -143 0
-70 -141 -142 0
-70 -141 -143 0
-70 -142 -143 0
-95 -110 -140 0
-95 -110 -141 0
-95 -110 -142 0
-95 -110 -143 0
-95 -140 -141 0
-95 -140 -142 0
-95 -140 -143 0
-95 -141 -142 0
-95 -141 -143 0
-95 -142 -143 0
-110 -140 -141 0
-110 -140 -142 0
-110 -140 -143 0
-110 -141 -142 0
-110 -141 -143 0
-110 -142 -143 0
-140 -141 -142 0
-140 -141 -143 0
-140 -142 -143 0
-141 -142 -143 0
70 95 110 140 141 142 143 0
63 95 110 140 141 142 143 0
63 70 110 140 141 142 143 0
63 70 95 140 141 142 143 0
63 70 95 110 141 142 143 0
63 70 95 110 140 142 143 0
63 70 95 110 140 141 143 0
63 70 95 110 140 141 142 0
-67 -74 -99 0
-67 -74 -114 0
-67 -74 -144 0
-67 -74 -145 0
-67 -74 -146 0
-67 -74 -147 0
-67 -99 -114 0
-67 -99 -144 0
-67 -99 -145 0
-67 -99 -146 0
-67 -99 -147 0
-67 -114 -144 0
-67 -114 -145 0
-67 -114 -146 0
-67 -114 -147 0
-67 -144 -145 0
-67 -144 -146 0
-67 -144 -147 0
-67 -145 -146 0
-67 -145 -147 0
-67 -146 -147 0
-74 -99 -114 0
-74 -99 -144 0
-74 -99 -145 0
-74 -99 -146 0
-74 -99 -147 0
-74 -114 -144 0
-74 -114 -145 0
-74 -114 -146 0
-74 -114 -147 0
-74 -144 -145 0
-74 -144 -146 0
-74 -144 -147 0
-74 -145 -146 0
-74 -145 -147 0
-74 -146 -147 0
-99 -114 -144 0
-99 -114 -145 0
-99 -114 -146 0
-99 -114 -147 0
-99 -144 -145 0
-99 -144 -146 0
-99 -144 -147 0
-99 -145 -146 0
-99 -145 -147 0
-99 -146 -147 0
-114 -144 -145 0
-114 -144 -146 0
-114 -144 -147 0
-114 -145 -146 0
-114 -145 -147 0
-114 -146 -147 0
-144 -145 -146 0
-144 -145 -147 0
-144 -146 -147 0
-145 -146 -147 0
74 99 114 144 145 146 147 0
67 99 114 144 145 146 147 0
67 74 114 144 145 146 147 0
67 74 99 144 145 146 147 0
67 74 99 114 145 146 147 0
67 74 99 114 144 146 147 0
67 74 99 114 144 145 147 0
67 74 99 114 144 145 146 0
-71 -78 -103 0
-71 -78 -118 0
-71 -78 -148 0
-71 -78 -149 0
-71 -78 -150 0
-71 -78 -151 0
-71 -103 -118 0
-71 -103 -148 0
-71 -103 -149 0
-71 -103 -150 0
-71 -103 -151 0
-71 -118 -148 0
-71 -118 -149 0
-71 -118 -150 0
-71 -118 -151 0
-71 -148 -149 0
-71 -148 -150 0
-71 -148 -151 0
-71 -149 -150 0
-71 -149 -151 0
-71 -150 -151 0
-78 -103 -118 0
-78 -103 -148 0
-78 -103 -149 0
-78 -103 -150 0
-78 -103 -151 0
-78 -118 -148 0
-78 -118 -149 0
-78 -118 -150 0
-78 -118 -151 0
-78 -148 -149 0
-78 -148 -150 0
-78 -148 -151 0
-78 -149 -150 0
-78 -149 -151 0
-78 -150 -151 0
-103 -118 -148 0
-103 -118 -149 0
-103 -118 -150 0
-103 -118 -151 0
-103 -148 -149 0
-103 -148 -150 0
-103 -148 -151 0
-103 -149 -150 0
-103 -149 -151 0
-103 -150 -151 0
-118 -148 -149 0
-118 -148 -150 0
-118 -148 -151 0
-118 -149 -150 0
-118 -149 -151 0
-118 -150 -151 0
-148 -149 -150 0
-148 -149 -151 0
-148 -150 -151 0
-149 -150 -151 0
78 103 118 148 149 150 151 0
71 103 118 148 149 150 151 0
71 78 118 148 149 150 151 0
71 78 103 148 149 150 151 0
71 78 103 118 149 150 151 0
71 78 103 118 148 150 151 0
71 78 103 118 148 149 151 0
71 78 103 118 148 149 150 0
-75 -82 -107 0
-75 -82 -122 0
-75 -82 -152 0
-75 -82 -153 0
-75 -82 -154 0
-75 -82 -155 0
-75 -107 -122 0
-75 -107 -152 0
-75 -107 -153 0
-75 -107 -154 0
-75 -107 -155 0
-75 -122 -152 0
-75 -122 -153 0
-75 -122 -154 0
-75 -122 -155 0
-75 -152 -153 0
-75 -152 -154 0
-75 -152 -155 0
-75 -153 -154 0
-75 -153 -155 0
-75 -154 -155 0
-82 -107 -122 0
-82 -107 -152 0
-82 -107 -153 0
-82 -107 -154 0
-82 -107 -155 0
-82 -122 -152 0
-82 -122 -153 0
-82 -122 -154 0
-82 -122 -155 0
-82 -152 -153 0
-82 -152 -154 0
-82 -152 -155 0
-82 -153 -154 0
-82 -153 -155 0
-82 -154 -155 0
-107 -122 -152 0
-107 -122 -153 0
-107 -122 -154 0
-107 -122 -155 0
-107 -152 -153 0
-107 -152 -154 0
-107 -152 -155 0
-107 -153 -154 0
-107 -153 -155 0
-107 -154 -155 0
-122 -152 -153 0
-122 -152 -154 0
-122 -152 -155 0
-122 -153 -154 0
-122 -153 -155 0
-122 -154 -155 0
-152 -153 -154 0
-152 -153 -155 0
-152 -154 -155 0
-153 -154 -155 0
82 107 122 152 153 154 155 0
75 107 122 152 153 154 155 0
75 82 122 152 153 154 155 0
75 82 107 152 153 154 155 0
75 82 107 122 153 154 155 0
75 82 107 122 152 154 155 0
75 82 107 122 152 153 155 0
75 82 107 122 152 153 154 0
-77 -122 -123 0
-79 -85 -111 0
-79 -85 -124 0
-79 -85 -156 0
-79 -85 -157 0
-79 -85 -158 0
-79 -85 -159 0
-79 -111 -124 0
-79 -111 -156 0
-79 -111 -157 0
-79 -111 -158 0
-79 -111 -159 0
-79 -124 -156 0
-79 -124 -157 0
-79 -124 -158 0
-79 -124 -159 0
-79 -156 -157 0
-79 -156 -158 0
-79 -156 -159 0
-79 -157 -158 0
-79 -157 -159 0
-79 -158 -159 0
-85 -111 -124 0
-85 -111 -156 0
-85 -111 -157 0
-85 -111 -158 0
-85 -111 -159 0
-85 -124 -156 0
-85 -124 -157 0
-85 -124 -158 0
-85 -124 -159 0
-85 -156 -157 0
-85 -156 -158 0
-85 -156 -159 0
-85 -157 -158 0
-85 -157 -159 0
-85 -158 -159 0
-111 -124 -156 0
-111 -124 -157 0
-111 -124 -158 0
-111 -124 -159 0
-111 -156 -157 0
-111 -156 -158 0
-111 -156 -159 0
-111 -157 -158 0
-111 -157 -159 0
-111 -158 -159 0
-124 -156 -157 0
-124 -156 -158 0
-124 -156 -159 0
-124 -157 -158 0
-124 -157 -159 0
-124 -158 -159 0
-156 -157 -158 0
-156 -157 -159 0
-156 -158 -159 0
-157 -158 -159 0
85 111 124 156 157 158 159 0
79 111 124 156 157 158 159 0
79 85 124 156 157 158 159 0
79 85 111 156 157 158 159 0
79 85 111 124 157 158 159 0
79 85 111 124 156 158 159 0
79 85 111 124 156 157 159 0
79 85 111 124 156 157 158 0
-83 -115 -160 0
-83 -115 -161 0
-83 -160 -161 0
-115 -160 -161 0
-89 -96 -125 0
-89 -96 -136 0
-89 -96 -166 0
-89 -96 -167 0
-89 -96 -168 0
-89 -96 -169 0
-89 -125 -136 0
-89 -125 -166 0
-89 -125 -167 0
-89 -125 -168 0
-89 -125 -169 0
-89 -136 -166 0
-89 -136 -167 0
-89 -136 -168 0
-89 -136 -169 0
-89 -166 -167 0
-89 -166 -168 0
-89 -166 -169 0
-89 -167 -168 0
-89 -167 -169 0
-89 -168 -169 0
-96 -125 -136 0
-96 -125 -166 0
-96 -125 -167 0
-96 -125 -168 0
-96 -125 -169 0
-96 -136 -166 0
-96 -136 -167 0
-96 -136 -168 0
-96 -136 -169 0
-96 -166 -167 0
-96 -166 -168 0
-96 -166 -169 0
-96 -167 -168 0
-96 -167 -169 0
-96 -168 -169 0
-125 -136 -166 0
-125 -136 -167 0
-125 -136 -168 0
-125 -136 -169 0
-125 -166 -167 0
-125 -166 -168 0
-125 -166 -169 0
-125 -167 -168 0
-125 -167 -169 0
-125 -168 -169 0
-136 -166 -167 0
-136 -166 -168 0
-136 -166 -169 0
-136 -167 -168 0
-136 -167 -169 0
-136 -168 -169 0
-166 -167 -168 0
-166 -167 -169 0
-166 -168 -169 0
-167 -168 -169 0
96 125 136 166 167 168 169 0
89 125 136 166 167 168 169 0
89 96 136 166 167 168 169 0
89 96 125 166 167 168 169 0
89 96 125 136 167 168 169 0
89 96 125 136 166 168 169 0
89 96 125 136 166 167 169 0
89 96 125 136 166 167 168 0
-92 -132 -164 0
-92 -132 -165 0
-92 -164 -165 0
-132 -164 -165 0
-93 -100 -126 0
-93 -100 -140 0
-93 -100 -170 0
-93 -100 -171 0
-93 -100 -172 0
-93 -100 -173 0
-93 -126 -140 0
-93 -126 -170 0
-93 -126 -171 0
-93 -126 -172 0
-93 -126 -173 0
-93 -140 -170 0
-93 -140 -171 0
-93 -140 -172 0
-93 -140 -173 0
-93 -170 -171 0
-93 -170 -172 0
-93 -170 -173 0
-93 -171 -172 0
-93 -171 -173 0
-93 -172 -173 0
-100 -126 -140 0
-100 -126 -170 0
-100 -126 -171 0
-100 -126 -172 0
-100 -126 -173 0
-100 -140 -170 0
-100 -140 -171 0
-100 -140 -172 0
-100 -140 -173 0
-100 -170 -171 0
-100 -170 -172 0
-100 -170 -173 0
-100 -171 -172 0
-100 -171 -173 0
-100 -172 -173 0
-126 -140 -170 0
-126 -140 -171 0
-126 -140 -172 0
-126 -140 -173 0
-126 -170 -171 0
-126 -170 -172 0
-126 -170 -173 0
-126 -171 -172 0
-126 -171 -173 0
-126 -172 -173 0
-140 -170 -171 0
-140 -170 -172 0
-140 -170 -173 0
-140 -171 -172 0
-140 -171 -173 0
-140 -172 -173 0
-170 -171 -172 0
-170 -171 -173 0
-170 -172 -173 0
-171 -172 -173 0
100 126 140 170 171 172 173 0
93 126 140 170 171 172 173 0
93 100 140 170 171 172 173 0
93 100 126 170 171 172 173 0
93 100 126 140 171 172 173 0
93 100 126 140 170 172 173 0
93 100 126 140 170 171 173 0
93 100 126 140 170 171 172 0
-97 -104 -129 0
-97 -104 -144 0
-97 -104 -174 0
-97 -104 -175 0
-97 -104 -176 0
-97 -104 -177 0
-97 -129 -144 0
-97 -129 -174 0
-97 -129 -175 0
-97 -129 -176 0
-97 -129 -177 0
-97 -144 -174 0
-97 -144 -175 0
-97 -144 -176 0
-97 -144 -177 0
-97 -174 -175 0
-97 -174 -176 0
-97 -174 -177 0
-97 -175 -176 0
-97 -175 -177 0
-97 -176 -177 0
-104 -129 -144 0
-104 -129 -174 0
-104 -129 -175 0
-104 -129 -176 0
-104 -129 -177 0
-104 -144 -174 0
-104 -144 -175 0
-104 -144 -176 0
-104 -144 -177 0
-104 -174 -175 0
-104 -174 -176 0
-104 -174 -177 0
-104 -175 -176 0
-104 -175 -177 0
-104 -176 -177 0
-129 -144 -174 0
-129 -144 -175 0
-129 -144 -176 0
-129 -144 -177 0
-129 -174 -175 0
-129 -174 -176 0
-129 -174 -177 0
-129 -175 -176 0
-129 -175 -177 0
-129 -176 -177 0
-144 -174 -175 0
-144 -174 -176 0
-144 -174 -177 0
-144 -175 -176 0
-144 -175 -177 0
-144 -176 -177 0
-174 -175 -176 0
-174 -175 -177 0
-174 -176 -177 0
-175 -176 -177 0
104 129 144 174 175 176 177 0
97 129 144 174 175 176 177 0
97 104 144 174 175 176 177 0
97 104 129 174 175 176 177 0
97 104 129 144 175 176 177 0
97 104 129 144 174 176 177 0
97 104 129 144 174 175 177 0
97 104 129 144 174 175 176 0
-101 -108 -133 0
-101 -108 -148 0
-101 -108 -178 0
-101 -108 -179 0
-101 -108 -180 0
-101 -108 -181 0
-101 -133 -148 0
-101 -133 -178 0
-101 -133 -179 0
-101 -133 -180 0
-101 -133 -181 0
-101 -148 -178 0
-101 -148 -179 0
-101 -148 -180 0
-101 -148 -181 0
-101 -178 -179 0
-101 -178 -180 0
-101 -178 -181 0
-101 -179 -180 0
-101 -179 -181 0
-101 -180 -181 0
-108 -133 -148 0
-108 -133 -178 0
-108 -133 -179 0
-108 -133 -180 0
-108 -133 -181 0
-108 -148 -178 0
-108 -148 -179 0
-108 -148 -180 0
-108 -148 -181 0
-108 -178 -179 0
-108 -178 -180 0
-108 -178 -181 0
-108 -179 -180 0
-108 -179 -181 0
-108 -180 -181 0
-133 -148 -178 0
-133 -148 -179 0
-133 -148 -180 0
-133 -148 -181 0
-133 -178 -179 0
-133 -178 -180 0
-133 -178 -181 0
-133 -179 -180 0
-133 -179 -181 0
-133 -180 -181 0
-148 -178 -179 0
-148 -178 -180 0
-148 -178 -181 0
-148 -179 -180 0
-148 -179 -181 0
-148 -180 -181 0
-178 -179 -180 0
-178 -179 -181 0
-178 -180 -181 0
-179 -180 -181 0
108 133 148 178 179 180 181 0
101 133 148 178 179 180 181 0
101 108 148 178 179 180 181 0
101 108 133 178 179 180 181 0
101 108 133 148 179 180 181 0
101 108 133 148 178 180 181 0
101 108 133 148 178 179 181 0
101 108 133 148 178 179 180 0
-105 -112 -137 0
-105 -112 -152 0
-105 -112 -182 0
-105 -112 -183 0
-105 -112 -184 0
-105 -112 -185 0
-105 -137 -152 0
-105 -137 -182 0
-105 -137 -183 0
-105 -137 -184 0
-105 -137 -185 0
-105 -152 -182 0
-105 -152 -183 0
-105 -152 -184 0
-105 -152 -185 0
-105 -182 -183 0
-105 -182 -184 0
-105 -182 -185 0
-105 -183 -184 0
-105 -183 -185 0
-105 -184 -185 0
-112 -137 -152 0
-112 -137 -182 0
-112 -137 -183 0
-112 -137 -184 0
-112 -137 -185 0
-112 -152 -182 0
-112 -152 -183 0
-112 -152 -184 0
-112 -152 -185 0
-112 -182 -183 0
-112 -182 -184 0
-112 -182 -185 0
-112 -183 -184 0
-112 -183 -185 0
-112 -184 -185 0
-137 -152 -182 0
-137 -152 -183 0
-137 -152 -184 0
-137 -152 -185 0
-137 -182 -183 0
-137 -182 -184 0
-137 -182 -185 0
-137 -183 -184 0
-137 -183 -185 0
-137 -184 -185 0
-152 -182 -183 0
-152 -182 -184 0
-152 -182 -185 0
-152 -183 -184 0
-152 -183 -185 0
-152 -184 -185 0
-182 -183 -184 0
-182 -183 -185 0
-182 -184 -185 0
-183 -184 -185 0
112 137 152 182 183 184 185 0
105 137 152 182 183 184 185 0
105 112 152 182 183 184 185 0
105 112 137 182 183 184 185 0
105 112 137 152 183 184 185 0
105 112 137 152 182 184 185 0
105 112 137 152 182 183 185 0
105 112 137 152 182 183 184 0
-109 -116 -141 0
-109 -116 -156 0
-109 -116 -186 0
-109 -116 -187 0
-109 -116 -188 0
-109 -116 -189 0
-109 -141 -156 0
-109 -141 -186 0
-109 -141 -187 0
-109 -141 -188 0
-109 -141 -189 0
-109 -156 -186 0
-109 -156 -187 0
-109 -156 -188 0
-109 -156 -189 0
-109 -186 -187 0
-109 -186 -188 0
-109 -186 -189 0
-109 -187 -188 0
-109 -187 -189 0
-109 -188 -189 0
-116 -141 -156 0
-116 -141 -186 0
-116 -141 -187 0
-116 -141 -188 0
-116 -141 -189 0
-116 -156 -186 0
-116 -156 -187 0
-116 -156 -188 0
-116 -156 -189 0
-116 -186 -187 0
-116 -186 -188 0
-116 -186 -189 0
-116 -187 -188 0
-116 -187 -189 0
-116 -188 -189 0
-141 -156 -186 0
-141 -156 -187 0
-141 -156 -188 0
-141 -156 -189 0
-141 -186 -187 0
-141 -186 -188 0
-141 -186 -189 0
-141 -187 -188 0
-141 -187 -189 0
-141 -188 -189 0
-156 -186 -187 0
-156 -186 -188 0
-156 -186 -189 0
-156 -187 -188 0
-156 -187 -189 0
-156 -188 -189 0
-186 -187 -188 0
-186 -187 -189 0
-186 -188 -189 0
-187 -188 -189 0
116 141 156 186 187 188 189 0
109 141 156 186 187 188 189 0
109 116 156 186 187 188 189 0
109 116 141 186 187 188 189 0
109 116 141 156 187 188 189 0
109 116 141 156 186 188 189 0
109 116 141 156 186 187 189 0
109 116 141 156 186 187 188 0
-113 -120 -145 0
-113 -120 -160 0
-113 -120 -190 0
-113 -120 -191 0
-113 -120 -192 0
-113 -120 -193 0
-113 -145 -160 0
-113 -145 -190 0
-113 -145 -191 0
-113 -145 -192 0
-113 -145 -193 0
-113 -160 -190 0
-113 -160 -191 0
-113 -160 -192 0
-113 -160 -193 0
-113 -190 -191 0
-113 -190 -192 0
-113 -190 -193 0
-113 -191 -192 0
-113 -191 -193 0
-113 -192 -193 0
-120 -145 -160 0
-120 -145 -190 0
-120 -145 -191 0
-120 -145 -192 0
-120 -145 -193 0
-120 -160 -190 0
-120 -160 -191 0
-120 -160 -192 0
-120 -160 -193 0
-120 -190 -191 0
-120 -190 -192 0
-120 -190 -193 0
-120 -191 -192 0
-120 -191 -193 0
-120 -192 -193 0
-145 -160 -190 0
-145 -160 -191 0
-145 -160 -192 0
-145 -160 -193 0
-145 -190 -191 0
-145 -190 -192 0
-145 -190 -193 0
-145 -191 -192 0
-145 -191 -193 0
-145 -192 -193 0
-160 -190 -191 0
-160 -190 -192 0
-160 -190 -193 0
-160 -191 -192 0
-160 -191 -193 0
-160 -192 -193 0
-190 -191 -192 0
-190 -191 -193 0
-190 -192 -193 0
-191 -192 -193 0
120 145 160 190 191 192 193 0
113 145 160 190 191 192 193 0
113 120 160 190 191 192 193 0
113 120 145 190 191 192 193 0
113 120 145 160 191 192 193 0
113 120 145 160 190 192 193 0
113 120 145 160 190 191 193 0
113 120 145 160 190 191 192 0
-117 -123 -149 0
-117 -123 -162 0
-117 -123 -194 0
-117 -123 -195 0
-117 -123 -196 0
-117 -123 -197 0
-117 -149 -162 0
-117 -149 -194 0
-117 -149 -195 0
-117 -149 -196 0
-117 -149 -197 0
-117 -162 -194 0
-117 -162 -195 0
-117 -162 -196 0
-117 -162 -197 0
-117 -194 -195 0
-117 -194 -196 0
-117 -194 -197 0
-117 -195 -196 0
-117 -195 -197 0
-117 -196 -197 0
-123 -149 -162 0
-123 -149 -194 0
-123 -149 -195 0
-123 -149 -196 0
-123 -149 -197 0
-123 -162 -194 0
-123 -162 -195 0
-123 -162 -196 0
-123 -162 -197 0
-123 -194 -195 0
-123 -194 -196 0
-123 -194 -197 0
-123 -195 -196 0
-123 -195 -197 0
-123 -196 -197 0
-149 -162 -194 0
-149 -162 -195 0
-149 -162 -196 0
-149 -162 -197 0
-149 -194 -195 0
-149 -194 -196 0
-149 -194 -197 0
-149 -195 -196 0
-149 -195 -197 0
-149 -196 -197 0
-162 -194 -195 0
-162 -194 -196 0
-162 -194 -197 0
-162 -195 -196 0
-162 -195 -197 0
-162 -196 -197 0
-194 -195 -196 0
-194 -195 -197 0
-194 -196 -197 0
-195 -196 -197 0
123 149 162 194 195 196 197 0
117 149 162 194 195 196 197 0
117 123 162 194 195 196 197 0
117 123 149 194 195 196 197 0
117 123 149 162 195 196 197 0
117 123 149 162 194 196 197 0
117 123 149 162 194 195 197 0
117 123 149 162 194 195 196 0
-121 -153 -198 0
-121 -153 -199 0
-121 -198 -199 0
-153 -198 -199 0
-127 -134 -163 0
-127 -134 -174 0
-127 -134 -204 0
-127 -134 -205 0
-127 -134 -206 0
-127 -134 -207 0
-127 -163 -174 0
-127 -163 -204 0
-127 -163 -205 0
-127 -163 -206 0
-127 -163 -207 0
-127 -174 -204 0
-127 -174 -205 0
-127 -174 -206 0
-127 -174 -207 0
-127 -204 -205 0
-127 -204 -206 0
-127 -204 -207 0
-127 -205 -206 0
-127 -205 -207 0
-127 -206 -207 0
-134 -163 -174 0
-134 -163 -204 0
-134 -163 -205 0
-134 -163 -206 0
-134 -163 -207 0
-134 -174 -204 0
-134 -174 -205 0
-134 -174 -206 0
-134 -174 -207 0
-134 -204 -205 0
-134 -204 -206 0
-134 -204 -207 0
-134 -205 -206 0
-134 -205 -207 0
-134 -206 -207 0
-163 -174 -204 0
-163 -174 -205 0
-163 -174 -206 0
-163 -174 -207 0
-163 -204 -205 0
-163 -204 -206 0
-163 -204 -207 0
-163 -205 -206 0
-163 -205 -207 0
-163 -206 -207 0
-174 -204 -205 0
-174 -204 -206 0
-174 -204 -207 0
-174 -205 -206 0
-174 -205 -207 0
-174 -206 -207 0
-204 -205 -206 0
-204 -205 -207 0
-204 -206 -207 0
-205 -206 -207 0
134 163 174 204 205 206 207 0
127 163 174 204 205 206 207 0
127 134 174 204 205 206 207 0
127 134 163 204 205 206 207 0
127 134 163 174 205 206 207 0
127 134 163 174 204 206 207 0
127 134 163 174 204 205 207 0
127 134 163 174 204 205 206 0
-130 -170 -202 0
-130 -170 -203 0
-130 -202 -203 0
-170 -202 -203 0
-131 -138 -164 0
-131 -138 -178 0
-131 -138 -208 0
-131 -138 -209 0
-131 -138 -210 0
-131 -138 -211 0
-131 -164 -178 0
-131 -164 -208 0
-131 -164 -209 0
-131 -164 -210 0
-131 -164 -211 0
-131 -178 -208 0
-131 -178 -209 0
-131 -178 -210 0
-131 -178 -211 0
-131 -208 -209 0
-131 -208 -210 0
-131 -208 -211 0
-131 -209 -210 0
-131 -209 -211 0
-131 -210 -211 0
-138 -164 -178 0
-138 -164 -208 0
-138 -164 -209 0
-138 -164 -210 0
-138 -164 -211 0
-138 -178 -208 0
-138 -178 -209 0
-138 -178 -210 0
-138 -178 -211 0
-138 -208 -209 0
-138 -208 -210 0
-138 -208 -211 0
-138 -209 -210 0
-138 -209 -211 0
-138 -210 -211 0
-164 -178 -208 0
-164 -178 -209 0
-164 -178 -210 0
-164 -178 -211 0
-164 -208 -209 0
-164 -208 -210 0
-164 -208 -211 0
-164 -209 -210 0
-164 -209 -211 0
-164 -210 -211 0
-178 -208 -209 0
-178 -208 -210 0
-178 -208 -211 0
-178 -209 -210 0
-178 -209 -211 0
-178 -210 -211 0
-208 -209 -210 0
-208 -209 -211 0
-208 -210 -211 0
-209 -210 -211 0
138 164 178 208 209 210 211 0
131 164 178 208 209 210 211 0
131 138 178 208 209 210 211 0
131 138 164 208 209 210 211 0
131 138 164 178 209 210 211 0
131 138 164 178 208 210 211 0
131 138 164 178 208 209 211 0
131 138 164 178 208 209 210 0
-135 -142 -167 0
-135 -142 -182 0
-135 -142 -212 0
-135 -142 -213 0
-135 -142 -214 0
-135 -142 -215 0
-135 -167 -182 0
-135 -167 -212 0
-135 -167 -213 0
-135 -167 -214 0
-135 -167 -215 0
-135 -182 -212 0
-135 -182 -213 0
-135 -182 -214 0
-135 -182 -215 0
-135 -212 -213 0
-135 -212 -214 0
-135 -212 -215 0
-135 -213 -214 0
-135 -213 -215 0
-135 -214 -215 0
-142 -167 -182 0
-142 -167 -212 0
-142 -167 -213 0
-142 -167 -214 0
-142 -167 -215 0
-142 -182 -212 0
-142 -182 -213 0
-142 -182 -214 0
-142 -182 -215 0
-142 -212 -213 0
-142 -212 -214 0
-142 -212 -215 0
-142 -213 -214 0
-142 -213 -215 0
-142 -214 -215 0
-167 -182 -212 0
-167 -182 -213 0
-167 -182 -214 0
-167 -182 -215 0
-167 -212 -213 0
-167 -212 -214 0
-167 -212 -215 0
-167 -213 -214 0
-167 -213 -215 0
-167 -214 -215 0
-182 -212 -213 0
-182 -212 -214 0
-182 -212 -215 0
-182 -213 -214 0
-182 -213 -215 0
-182 -214 -215 0
-212 -213 -214 0
-212 -213 -215 0
-212 -214 -215 0
-213 -214 -215 0
142 167 182 212 213 214 215 0
135 167 182 212 213 214 215 0
135 142 182 212 213 214 215 0
135 142 167 212 213 214 215 0
135 142 167 182 213 214 215 0
135 142 167 182 212 214 215 0
135 142 167 182 212 213 215 0
135 142 167 182 212 213 214 0
-139 -146 -171 0
-139 -146 -186 0
-139 -146 -216 0
-139 -146 -217 0
-139 -146 -218 0
-139 -146 -219 0
-139 -171 -186 0
-139 -171 -216 0
-139 -171 -217 0
-139 -171 -218 0
-139 -171 -219 0
-139 -186 -216 0
-139 -186 -217 0
-139 -186 -218 0
-139 -186 -219 0
-139 -216 -217 0
-139 -216 -218 0
-139 -216 -219 0
-139 -217 -218 0
-139 -217 -219 0
-139 -218 -219 0
-146 -171 -186 0
-146 -171 -216 0
-146 -171 -217 0
-146 -171 -218 0
-146 -171 -219 0
-146 -186 -216 0
-146 -186 -217 0
-146 -186 -218 0
-146 -186 -219 0
-146 -216 -217 0
-146 -216 -218 0
-146 -216 -219 0
-146 -217 -218 0
-146 -217 -219 0
-146 -218 -219 0
-171 -186 -216 0
-171 -186 -217 0
-171 -186 -218 0
-171 -186 -219 0
-171 -216 -217 0
-171 -216 -218 0
-171 -216 -219 0
-171 -217 -218 0
-171 -217 -219 0
-171 -218 -219 0
-186 -216 -217 0
-186 -216 -218 0
-186 -216 -219 0
-186 -217 -218 0
-186 -217 -219 0
-186 -218 -219 0
-216 -217 -218 0
-216 -217 -219 0
-216 -218 -219 0
-217 -218 -219 0
146 171 186 216 217 218 219 0
139 171 186 216 217 218 219 0
139 146 186 216 217 218 219 0
139 146 171 216 217 218 219 0
139 146 171 186 217 218 219 0
139 146 171 186 216 218 219 0
139 146 171 186 216 217 219 0
139 146 171 186 216 217 218 0
-143 -150 -175 0
-143 -150 -190 0
-143 -150 -220 0
-143 -150 -221 0
-143 -150 -222 0
-143 -150 -223 0
-143 -175 -190 0
-143 -175 -220 0
-143 -175 -221 0
-143 -175 -222 0
-143 -175 -223 0
-143 -190 -220 0
-143 -190 -221 0
-143 -190 -222 0
-143 -190 -223 0
-143 -220 -221 0
-143 -220 -222 0
-143 -220 -223 0
-143 -221 -222 0
-143 -221 -223 0
-143 -222 -223 0
-150 -175 -190 0
-150 -175 -220 0
-150 -175 -221 0
-150 -175 -222 0
-150 -175 -223 0
-150 -190 -220 0
-150 -190 -221 0
-150 -190 -222 0
-150 -190 -223 0
-150 -220 -221 0
-150 -220 -222 0
-150 -220 -223 0
-150 -221 -222 0
-150 -221 -223 0
-150 -222 -223 0
-175 -190 -220 0
-175 -190 -221 0
-175 -190 -222 0
-175 -190 -223 0
-175 -220 -221 0
-175 -220 -222 0
-175 -220 -223 0
-175 -221 -222 0
-175 -221 -223 0
-175 -222 -223 0
-190 -220 -221 0
-190 -220 -222 0
-190 -220 -223 0
-190 -221 -222 0
-190 -221 -223 0
-190 -222 -223 0
-220 -221 -222 0
-220 -221 -223 0
-220 -222 -223 0
-221 -222 -223 0
150 175 190 220 221 222 223 0
143 175 190 220 221 222 223 0
143 150 190 220 221 222 223 0
143 150 175 220 221 222 223 0
143 150 175 190 221 222 223 0
143 150 175 190 220 222 223 0
143 150 175 190 220 221 223 0
143 150 175 190 220 221 222 0
-147 -154 -179 0
-147 -154 -194 0
-147 -154 -224 0
-147 -154 -225 0
-147 -154 -226 0
-147 -154 -227 0
-147 -179 -194 0
-147 -179 -224 0
-147 -179 -225 0
-147 -179 -226 0
-147 -179 -227 0
-147 -194 -224 0
-147 -194 -225 0
-147 -194 -226 0
-147 -194 -227 0
-147 -224 -225 0
-147 -224 -226 0
-147 -224 -227 0
-147 -225 -226 0
-147 -225 -227 0
-147 -226 -227 0
-154 -179 -194 0
-154 -179 -224 0
-154 -179 -225 0
-154 -179 -226 0
-154 -179 -227 0
-154 -194 -224 0
-154 -194 -225 0
-154 -194 -226 0
-154 -194 -227 0
-154 -224 -225 0
-154 -224 -226 0
-154 -224 -227 0
-154 -225 -226 0
-154 -225 -227 0
-154 -226 -227 0
-179 -194 -224 0
-179 -194 -225 0
-179 -194 -226 0
-179 -194 -227 0
-179 -224 -225 0
-179 -224 -226 0
-179 -224 -227 0
-179 -225 -226 0
-179 -225 -227 0
-179 -226 -227 0
-194 -224 -225 0
-194 -224 -226 0
-194 -224 -227 0
-194 -225 -226 0
-194 -225 -227 0
-194 -226 -227 0
-224 -225 -226 0
-224 -225 -227 0
-224 -226 -227 0
-225 -226 -227 0
154 179 194 224 225 226 227 0
147 179 194 224 225 226 227 0
147 154 194 224 225 226 227 0
147 154 179 224 225 226 227 0
147 154 179 194 225 226 227 0
147 154 179 194 224 226 227 0
147 154 179 194 224 225 227 0
147 154 179 194 224 225 226 0
-151 -158 -183 0
-151 -158 -198 0
-151 -158 -228 0
-151 -158 -229 0
-151 -158 -230 0
-151 -158 -231 0
-151 -183 -198 0
-151 -183 -228 0
-151 -183 -229 0
-151 -183 -230 0
-151 -183 -231 0
-151 -198 -228 0
-151 -198 -229 0
-151 -198 -230 0
-151 -198 -231 0
-151 -228 -229 0
-151 -228 -230 0
-151 -228 -231 0
-151 -229 -230 0
-151 -229 -231 0
-151 -230 -231 0
-158 -183 -198 0
-158 -183 -228 0
-158 -183 -229 0
-158 -183 -230 0
-158 -183 -231 0
-158 -198 -228 0
-158 -198 -229 0
-158 -198 -230 0
-158 -198 -231 0
-158 -228 -229 0
-158 -228 -230 0
-158 -228 -231 0
-158 -229 -230 0
-158 -229 -231 0
-158 -230 -231 0
-183 -198 -228 0
-183 -198 -229 0
-183 -198 -230 0
-183 -198 -231 0
-183 -228 -229 0
-183 -228 -230 0
-183 -228 -231 0
-183 -229 -230 0
-183 -229 -231 0
-183 -230 -231 0
-198 -228 -229 0
-198 -228 -230 0
-198 -228 -231 0
-198 -229 -230 0
-198 -229 -231 0
-198 -230 -231 0
-228 -229 -230 0
-228 -229 -231 0
-228 -230 -231 0
-229 -230 -231 0
158 183 198 228 229 230 231 0
151 183 198 228 229 230 231 0
151 158 198 228 229 230 231 0
151 158 183 228 229 230 231 0
151 158 183 198 229 230 231 0
151 158 183 198 228 230 231 0
151 158 183 198 228 229 231 0
151 158 183 198 228 229 230 0
-155 -161 -187 0
-155 -161 -200 0
-155 -161 -232 0
-155 -161 -233 0
-155 -161 -234 0
-155 -161 -235 0
-155 -187 -200 0
-155 -187 -232 0
-155 -187 -233 0
-155 -187 -234 0
-155 -187 -235 0
-155 -200 -232 0
-155 -200 -233 0
-155 -200 -234 0
-155 -200 -235 0
-155 -232 -233 0
-155 -232 -234 0
-155 -232 -235 0
-155 -233 -234 0
-155 -233 -235 0
-155 -234 -235 0
-161 -187 -200 0
-161 -187 -232 0
-161 -187 -233 0
-161 -187 -234 0
-161 -187 -235 0
-161 -200 -232 0
-161 -200 -233 0
-161 -200 -234 0
-161 -200 -235 0
-161 -232 -233 0
-161 -232 -234 0
-161 -232 -235 0
-161 -233 -234 0
-161 -233 -235 0
-161 -234 -235 0
-187 -200 -232 0
-187 -200 -233 0
-187 -200 -234 0
-187 -200 -235 0
-187 -232 -233 0
-187 -232 -234 0
-187 -232 -235 0
-187 -233 -234 0
-187 -233 -235 0
-187 -234 -235 0
-200 -232 -233 0
-200 -232 -234 0
-200 -232 -235 0
-200 -233 -234 0
-200 -233 -235 0
-200 -234 -235 0
-232 -233 -234 0
-232 -233 -235 0
-232 -234 -235 0
-233 -234 -235 0
161 187 200 232 233 234 235 0
155 187 200 232 233 234 235 0
155 161 200 232 233 234 235 0
155 161 187 232 233 234 235 0
155 161 187 200 233 234 235 0
155 161 187 200 232 234 235 0
155 161 187 200 232 233 235 0
155 161 187 200 232 233 234 0
-159 -191 -236 0
-159 -191 -237 0
-159 -236 -237 0
-191 -236 -237 0
-165 -172 -201 0
-165 -172 -212 0
-165 -172 -242 0
-165 -172 -243 0
-165 -172 -244 0
-165 -172 -245 0
-165 -201 -212 0
-165 -201 -242 0
-165 -201 -243 0
-165 -201 -244 0
-165 -201 -245 0
-165 -212 -242 0
-165 -212 -243 0
-165 -212 -244 0
-165 -212 -245 0
-165 -242 -243 0
-165 -242 -244 0
-165 -242 -245 0
-165 -243 -244 0
-165 -243 -245 0
-165 -244 -245 0
-172 -201 -212 0
-172 -201 -242 0
-172 -201 -243 0
-172 -201 -244 0
-172 -201 -245 0
-172 -212 -242 0
-172 -212 -243 0
-172 -212 -244 0
-172 -212 -245 0
-172 -242 -243 0
-172 -242 -244 0
-172 -242 -245 0
-172 -243 -244 0
-172 -243 -245 0
-172 -244 -245 0
-201 -212 -242 0
-201 -212 -243 0
-201 -212 -244 0
-201 -212 -245 0
-201 -242 -243 0
-201 -242 -244 0
-201 -242 -245 0
-201 -243 -244 0
-201 -243 -245 0
-201 -244 -245 0
-212 -242 -243 0
-212 -242 -244 0
-212 -242 -245 0
-212 -243 -244 0
-212 -243 -245 0
-212 -244 -245 0
-242 -243 -244 0
-242 -243 -245 0
-242 -244 -245 0
-243 -244 -245 0
172 201 212 242 243 244 245 0
165 201 212 242 243 244 245 0
165 172 212 242 243 244 245 0
165 172 201 242 243 244 245 0
165 172 201 212 243 244 245 0
165 172 201 212 242 244 245 0
165 172 201 212 242 243 245 0
165 172 201 212 242 243 244 0
-168 -208 -240 0
-168 -208 -241 0
-168 -240 -241 0
-208 -240 -241 0
-169 -176 -202 0
-169 -176 -216 0
-169 -176 -246 0
-169 -176 -247 0
-169 -176 -248 0
-169 -176 -249 0
-169 -202 -216 0
-169 -202 -246 0
-169 -202 -247 0
-169 -202 -248 0
-169 -202 -249 0
-169 -216 -246 0
-169 -216 -247 0
-169 -216 -248 0
-169 -216 -249 0
-169 -246 -247 0
-169 -246 -248 0
-169 -246 -249 0
-169 -247 -248 0
-169 -247 -249 0
-169 -248 -249 0
-176 -202 -216 0
-176 -202 -246 0
-176 -202 -247 0
-176 -202 -248 0
-176 -202 -249 0
-176 -216 -246 0
-176 -216 -247 0
-176 -216 -248 0
-176 -216 -249 0
-176 -246 -247 0
-176 -246 -248 0
-176 -246 -249 0
-176 -247 -248 0
-176 -247 -249 0
-176 -248 -249 0
-202 -216 -246 0
-202 -216 -247 0
-202 -216 -248 0
-202 -216 -249 0
-202 -246 -247 0
-202 -246 -248 0
-202 -246 -249 0
-202 -247 -248 0
-202 -247 -249 0
-202 -248 -249 0
-216 -246 -247 0
-216 -246 -248 0
-216 -246 -249 0
-216 -247 -248 0
-216 -247 -249 0
-216 -248 -249 0
-246 -247 -248 0
-246 -247 -249 0
-246 -248 -249 0
-247 -248 -249 0
176 202 216 246 247 248 249 0
169 202 216 246 247 248 249 0
169 176 216 246 247 248 249 0
169 176 202 246 247 248 249 0
169 176 202 216 247 248 249 0
169 176 202 216 246 248 249 0
169 176 202 216 246 247 249 0
169 176 202 216 246 247 248 0
-173 -180 -205 0
-173 -180 -220 0
-173 -180 -250 0
-173 -180 -251 0
-173 -180 -252 0
-173 -180 -253 0
-173 -205 -220 0
-173 -205 -250 0
-173 -205 -251 0
-173 -205 -252 0
-173 -205 -253 0
-173 -220 -250 0
-173 -220 -251 0
-173 -220 -252 0
-173 -220 -253 0
-173 -250 -251 0
-173 -250 -252 0
-173 -250 -253 0
-173 -251 -252 0
-173 -251 -253 0
-173 -252 -253 0
-180 -205 -220 0
-180 -205 -250 0
-180 -205 -251 0
-180 -205 -252 0
-180 -205 -253 0
-180 -220 -250 0
-180 -220 -251 0
-180 -220 -252 0
-180 -220 -253 0
-180 -250 -251 0
-180 -250 -252 0
-180 -250 -253 0
-180 -251 -252 0
-180 -251 -253 0
-180 -252 -253 0
-205 -220 -250 0
-205 -220 -251 0
-205 -220 -252 0
-205 -220 -253 0
-205 -250 -251 0
-205 -250 -252 0
-205 -250 -253 0
-205 -251 -252 0
-205 -251 -253 0
-205 -252 -253 0
-220 -250 -251 0
-220 -250 -252 0
-220 -250 -253 0
-220 -251 -252 0
-220 -251 -253 0
-220 -252 -253 0
-250 -251 -252 0
-250 -251 -253 0
-250 -252 -253 0
-251 -252 -253 0
180 205 220 250 251 252 253 0
173 205 220 250 251 252 253 0
173 180 220 250 251 252 253 0
173 180 205 250 251 252 253 0
173 180 205 220 251 252 253 0
173 180 205 220 250 252 253 0
173 180 205 220 250 251 253 0
173 180 205 220 250 251 252 0
-177 -184 -209 0
-177 -184 -224 0
-177 -184 -254 0
-177 -184 -255 0
-177 -184 -256 0
-177 -184 -257 0
-177 -209 -224 0
-177 -209 -254 0
-177 -209 -255 0
-177 -209 -256 0
-177 -209 -257 0
-177 -224 -254 0
-177 -224 -255 0
-177 -224 -256 0
-177 -224 -257 0
-177 -254 -255 0
-177 -254 -256 0
-177 -254 -257 0
-177 -255 -256 0
-177 -255 -257 0
-177 -256 -257 0
-184 -209 -224 0
-184 -209 -254 0
-184 -209 -255 0
-184 -209 -256 0
-184 -209 -257 0
-184 -224 -254 0
-184 -224 -255 0
-184 -224 -256 0
-184 -224 -257 0
-184 -254 -255 0
-184 -254 -256 0
-184 -254 -257 0
-184 -255 -256 0
-184 -255 -257 0
-184 -256 -257 0
-209 -224 -254 0
-209 -224 -255 0
-209 -224 -256 0
-209 -224 -257 0
-209 -254 -255 0
-209 -254 -256 0
-209 -254 -257 0
-209 -255 -256 0
-209 -255 -257 0
-209 -256 -257 0
-224 -254 -255 0
-224 -254 -256 0
-224 -254 -257 0
-224 -255 -256 0
-224 -255 -257 0
-224 -256 -257 0
-254 -255 -256 0
-254 -255 -257 0
-254 -256 -257 0
-255 -256 -257 0
184 209 224 254 255 256 257 0
177 209 224 254 255 256 257 0
177 184 224 254 255 256 257 0
177 184 209 254 255 256 257 0
177 184 209 224 255 256 257 0
177 184 209 224 254 256 257 0
177 184 209 224 254 255 257 0
177 184 209 224 254 255 256 0
-181 -188 -213 0
-181 -188 -228 0
-181 -188 -258 0
-181 -188 -259 0
-181 -188 -260 0
-181 -188 -261 0
-181 -213 -228 0
-181 -213 -258 0
-181 -213 -259 0
-181 -213 -260 0
-181 -213 -261 0
-181 -228 -258 0
-181 -228 -259 0
-181 -228 -260 0
-181 -228 -261 0
-181 -258 -259 0
-181 -258 -260 0
-181 -258 -261 0
-181 -259 -260 0
-181 -259 -261 0
-181 -260 -261 0
-188 -213 -228 0
-188 -213 -258 0
-188 -213 -259 0
-188 -213 -260 0
-188 -213 -261 0
-188 -228 -258 0
-188 -228 -259 0
-188 -228 -260 0
-188 -228 -261 0
-188 -258 -259 0
-188 -258 -260 0
-188 -258 -261 0
-188 -259 -260 0
-188 -259 -261 0
-188 -260 -261 0
-213 -228 -258 0
-213 -228 -259 0
-213 -228 -260 0
-213 -228 -261 0
-213 -258 -259 0
-213 -258 -260 0
-213 -258 -261 0
-213 -259 -260 0
-213 -259 -261 0
-213 -260 -261 0
-228 -258 -259 0
-228 -258 -260 0
-228 -258 -261 0
-228 -259 -260 0
-228 -259 -261 0
-228 -260 -261 0
-258 -259 -260 0
-258 -259 -261 0
-258 -260 -261 0
-259 -260 -261 0
188 213 228 258 259 260 261 0
181 213 228 258 259 260 261 0
181 188 228 258 259 260 261 0
181 188 213 258 259 260 261 0
181 188 213 228 259 260 261 0
181 188 213 228 258 260 261 0
181 188 213 228 258 259 261 0
181 188 213 228 258 259 260 0
-185 -192 -217 0
-185 -192 -232 0
-185 -192 -262 0
-185 -192 -263 0
-185 -192 -264 0
-185 -192 -265 0
-185 -217 -232 0
-185 -217 -262 0
-185 -217 -263 0
-185 -217 -264 0
-185 -217 -265 0
-185 -232 -262 0
-185 -232 -263 0
-185 -232 -264 0
-185 -232 -265 0
-185 -262 -263 0
-185 -262 -264 0
-185 -262 -265 0
-185 -263 -264 0
-185 -263 -265 0
-185 -264 -265 0
-192 -217 -232 0
-192 -217 -262 0
-192 -217 -263 0
-192 -217 -264 0
-192 -217 -265 0
-192 -232 -262 0
-192 -232 -263 0
-192 -232 -264 0
-192 -232 -265 0
-192 -262 -263 0
-192 -262 -264 0
-192 -262 -265 0
-192 -263 -264 0
-192 -263 -265 0
-192 -264 -265 0
-217 -232 -262 0
-217 -232 -263 0
-217 -232 -264 0
-217 -232 -265 0
-217 -262 -263 0
-217 -262 -264 0
-217 -262 -265 0
-217 -263 -264 0
-217 -263 -265 0
-217 -264 -265 0
-232 -262 -263 0
-232 -262 -264 0
-232 -262 -265 0
-232 -263 -264 0
-232 -263 -265 0
-232 -264 -265 0
-262 -263 -264 0
-262 -263 -265 0
-262 -264 -265 0
-263 -264 -265 0
192 217 232 262 263 264 265 0
185 217 232 262 263 264 265 0
185 192 232 262 263 264 265 0
185 192 217 262 263 264 265 0
185 192 217 232 263 264 265 0
185 192 217 232 262 264 265 0
185 192 217 232 262 263 265 0
185 192 217 232 262 263 264 0
-189 -196 -221 0
-189 -196 -236 0
-189 -196 -266 0
-189 -196 -267 0
-189 -196 -268 0
-189 -196 -269 0
-189 -221 -236 0
-189 -221 -266 0
-189 -221 -267 0
-189 -221 -268 0
-189 -221 -269 0
-189 -236 -266 0
-189 -236 -267 0
-189 -236 -268 0
-189 -236 -269 0
-189 -266 -267 0
-189 -266 -268 0
-189 -266 -269 0
-189 -267 -268 0
-189 -267 -269 0
-189 -268 -269 0
-196 -221 -236 0
-196 -221 -266 0
-196 -221 -267 0
-196 -221 -268 0
-196 -221 -269 0
-196 -236 -266 0
-196 -236 -267 0
-196 -236 -268 0
-196 -236 -269 0
-196 -266 -267 0
-196 -266 -268 0
-196 -266 -269 0
-196 -267 -268 0
-196 -267 -269 0
-196 -268 -269 0
-221 -236 -266 0
-221 -236 -267 0
-221 -236 -268 0
-221 -236 -269 0
-221 -266 -267 0
-221 -266 -268 0
-221 -266 -269 0
-221 -267 -268 0
-221 -267 -269 0
-221 -268 -269 0
-236 -266 -267 0
-236 -266 -268 0
-236 -266 -269 0
-236 -267 -268 0
-236 -267 -269 0
-236 -268 -269 0
-266 -267 -268 0
-266 -267 -269 0
-266 -268 -269 0
-267 -268 -269 0
196 221 236 266 267 268 269 0
189 221 236 266 267 268 269 0
189 196 236 266 267 268 269 0
189 196 221 266 267 268 269 0
189 196 221 236 267 268 269 0
189 196 221 236 266 268 269 0
189 196 221 236 266 267 269 0
189 196 221 236 266 267 268 0
-193 -199 -225 0
-193 -199 -238 0
-193 -199 -270 0
-193 -199 -271 0
-193 -199 -272 0
-193 -199 -273 0
-193 -225 -238 0
-193 -225 -270 0
-193 -225 -271 0
-193 -225 -272 0
-193 -225 -273 0
-193 -238 -270 0
-193 -238 -271 0
-193 -238 -272 0
-193 -238 -273 0
-193 -270 -271 0
-193 -270 -272 0
-193 -270 -273 0
-193 -271 -272 0
-193 -271 -273 0
-193 -272 -273 0
-199 -225 -238 0
-199 -225 -270 0
-199 -225 -271 0
-199 -225 -272 0
-199 -225 -273 0
-199 -238 -270 0
-199 -238 -271 0
-199 -238 -272 0
-199 -238 -273 0
-199 -270 -271 0
-199 -270 -272 0
-199 -270 -273 0
-199 -271 -272 0
-199 -271 -273 0
-199 -272 -273 0
-225 -238 -270 0
-225 -238 -271 0
-225 -238 -272 0
-225 -238 -273 0
-225 -270 -271 0
-225 -270 -272 0
-225 -270 -273 0
-225 -271 -272 0
-225 -271 -273 0
-225 -272 -273 0
-238 -270 -271 0
-238 -270 -272 0
-238 -270 -273 0
-238 -271 -272 0
-238 -271 -273 0
-238 -272 -273 0
-270 -271 -272 0
-270 -271 -273 0
-270 -272 -273 0
-271 -272 -273 0
199 225 238 270 271 272 273 0
193 225 238 270 271 272 273 0
193 199 238 270 271 272 273 0
193 199 225 270 271 272 273 0
193 199 225 238 271 272 273 0
193 199 225 238 270 272 273 0
193 199 225 238 270 271 273 0
193 199 225 238 270 271 272 0
-197 -229 -274 0
-197 -229 -275 0
-197 -274 -275 0
-229 -274 -275 0
-203 -210 -239 0
-203 -210 -250 0
-203 -210 -279 0
-203 -210 -280 0
-203 -210 -281 0
-203 -210 -282 0
-203 -239 -250 0
-203 -239 -279 0
-203 -239 -280 0
-203 -239 -281 0
-203 -239 -282 0
-203 -250 -279 0
-203 -250 -280 0
-203 -250 -281 0
-203 -250 -282 0
-203 -279 -280 0
-203 -279 -281 0
-203 -279 -282 0
-203 -280 -281 0
-203 -280 -282 0
-203 -281 -282 0
-210 -239 -250 0
-210 -239 -279 0
-210 -239 -280 0
-210 -239 -281 0
-210 -239 -282 0
-210 -250 -279 0
-210 -250 -280 0
-210 -250 -281 0
-210 -250 -282 0
-210 -279 -280 0
-210 -279 -281 0
-210 -279 -282 0
-210 -280 -281 0
-210 -280 -282 0
-210 -281 -282 0
-239 -250 -279 0
-239 -250 -280 0
-239 -250 -281 0
-239 -250 -282 0
-239 -279 -280 0
-239 -279 -281 0
-239 -279 -282 0
-239 -280 -281 0
-239 -280 -282 0
-239 -281 -282 0
-250 -279 -280 0
-250 -279 -281 0
-250 -279 -282 0
-250 -280 -281 0
-250 -280 -282 0
-250 -281 -282 0
-279 -280 -281 0
-279 -280 -282 0
-279 -281 -282 0
-280 -281 -282 0
210 239 250 279 280 281 282 0
203 239 250 279 280 281 282 0
203 210 250 279 280 281 282 0
203 210 239 279 280 281 282 0
203 210 239 250 280 281 282 0
203 210 239 250 279 281 282 0
203 210 239 250 279 280 282 0
203 210 239 250 279 280 281 0
-206 -246 -278 0
-207 -214 -240 0
-207 -214 -254 0
-207 -214 -283 0
-207 -214 -284 0
-207 -214 -285 0
-207 -214 -286 0
-207 -240 -254 0
-207 -240 -283 0
-207 -240 -284 0
-207 -240 -285 0
-207 -240 -286 0
-207 -254 -283 0
-207 -254 -284 0
-207 -254 -285 0
-207 -254 -286 0
-207 -283 -284 0
-207 -283 -285 0
-207 -283 -286 0
-207 -284 -285 0
-207 -284 -286 0
-207 -285 -286 0
-214 -240 -254 0
-214 -240 -283 0
-214 -240 -284 0
-214 -240 -285 0
-214 -240 -286 0
-214 -254 -283 0
-214 -254 -284 0
-214 -254 -285 0
-214 -254 -286 0
-214 -283 -284 0
-214 -283 -285 0
-214 -283 -286 0
-214 -284 -285 0
-214 -284 -286 0
-214 -285 -286 0
-240 -254 -283 0
-240 -254 -284 0
-240 -254 -285 0
-240 -254 -286 0
-240 -283 -284 0
-240 -283 -285 0
-240 -283 -286 0
-240 -284 -285 0
-240 -284 -286 0
-240 -285 -286 0
-254 -283 -284 0
-254 -283 -285 0
-254 -283 -286 0
-254 -284 -285 0
-254 -284 -286 0
-254 -285 -286 0
-283 -284 -285 0
-283 -284 -286 0
-283 -285 -286 0
-284 -285 -286 0
214 240 254 283 284 285 286 0
207 240 254 283 284 285 286 0
207 214 254 283 284 285 286 0
207 214 240 283 284 285 286 0
207 214 240 254 284 285 286 0
207 214 240 254 283 285 286 0
207 214 240 254 283 284 286 0
207 214 240 254 283 284 285 0
-211 -218 -243 0
-211 -218 -258 0
-211 -218 -287 0
-211 -218 -288 0
-211 -218 -289 0
-211 -218 -290 0
-211 -243 -258 0
-211 -243 -287 0
-211 -243 -288 0
-211 -243 -289 0
-211 -243 -290 0
-211 -258 -287 0
-211 -258 -288 0
-211 -258 -289 0
-211 -258 -290 0
-211 -287 -288 0
-211 -287 -289 0
-211 -287 -290 0
-211 -288 -289 0
-211 -288 -290 0
-211 -289 -290 0
-218 -243 -258 0
-218 -243 -287 0
-218 -243 -288 0
-218 -243 -289 0
-218 -243 -290 0
-218 -258 -287 0
-218 -258 -288 0
-218 -258 -289 0
-218 -258 -290 0
-218 -287 -288 0
-218 -287 -289 0
-218 -287 -290 0
-218 -288 -289 0
-218 -288 -290 0
-218 -289 -290 0
-243 -258 -287 0
-243 -258 -288 0
-243 -258 -289 0
-243 -258 -290 0
-243 -287 -288 0
-243 -287 -289 0
-243 -287 -290 0
-243 -288 -289 0
-243 -288 -290 0
-243 -289 -290 0
-258 -287 -288 0
-258 -287 -289 0
-258 -287 -290 0
-258 -288 -289 0
-258 -288 -290 0
-258 -289 -290 0
-287 -288 -289 0
-287 -288 -290 0
-287 -289 -290 0
-288 -289 -290 0
218 243 258 287 288 289 290 0
211 243 258 287 288 289 290 0
211 218 258 287 288 289 290 0
211 218 243 287 288 289 290 0
211 218 243 258 288 289 290 0
211 218 243 258 287 289 290 0
211 218 243 258 287 288 290 0
211 218 243 258 287 288 289 0
-215 -222 -247 0
-215 -222 -262 0
-215 -222 -291 0
-215 -222 -292 0
-215 -222 -293 0
-215 -222 -294 0
-215 -247 -262 0
-215 -247 -291 0
-215 -247 -292 0
-215 -247 -293 0
-215 -247 -294 0
-215 -262 -291 0
-215 -262 -292 0
-215 -262 -293 0
-215 -262 -294 0
-215 -291 -292 0
-215 -291 -293 0
-215 -291 -294 0
-215 -292 -293 0
-215 -292 -294 0
-215 -293 -294 0
-222 -247 -262 0
-222 -247 -291 0
-222 -247 -292 0
-222 -247 -293 0
-222 -247 -294 0
-222 -262 -291 0
-222 -262 -292 0
-222 -262 -293 0
-222 -262 -294 0
-222 -291 -292 0
-222 -291 -293 0
-222 -291 -294 0
-222 -292 -293 0
-222 -292 -294 0
-222 -293 -294 0
-247 -262 -291 0
-247 -262 -292 0
-247 -262 -293 0
-247 -262 -294 0
-247 -291 -292 0
-247 -291 -293 0
-247 -291 -294 0
-247 -292 -293 0
-247 -292 -294 0
-247 -293 -294 0
-262 -291 -292 0
-262 -291 -293 0
-262 -291 -294 0
-262 -292 -293 0
-262 -292 -294 0
-262 -293 -294 0
-291 -292 -293 0
-291 -292 -294 0
-291 -293 -294 0
-292 -293 -294 0
222 247 262 291 292 293 294 0
215 247 262 291 292 293 294 0
215 222 262 291 292 293 294 0
215 222 247 291 292 293 294 0
215 222 247 262 292 293 294 0
215 222 247 262 291 293 294 0
215 222 247 262 291 292 294 0
215 222 247 262 291 292 293 0
-219 -226 -251 0
-219 -226 -266 0
-219 -226 -295 0
-219 -226 -296 0
-219 -226 -297 0
-219 -226 -298 0
-219 -251 -266 0
-219 -251 -295 0
-219 -251 -296 0
-219 -251 -297 0
-219 -251 -298 0
-219 -266 -295 0
-219 -266 -296 0
-219 -266 -297 0
-219 -266 -298 0
-219 -295 -296 0
-219 -295 -297 0
-219 -295 -298 0
-219 -296 -297 0
-219 -296 -298 0
-219 -297 -298 0
-226 -251 -266 0
-226 -251 -295 0
-226 -251 -296 0
-226 -251 -297 0
-226 -251 -298 0
-226 -266 -295 0
-226 -266 -296 0
-226 -266 -297 0
-226 -266 -298 0
-226 -295 -296 0
-226 -295 -297 0
-226 -295 -298 0
-226 -296 -297 0
-226 -296 -298 0
-226 -297 -298 0
-251 -266 -295 0
-251 -266 -296 0
-251 -266 -297 0
-251 -266 -298 0
-251 -295 -296 0
-251 -295 -297 0
-251 -295 -298 0
-251 -296 -297 0
-251 -296 -298 0
-251 -297 -298 0
-266 -295 -296 0
-266 -295 -297 0
-266 -295 -298 0
-266 -296 -297 0
-266 -296 -298 0
-266 -297 -298 0
-295 -296 -297 0
-295 -296 -298 0
-295 -297 -298 0
-296 -297 -298 0
226 251 266 295 296 297 298 0
219 251 266 295 296 297 298 0
219 226 266 295 296 297 298 0
219 226 251 295 296 297 298 0
219 226 251 266 296 297 298 0
219 226 251 266 295 297 298 0
219 226 251 266 295 296 298 0
219 226 251 266 295 296 297 0
-223 -230 -255 0
-223 -230 -270 0
-223 -230 -299 0
-223 -230 -300 0
-223 -230 -301 0
-223 -230 -302 0
-223 -255 -270 0
-223 -255 -299 0
-223 -255 -300 0
-223 -255 -301 0
-223 -255 -302 0
-223 -270 -299 0
-223 -270 -300 0
-223 -270 -301 0
-223 -270 -302 0
-223 -299 -300 0
-223 -299 -301 0
-223 -299 -302 0
-223 -300 -301 0
-223 -300 -302 0
-223 -301 -302 0
-230 -255 -270 0
-230 -255 -299 0
-230 -255 -300 0
-230 -255 -301 0
-230 -255 -302 0
-230 -270 -299 0
-230 -270 -300 0
-230 -270 -301 0
-230 -270 -302 0
-230 -299 -300 0
-230 -299 -301 0
-230 -299 -302 0
-230 -300 -301 0
-230 -300 -302 0
-230 -301 -302 0
-255 -270 -299 0
-255 -270 -300 0
-255 -270 -301 0
-255 -270 -302 0
-255 -299 -300 0
-255 -299 -301 0
-255 -299 -302 0
-255 -300 -301 0
-255 -300 -302 0
-255 -301 -302 0
-270 -299 -300 0
-270 -299 -301 0
-270 -299 -302 0
-270 -300 -301 0
-270 -300 -302 0
-270 -301 -302 0
-299 -300 -301 0
-299 -300 -302 0
-299 -301 -302 0
-300 -301 -302 0
230 255 270 299 300 301 302 0
223 255 270 299 300 301 302 0
223 230 270 299 300 301 302 0
223 230 255 299 300 301 302 0
223 230 255 270 300 301 302 0
223 230 255 270 299 301 302 0
223 230 255 270 299 300 302 0
223 230 255 270 299 300 301 0
-227 -234 -259 0
-227 -234 -274 0
-227 -234 -303 0
-227 -234 -304 0
-227 -234 -305 0
-227 -234 -306 0
-227 -259 -274 0
-227 -259 -303 0
-227 -259 -304 0
-227 -259 -305 0
-227 -259 -306 0
-227 -274 -303 0
-227 -274 -304 0
-227 -274 -305 0
-227 -274 -306 0
-227 -303 -304 0
-227 -303 -305 0
-227 -303 -306 0
-227 -304 -305 0
-227 -304 -306 0
-227 -305 -306 0
-234 -259 -274 0
-234 -259 -303 0
-234 -259 -304 0
-234 -259 -305 0
-234 -259 -306 0
-234 -274 -303 0
-234 -274 -304 0
-234 -274 -305 0
-234 -274 -306 0
-234 -303 -304 0
-234 -303 -305 0
-234 -303 -306 0
-234 -304 -305 0
-234 -304 -306 0
-234 -305 -306 0
-259 -274 -303 0
-259 -274 -304 0
-259 -274 -305 0
-259 -274 -306 0
-259 -303 -304 0
-259 -303 -305 0
-259 -303 -306 0
-259 -304 -305 0
-259 -304 -306 0
-259 -305 -306 0
-274 -303 -304 0
-274 -303 -305 0
-274 -303 -306 0
-274 -304 -305 0
-274 -304 -306 0
-274 -305 -306 0
-303 -304 -305 0
-303 -304 -306 0
-303 -305 -306 0
-304 -305 -306 0
234 259 274 303 304 305 306 0
227 259 274 303 304 305 306 0
227 234 274 303 304 305 306 0
227 234 259 303 304 305 306 0
227 234 259 274 304 305 306 0
227 234 259 274 303 305 306 0
227 234 259 274 303 304 306 0
227 234 259 274 303 304 305 0
-231 -237 -263 0
-231 -237 -276 0
-231 -237 -307 0
-231 -237 -308 0
-231 -237 -309 0
-231 -237 -310 0
-231 -263 -276 0
-231 -263 -307 0
-231 -263 -308 0
-231 -263 -309 0
-231 -263 -310 0
-231 -276 -307 0
-231 -276 -308 0
-231 -276 -309 0
-231 -276 -310 0
-231 -307 -308 0
-231 -307 -309 0
-231 -307 -310 0
-231 -308 -309 0
-231 -308 -310 0
-231 -309 -310 0
-237 -263 -276 0
-237 -263 -307 0
-237 -263 -308 0
-237 -263 -309 0
-237 -263 -310 0
-237 -276 -307 0
-237 -276 -308 0
-237 -276 -309 0
-237 -276 -310 0
-237 -307 -308 0
-237 -307 -309 0
-237 -307 -310 0
-237 -308 -309 0
-237 -308 -310 0
-237 -309 -310 0
-263 -276 -307 0
-263 -276 -308 0
-263 -276 -309 0
-263 -276 -310 0
-263 -307 -308 0
-263 -307 -309 0
-263 -307 -310 0
-263 -308 -309 0
-263 -308 -310 0
-263 -309 -310 0
-276 -307 -308 0
-276 -307 -309 0
-276 -307 -310 0
-276 -308 -309 0
-276 -308 -310 0
-276 -309 -310 0
-307 -308 -309 0
-307 -308 -310 0
-307 -309 -310 0
-308 -309 -310 0
237 263 276 307 308 309 310 0
231 263 276 307 308 309 310 0
231 237 276 307 308 309 310 0
231 237 263 307 308 309 310 0
231 237 263 276 308 309 310 0
231 237 263 276 307 309 310 0
231 237 263 276 307 308 310 0
231 237 263 276 307 308 309 0
-235 -267 -311 0
-241 -248 -277 0
-241 -248 -287 0
-241 -248 -313 0
-241 -248 -314 0
-241 -248 -315 0
-241 -248 -316 0
-241 -277 -287 0
-241 -277 -313 0
-241 -277 -314 0
-241 -277 -315 0
-241 -277 -316 0
-241 -287 -313 0
-241 -287 -314 0
-241 -287 -315 0
-241 -287 -316 0
-241 -313 -314 0
-241 -313 -315 0
-241 -313 -316 0
-241 -314 -315 0
-241 -314 -316 0
-241 -315 -316 0
-248 -277 -287 0
-248 -277 -313 0
-248 -277 -314 0
-248 -277 -315 0
-248 -277 -316 0
-248 -287 -313 0
-248 -287 -314 0
-248 -287 -315 0
-248 -287 -316 0
-248 -313 -314 0
-248 -313 -315 0
-248 -313 -316 0
-248 -314 -315 0
-248 -314 -316 0
-248 -315 -316 0
-277 -287 -313 0
-277 -287 -314 0
-277 -287 -315 0
-277 -287 -316 0
-277 -313 -314 0
-277 -313 -315 0
-277 -313 -316 0
-277 -314 -315 0
-277 -314 -316 0
-277 -315 -316 0
-287 -313 -314 0
-287 -313 -315 0
-287 -313 -316 0
-287 -314 -315 0
-287 -314 -316 0
-287 -315 -316 0
-313 -314 -315 0
-313 -314 -316 0
-313 -315 -316 0
-314 -315 -316 0
248 277 287 313 314 315 316 0
241 277 287 313 314 315 316 0
241 248 287 313 314 315 316 0
241 248 277 313 314 315 316 0
241 248 277 287 314 315 316 0
241 248 277 287 313 315 316 0
241 248 277 287 313 314 316 0
241 248 277 287 313 314 315 0
-245 -252 -278 0
-245 -252 -291 0
-245 -252 -317 0
-245 -252 -318 0
-245 -252 -319 0
-245 -252 -320 0
-245 -278 -291 0
-245 -278 -317 0
-245 -278 -318 0
-245 -278 -319 0
-245 -278 -320 0
-245 -291 -317 0
-245 -291 -318 0
-245 -291 -319 0
-245 -291 -320 0
-245 -317 -318 0
-245 -317 -319 0
-245 -317 -320 0
-245 -318 -319 0
-245 -318 -320 0
-245 -319 -320 0
-252 -278 -291 0
-252 -278 -317 0
-252 -278 -318 0
-252 -278 -319 0
-252 -278 -320 0
-252 -291 -317 0
-252 -291 -318 0
-252 -291 -319 0
-252 -291 -320 0
-252 -317 -318 0
-252 -317 -319 0
-252 -317 -320 0
-252 -318 -319 0
-252 -318 -320 0
-252 -319 -320 0
-278 -291 -317 0
-278 -291 -318 0
-278 -291 -319 0
-278 -291 -320 0
-278 -317 -318 0
-278 -317 -319 0
-278 -317 -320 0
-278 -318 -319 0
-278 -318 -320 0
-278 -319 -320 0
-291 -317 -318 0
-291 -317 -319 0
-291 -317 -320 0
-291 -318 -319 0
-291 -318 -320 0
-291 -319 -320 0
-317 -318 -319 0
-317 -318 -320 0
-317 -319 -320 0
-318 -319 -320 0
252 278 291 317 318 319 320 0
245 278 291 317 318 319 320 0
245 252 291 317 318 319 320 0
245 252 278 317 318 319 320 0
245 252 278 291 318 319 320 0
245 252 278 291 317 319 320 0
245 252 278 291 317 318 320 0
245 252 278 291 317 318 319 0
-249 -256 -280 0
-249 -256 -295 0
-249 -256 -321 0
-249 -256 -322 0
-249 -256 -323 0
-249 -256 -324 0
-249 -280 -295 0
-249 -280 -321 0
-249 -280 -322 0
-249 -280 -323 0
-249 -280 -324 0
-249 -295 -321 0
-249 -295 -322 0
-249 -295 -323 0
-249 -295 -324 0
-249 -321 -322 0
-249 -321 -323 0
-249 -321 -324 0
-249 -322 -323 0
-249 -322 -324 0
-249 -323 -324 0
-256 -280 -295 0
-256 -280 -321 0
-256 -280 -322 0
-256 -280 -323 0
-256 -280 -324 0
-256 -295 -321 0
-256 -295 -322 0
-256 -295 -323 0
-256 -295 -324 0
-256 -321 -322 0
-256 -321 -323 0
-256 -321 -324 0
-256 -322 -323 0
-256 -322 -324 0
-256 -323 -324 0
-280 -295 -321 0
-280 -295 -322 0
-280 -295 -323 0
-280 -295 -324 0
-280 -321 -322 0
-280 -321 -323 0
-280 -321 -324 0
-280 -322 -323 0
-280 -322 -324 0
-280 -323 -324 0
-295 -321 -322 0
-295 -321 -323 0
-295 -321 -324 0
-295 -322 -323 0
-295 -322 -324 0
-295 -323 -324 0
-321 -322 -323 0
-321 -322 -324 0
-321 -323 -324 0
-322 -323 -324 0
256 280 295 321 322 323 324 0
249 280 295 321 322 323 324 0
249 256 295 321 322 323 324 0
249 256 280 321 322 323 324 0
249 256 280 295 322 323 324 0
249 256 280 295 321 323 324 0
249 256 280 295 321 322 324 0
249 256 280 295 321 322 323 0
-253 -260 -284 0
-253 -260 -299 0
-253 -260 -325 0
-253 -260 -326 0
-253 -260 -327 0
-253 -260 -328 0
-253 -284 -299 0
-253 -284 -325 0
-253 -284 -326 0
-253 -284 -327 0
-253 -284 -328 0
-253 -299 -325 0
-253 -299 -326 0
-253 -299 -327 0
-253 -299 -328 0
-253 -325 -326 0
-253 -325 -327 0
-253 -325 -328 0
-253 -326 -327 0
-253 -326 -328 0
-253 -327 -328 0
-260 -284 -299 0
-260 -284 -325 0
-260 -284 -326 0
-260 -284 -327 0
-260 -284 -328 0
-260 -299 -325 0
-260 -299 -326 0
-260 -299 -327 0
-260 -299 -328 0
-260 -325 -326 0
-260 -325 -327 0
-260 -325 -328 0
-260 -326 -327 0
-260 -326 -328 0
-260 -327 -328 0
-284 -299 -325 0
-284 -299 -326 0
-284 -299 -327 0
-284 -299 -328 0
-284 -325 -326 0
-284 -325 -327 0
-284 -325 -328 0
-284 -326 -327 0
-284 -326 -328 0
-284 -327 -328 0
-299 -325 -326 0
-299 -325 -327 0
-299 -325 -328 0
-299 -326 -327 0
-299 -326 -328 0
-299 -327 -328 0
-325 -326 -327 0
-325 -326 -328 0
-325 -327 -328 0
-326 -327 -328 0
260 284 299 325 326 327 328 0
253 284 299 325 326 327 328 0
253 260 299 325 326 327 328 0
253 260 284 325 326 327 328 0
253 260 284 299 326 327 328 0
253 260 284 299 325 327 328 0
253 260 284 299 325 326 328 0
253 260 284 299 325 326 327 0
-257 -264 -288 0
-257 -264 -303 0
-257 -264 -329 0
-257 -264 -330 0
-257 -264 -331 0
-257 -264 -332 0
-257 -288 -303 0
-257 -288 -329 0
-257 -288 -330 0
-257 -288 -331 0
-257 -288 -332 0
-257 -303 -329 0
-257 -303 -330 0
-257 -303 -331 0
-257 -303 -332 0
-257 -329 -330 0
-257 -329 -331 0
-257 -329 -332 0
-257 -330 -331 0
-257 -330 -332 0
-257 -331 -332 0
-264 -288 -303 0
-264 -288 -329 0
-264 -288 -330 0
-264 -288 -331 0
-264 -288 -332 0
-264 -303 -329 0
-264 -303 -330 0
-264 -303 -331 0
-264 -303 -332 0
-264 -329 -330 0
-264 -329 -331 0
-264 -329 -332 0
-264 -330 -331 0
-264 -330 -332 0
-264 -331 -332 0
-288 -303 -329 0
-288 -303 -330 0
-288 -303 -331 0
-288 -303 -332 0
-288 -329 -330 0
-288 -329 -331 0
-288 -329 -332 0
-288 -330 -331 0
-288 -330 -332 0
-288 -331 -332 0
-303 -329 -330 0
-303 -329 -331 0
-303 -329 -332 0
-303 -330 -331 0
-303 -330 -332 0
-303 -331 -332 0
-329 -330 -331 0
-329 -330 -332 0
-329 -331 -332 0
-330 -331 -332 0
264 288 303 329 330 331 332 0
257 288 303 329 330 331 332 0
257 264 303 329 330 331 332 0
257 264 288 329 330 331 332 0
257 264 288 303 330 331 332 0
257 264 288 303 329 331 332 0
257 264 288 303 329 330 332 0
257 264 288 303 329 330 331 0
-261 -268 -292 0
-261 -268 -307 0
-261 -268 -333 0
-261 -268 -334 0
-261 -268 -335 0
-261 -268 -336 0
-261 -292 -307 0
-261 -292 -333 0
-261 -292 -334 0
-261 -292 -335 0
-261 -292 -336 0
-261 -307 -333 0
-261 -307 -334 0
-261 -307 -335 0
-261 -307 -336 0
-261 -333 -334 0
-261 -333 -335 0
-261 -333 -336 0
-261 -334 -335 0
-261 -334 -336 0
-261 -335 -336 0
-268 -292 -307 0
-268 -292 -333 0
-268 -292 -334 0
-268 -292 -335 0
-268 -292 -336 0
-268 -307 -333 0
-268 -307 -334 0
-268 -307 -335 0
-268 -307 -336 0
-268 -333 -334 0
-268 -333 -335 0
-268 -333 -336 0
-268 -334 -335 0
-268 -334 -336 0
-268 -335 -336 0
-292 -307 -333 0
-292 -307 -334 0
-292 -307 -335 0
-292 -307 -336 0
-292 -333 -334 0
-292 -333 -335 0
-292 -333 -336 0
-292 -334 -335 0
-292 -334 -336 0
-292 -335 -336 0
-307 -333 -334 0
-307 -333 -335 0
-307 -333 -336 0
-307 -334 -335 0
-307 -334 -336 0
-307 -335 -336 0
-333 -334 -335 0
-333 -334 -336 0
-333 -335 -336 0
-334 -335 -336 0
268 292 307 333 334 335 336 0
261 292 307 333 334 335 336 0
261 268 307 333 334 335 336 0
261 268 292 333 334 335 336 0
261 268 292 307 334 335 336 0
261 268 292 307 333 335 336 0
261 268 292 307 333 334 336 0
261 268 292 307 333 334 335 0
-265 -272 -296 0
-265 -272 -311 0
-265 -272 -337 0
-265 -272 -338 0
-265 -272 -339 0
-265 -272 -340 0
-265 -296 -311 0
-265 -296 -337 0
-265 -296 -338 0
-265 -296 -339 0
-265 -296 -340 0
-265 -311 -337 0
-265 -311 -338 0
-265 -311 -339 0
-265 -311 -340 0
-265 -337 -338 0
-265 -337 -339 0
-265 -337 -340 0
-265 -338 -339 0
-265 -338 -340 0
-265 -339 -340 0
-272 -296 -311 0
-272 -296 -337 0
-272 -296 -338 0
-272 -296 -339 0
-272 -296 -340 0
-272 -311 -337 0
-272 -311 -338 0
-272 -311 -339 0
-272 -311 -340 0
-272 -337 -338 0
-272 -337 -339 0
-272 -337 -340 0
-272 -338 -339 0
-272 -338 -340 0
-272 -339 -340 0
-296 -311 -337 0
-296 -311 -338 0
-296 -311 -339 0
-296 -311 -340 0
-296 -337 -338 0
-296 -337 -339 0
-296 -337 -340 0
-296 -338 -339 0
-296 -338 -340 0
-296 -339 -340 0
-311 -337 -338 0
-311 -337 -339 0
-311 -337 -340 0
-311 -338 -339 0
-311 -338 -340 0
-311 -339 -340 0
-337 -338 -339 0
-337 -338 -340 0
-337 -339 -340 0
-338 -339 -340 0
272 296 311 337 338 339 340 0
265 296 311 337 338 339 340 0
265 272 311 337 338 339 340 0
265 272 296 337 338 339 340 0
265 272 296 311 338 339 340 0
265 272 296 311 337 339 340 0
265 272 296 311 337 338 340 0
265 272 296 311 337 338 339 0
-269 -275 -300 0
-269 -275 -312 0
-269 -275 -341 0
-269 -275 -342 0
-269 -275 -343 0
-269 -275 -344 0
-269 -300 -312 0
-269 -300 -341 0
-269 -300 -342 0
-269 -300 -343 0
-269 -300 -344 0
-269 -312 -341 0
-269 -312 -342 0
-269 -312 -343 0
-269 -312 -344 0
-269 -341 -342 0
-269 -341 -343 0
-269 -341 -344 0
-269 -342 -343 0
-269 -342 -344 0
-269 -343 -344 0
-275 -300 -312 0
-275 -300 -341 0
-275 -300 -342 0
-275 -300 -343 0
-275 -300 -344 0
-275 -312 -341 0
-275 -312 -342 0
-275 -312 -343 0
-275 -312 -344 0
-275 -341 -342 0
-275 -341 -343 0
-275 -341 -344 0
-275 -342 -343 0
-275 -342 -344 0
-275 -343 -344 0
-300 -312 -341 0
-300 -312 -342 0
-300 -312 -343 0
-300 -312 -344 0
-300 -341 -342 0
-300 -341 -343 0
-300 -341 -344 0
-300 -342 -343 0
-300 -342 -344 0
-300 -343 -344 0
-312 -341 -342 0
-312 -341 -343 0
-312 -341 -344 0
-312 -342 -343 0
-312 -342 -344 0
-312 -343 -344 0
-341 -342 -343 0
-341 -342 -344 0
-341 -343 -344 0
-342 -343 -344 0
275 300 312 341 342 343 344 0
269 300 312 341 342 343 344 0
269 275 312 341 342 343 344 0
269 275 300 341 342 343 344 0
269 275 300 312 342 343 344 0
269 275 300 312 341 343 344 0
269 275 300 312 341 342 344 0
269 275 300 312 341 342 343 0
-282 -289 -325 0
-286 -293 -314 0
-286 -293 -329 0
-286 -314 -329 0
-293 -314 -329 0
-290 -297 -318 0
-290 -297 -333 0
-290 -318 -333 0
-297 -318 -333 0
-294 -301 -322 0
-294 -301 -337 0
-294 -322 -337 0
-301 -322 -337 0
-298 -305 -326 0
-298 -305 -341 0
-298 -326 -341 0
-305 -326 -341 0
-302 -309 -330 0
-1 -18 0
-2 -3 0
-2 -20 0
-2 -23 0
-2 -25 0
-3 -18 0
-3 -20 0
-3 -21 0
-4 -5 0
-4 -22 0
-4 -25 0
-4 -27 0
-4 -29 0
-5 -20 0
-5 -22 0
-5 -24 0
-5 -25 0
-6 -7 0
-6 -26 0
-6 -29 0
-6 -31 0
-6 -33 0
-7 -22 0
-7 -26 0
-7 -28 0
-7 -29 0
-8 -9 0
-8 -30 0
-8 -33 0
-8 -35 0
-8 -37 0
-9 -26 0
-9 -30 0
-9 -32 0
-9 -33 0
-10 -11 0
-10 -34 0
-10 -37 0
-10 -39 0
-10 -41 0
-11 -30 0
-11 -34 0
-11 -36 0
-11 -37 0
-12 -13 0
-12 -38 0
-12 -41 0
-12 -42 0
-12 -44 0
-13 -34 0
-13 -38 0
-13 -40 0
-13 -41 0
-14 -15 0
-14 -44 0
-14 -45 0
-14 -46 0
-15 -38 0
-15 -43 0
-15 -44 0
-16 -46 0
-17 -19 0
-18 -21 0
-18 -23 0
-18 -25 0
-19 -50 0
-19 -52 0
-19 -54 0
-19 -56 0
-20 -23 0
-20 -24 0
-20 -25 0
-20 -27 0
-20 -29 0
-21 -23 0
-21 -25 0
-21 -53 0
-21 -56 0
-21 -58 0
-21 -60 0
-22 -25 0
-22 -27 0
-22 -28 0
-22 -29 0
-22 -31 0
-22 -33 0
-23 -25 0
-23 -50 0
-23 -53 0
-23 -55 0
-23 -56 0
-24 -25 0
-24 -27 0
-24 -29 0
-24 -57 0
-24 -60 0
-24 -62 0
-24 -64 0
-26 -29 0
-26 -31 0
-26 -32 0
-26 -33 0
-26 -35 0
-26 -37 0
-27 -29 0
-27 -53 0
-27 -57 0
-27 -59 0
-27 -60 0
-28 -29 0
-28 -31 0
-28 -33 0
-28 -61 0
-28 -64 0
-28 -66 0
-28 -68 0
-30 -33 0
-30 -35 0
-30 -36 0
-30 -37 0
-30 -39 0
-30 -41 0
-31 -33 0
-31 -57 0
-31 -61 0
-31 -63 0
-31 -64 0
-32 -33 0
-32 -35 0
-32 -37 0
-32 -65 0
-32 -68 0
-32 -70 0
-32 -72 0
-34 -37 0
-34 -39 0
-34 -40 0
-34 -41 0
-34 -42 0
-34 -44 0
-35 -37 0
-35 -61 0
-35 -65 0
-35 -67 0
-35 -68 0
-36 -37 0
-36 -39 0
-36 -41 0
-36 -69 0
-36 -72 0
-36 -74 0
-36 -76 0
-38 -41 0
-38 -42 0
-38 -43 0
-38 -44 0
-38 -45 0
-38 -46 0
-39 -41 0
-39 -65 0
-39 -69 0
-39 -71 0
-39 -72 0
-40 -41 0
-40 -42 0
-40 -44 0
-40 -73 0
-40 -76 0
-40 -78 0
-40 -80 0
-42 -44 0
-42 -69 0
-42 -73 0
-42 -75 0
-42 -76 0
-43 -44 0
-43 -45 0
-43 -46 0
-43 -77 0
-43 -80 0
-43 -82 0
-43 -84 0
-45 -46 0
-45 -73 0
-45 -77 0
-45 -79 0
-45 -80 0
-47 -48 0
-47 -77 0
-47 -81 0
-47 -83 0
-47 -84 0
-49 -51 0
-49 -52 0
-49 -54 0
-49 -56 0
-50 -52 0
-50 -54 0
-50 -55 0
-50 -56 0
-50 -58 0
-50 -60 0
-51 -52 0
-51 -54 0
-51 -56 0
-51 -88 0
-51 -90 0
-51 -92 0
-51 -94 0
-53 -56 0
-53 -58 0
-53 -59 0
-53 -60 0
-53 -62 0
-53 -64 0
-54 -56 0
-54 -87 0
-54 -88 0
-54 -89 0
-54 -90 0
-55 -56 0
-55 -58 0
-55 -60 0
-55 -91 0
-55 -94 0
-55 -96 0
-55 -98 0
-57 -60 0
-57 -62 0
-57 -63 0
-57 -64 0
-57 -66 0
-57 -68 0
-58 -60 0
-58 -88 0
-58 -91 0
-58 -93 0
-58 -94 0
-59 -60 0
-59 -62 0
-59 -64 0
-59 -95 0
-59 -98 0
-59 -100 0
-59 -102 0
-61 -64 0
-61 -66 0
-61 -67 0
-61 -68 0
-61 -70 0
-61 -72 0
-62 -64 0
-62 -91 0
-62 -95 0
-62 -97 0
-62 -98 0
-63 -64 0
-63 -66 0
-63 -68 0
-63 -99 0
-63 -102 0
-63 -104 0
-63 -106 0
-65 -68 0
-65 -70 0
-65 -71 0
-65 -72 0
-65 -74 0
-65 -76 0
-66 -68 0
-66 -95 0
-66 -99 0
-66 -101 0
-66 -102 0
-67 -68 0
-67 -70 0
-67 -72 0
-67 -103 0
-67 -106 0
-67 -108 0
-67 -110 0
-69 -72 0
-69 -74 0
-69 -75 0
-69 -76 0
-69 -78 0
-69 -80 0
-70 -72 0
-70 -99 0
-70 -103 0
-70 -105 0
-70 -106 0
-71 -72 0
-71 -74 0
-71 -76 0
-71 -107 0
-71 -110 0
-71 -112 0
-71 -114 0
-73 -76 0
-73 -78 0
-73 -79 0
-73 -80 0
-73 -82 0
-73 -84 0
-74 -76 0
-74 -103 0
-74 -107 0
-74 -109 0
-74 -110 0
-75 -76 0
-75 -78 0
-75 -80 0
-75 -111 0
-75 -114 0
-75 -116 0
-75 -118 0
-77 -80 0
-77 -82 0
-77 -83 0
-77 -84 0
-77 -85 0
-77 -86 0
-78 -80 0
-78 -107 0
-78 -111 0
-78 -113 0
-78 -114 0
-79 -80 0
-79 -82 0
-79 -84 0
-79 -115 0
-79 -118 0
-79 -120 0
-79 -122 0
-81 -84 0
-81 -85 0
-81 -86 0
-82 -84 0
-82 -111 0
-82 -115 0
-82 -117 0
-82 -118 0
-83 -84 0
-83 -85 0
-83 -86 0
-83 -119 0
-83 -122 0
-83 -123 0
-83 -124 0
-85 -86 0
-85 -115 0
-85 -119 0
-85 -121 0
-85 -122 0
-87 -89 0
-87 -90 0
-87 -92 0
-87 -94 0
-88 -90 0
-88 -92 0
-88 -93 0
-88 -94 0
-88 -96 0
-88 -98 0
-89 -90 0
-89 -92 0
-89 -94 0
-89 -126 0
-89 -128 0
-89 -130 0
-89 -132 0
-91 -94 0
-91 -96 0
-91 -97 0
-91 -98 0
-91 -100 0
-91 -102 0
-92 -94 0
-92 -125 0
-92 -126 0
-92 -127 0
-92 -128 0
-93 -94 0
-93 -96 0
-93 -98 0
-93 -129 0
-93 -132 0
-93 -134 0
-93 -136 0
-95 -98 0
-95 -100 0
-95 -101 0
-95 -102 0
-95 -104 0
-95 -106 0
-96 -98 0
-96 -126 0
-96 -129 0
-96 -131 0
-96 -132 0
-97 -98 0
-97 -100 0
-97 -102 0
-97 -133 0
-97 -136 0
-97 -138 0
-97 -140 0
-99 -102 0
-99 -104 0
-99 -105 0
-99 -106 0
-99 -108 0
-99 -110 0
-100 -102 0
-100 -129 0
-100 -133 0
-100 -135 0
-100 -136 0
-101 -102 0
-101 -104 0
-101 -106 0
-101 -137 0
-101 -140 0
-101 -142 0
-101 -144 0
-103 -106 0
-103 -108 0
-103 -109 0
-103 -110 0
-103 -112 0
-103 -114 0
-104 -106 0
-104 -133 0
-104 -137 0
-104 -139 0
-104 -140 0
-105 -106 0
-105 -108 0
-105 -110 0
-105 -141 0
-105 -144 0
-105 -146 0
-105 -148 0
-107 -110 0
-107 -112 0
-107 -113 0
-107 -114 0
-107 -116 0
-107 -118 0
-108 -110 0
-108 -137 0
-108 -141 0
-108 -143 0
-108 -144 0
-109 -110 0
-109 -112 0
-109 -114 0
-109 -145 0
-109 -148 0
-109 -150 0
-109 -152 0
-111 -114 0
-111 -116 0
-111 -117 0
-111 -118 0
-111 -120 0
-111 -122 0
-112 -114 0
-112 -141 0
-112 -145 0
-112 -147 0
-112 -148 0
-113 -114 0
-113 -116 0
-113 -118 0
-113 -149 0
-113 -152 0
-113 -154 0
-113 -156 0
-115 -118 0
-115 -120 0
-115 -121 0
-115 -122 0
-115 -123 0
-115 -124 0
-116 -118 0
-116 -145 0
-116 -149 0
-116 -151 0
-116 -152 0
-117 -118 0
-117 -120 0
-117 -122 0
-117 -153 0
-117 -156 0
-117 -158 0
-117 -160 0
-119 -122 0
-119 -123 0
-119 -124 0
-120 -122 0
-120 -149 0
-120 -153 0
-120 -155 0
-120 -156 0
-121 -122 0
-121 -123 0
-121 -124 0
-121 -157 0
-121 -160 0
-121 -161 0
-121 -162 0
-123 -124 0
-123 -153 0
-123 -157 0
-123 -159 0
-123 -160 0
-125 -127 0
-125 -128 0
-125 -130 0
-125 -132 0
-126 -128 0
-126 -130 0
-126 -131 0
-126 -132 0
-126 -134 0
-126 -136 0
-127 -128 0
-127 -130 0
-127 -132 0
-127 -164 0
-127 -166 0
-127 -168 0
-127 -170 0
-129 -132 0
-129 -134 0
-129 -135 0
-129 -136 0
-129 -138 0
-129 -140 0
-130 -132 0
-130 -163 0
-130 -164 0
-130 -165 0
-130 -166 0
-131 -132 0
-131 -134 0
-131 -136 0
-131 -167 0
-131 -170 0
-131 -172 0
-131 -174 0
-133 -136 0
-133 -138 0
-133 -139 0
-133 -140 0
-133 -142 0
-133 -144 0
-134 -136 0
-134 -164 0
-134 -167 0
-134 -169 0
-134 -170 0
-135 -136 0
-135 -138 0
-135 -140 0
-135 -171 0
-135 -174 0
-135 -176 0
-135 -178 0
-137 -140 0
-137 -142 0
-137 -143 0
-137 -144 0
-137 -146 0
-137 -148 0
-138 -140 0
-138 -167 0
-138 -171 0
-138 -173 0
-138 -174 0
-139 -140 0
-139 -142 0
-139 -144 0
-139 -175 0
-139 -178 0
-139 -180 0
-139 -182 0
-141 -144 0
-141 -146 0
-141 -147 0
-141 -148 0
-141 -150 0
-141 -152 0
-142 -144 0
-142 -171 0
-142 -175 0
-142 -177 0
-142 -178 0
-143 -144 0
-143 -146 0
-143 -148 0
-143 -179 0
-143 -182 0
-143 -184 0
-143 -186 0
-145 -148 0
-145 -150 0
-145 -151 0
-145 -152 0
-145 -154 0
-145 -156 0
-146 -148 0
-146 -175 0
-146 -179 0
-146 -181 0
-146 -182 0
-147 -148 0
-147 -150 0
-147 -152 0
-147 -183 0
-147 -186 0
-147 -188 0
-147 -190 0
-149 -152 0
-149 -154 0
-149 -155 0
-149 -156 0
-149 -158 0
-149 -160 0
-150 -152 0
-150 -179 0
-150 -183 0
-150 -185 0
-150 -186 0
-151 -152 0
-151 -154 0
-151 -156 0
-151 -187 0
-151 -190 0
-151 -192 0
-151 -194 0
-153 -156 0
-153 -158 0
-153 -159 0
-153 -160 0
-153 -161 0
-153 -162 0
-154 -156 0
-154 -183 0
-154 -187 0
-154 -189 0
-154 -190 0
-155 -156 0
-155 -158 0
-155 -160 0
-155 -191 0
-155 -194 0
-155 -196 0
-155 -198 0
-157 -160 0
-157 -161 0
-157 -162 0
-158 -160 0
-158 -187 0
-158 -191 0
-158 -193 0
-158 -194 0
-159 -160 0
-159 -161 0
-159 -162 0
-159 -195 0
-159 -198 0
-159 -199 0
-159 -200 0
-161 -162 0
-161 -191 0
-161 -195 0
-161 -197 0
-161 -198 0
-163 -165 0
-163 -166 0
-163 -168 0
-163 -170 0
-164 -166 0
-164 -168 0
-164 -169 0
-164 -170 0
-164 -172 0
-164 -174 0
-165 -166 0
-165 -168 0
-165 -170 0
-165 -202 0
-165 -204 0
-165 -206 0
-165 -208 0
-167 -170 0
-167 -172 0
-167 -173 0
-167 -174 0
-167 -176 0
-167 -178 0
-168 -170 0
-168 -201 0
-168 -202 0
-168 -203 0
-168 -204 0
-169 -170 0
-169 -172 0
-169 -174 0
-169 -205 0
-169 -208 0
-169 -210 0
-169 -212 0
-171 -174 0
-171 -176 0
-171 -177 0
-171 -178 0
-171 -180 0
-171 -182 0
-172 -174 0
-172 -202 0
-172 -205 0
-172 -207 0
-172 -208 0
-173 -174 0
-173 -176 0
-173 -178 0
-173 -209 0
-173 -212 0
-173 -214 0
-173 -216 0
-175 -178 0
-175 -180 0
-175 -181 0
-175 -182 0
-175 -184 0
-175 -186 0
-176 -178 0
-176 -205 0
-176 -209 0
-176 -211 0
-176 -212 0
-177 -178 0
-177 -180 0
-177 -182 0
-177 -213 0
-177 -216 0
-177 -218 0
-177 -220 0
-179 -182 0
-179 -184 0
-179 -185 0
-179 -186 0
-179 -188 0
-179 -190 0
-180 -182 0
-180 -209 0
-180 -213 0
-180 -215 0
-180 -216 0
-181 -182 0
-181 -184 0
-181 -186 0
-181 -217 0
-181 -220 0
-181 -222 0
-181 -224 0
-183 -186 0
-183 -188 0
-183 -189 0
-183 -190 0
-183 -192 0
-183 -194 0
-184 -186 0
-184 -213 0
-184 -217 0
-184 -219 0
-184 -220 0
-185 -186 0
-185 -188 0
-185 -190 0
-185 -221 0
-185 -224 0
-185 -226 0
-185 -228 0
-187 -190 0
-187 -192 0
-187 -193 0
-187 -194 0
-187 -196 0
-187 -198 0
-188 -190 0
-188 -217 0
-188 -221 0
-188 -223 0
-188 -224 0
-189 -190 0
-189 -192 0
-189 -194 0
-189 -225 0
-189 -228 0
-189 -230 0
-189 -232 0
-191 -194 0
-191 -196 0
-191 -197 0
-191 -198 0
-191 -199 0
-191 -200 0
-192 -194 0
-192 -221 0
-192 -225 0
-192 -227 0
-192 -228 0
-193 -194 0
-193 -196 0
-193 -198 0
-193 -229 0
-193 -232 0
-193 -234 0
-193 -236 0
-195 -198 0
-195 -199 0
-195 -200 0
-196 -198 0
-196 -225 0
-196 -229 0
-196 -231 0
-196 -232 0
-197 -198 0
-197 -199 0
-197 -200 0
-197 -233 0
-197 -236 0
-197 -237 0
-197 -238 0
-199 -200 0
-199 -229 0
-199 -233 0
-199 -235 0
-199 -236 0
-201 -203 0
-201 -204 0
-201 -206 0
-201 -208 0
-202 -204 0
-202 -206 0
-202 -207 0
-202 -208 0
-202 -210 0
-202 -212 0
-203 -204 0
-203 -206 0
-203 -208 0
-203 -240 0
-203 -242 0
-203 -244 0
-203 -246 0
-205 -208 0
-205 -210 0
-205 -211 0
-205 -212 0
-205 -214 0
-205 -216 0
-206 -208 0
-206 -239 0
-206 -240 0
-206 -241 0
-206 -242 0
-207 -208 0
-207 -210 0
-207 -212 0
-207 -243 0
-207 -246 0
-207 -248 0
-207 -250 0
-209 -212 0
-209 -214 0
-209 -215 0
-209 -216 0
-209 -218 0
-209 -220 0
-210 -212 0
-210 -240 0
-210 -243 0
-210 -245 0
-210 -246 0
-211 -212 0
-211 -214 0
-211 -216 0
-211 -247 0
-211 -250 0
-211 -252 0
-211 -254 0
-213 -216 0
-213 -218 0
-213 -219 0
-213 -220 0
-213 -222 0
-213 -224 0
-214 -216 0
-214 -243 0
-214 -247 0
-214 -249 0
-214 -250 0
-215 -216 0
-215 -218 0
-215 -220 0
-215 -251 0
-215 -254 0
-215 -256 0
-215 -258 0
-217 -220 0
-217 -222 0
-217 -223 0
-217 -224 0
-217 -226 0
-217 -228 0
-218 -220 0
-218 -247 0
-218 -251 0
-218 -253 0
-218 -254 0
-219 -220 0
-219 -222 0
-219 -224 0
-219 -255 0
-219 -258 0
-219 -260 0
-219 -262 0
-221 -224 0
-221 -226 0
-221 -227 0
-221 -228 0
-221 -230 0
-221 -232 0
-222 -224 0
-222 -251 0
-222 -255 0
-222 -257 0
-222 -258 0
-223 -224 0
-223 -226 0
-223 -228 0
-223 -259 0
-223 -262 0
-223 -264 0
-223 -266 0
-225 -228 0
-225 -230 0
-225 -231 0
-225 -232 0
-225 -234 0
-225 -236 0
-226 -228 0
-226 -255 0
-226 -259 0
-226 -261 0
-226 -262 0
-227 -228 0
-227 -230 0
-227 -232 0
-227 -263 0
-227 -266 0
-227 -268 0
-227 -270 0
-229 -232 0
-229 -234 0
-229 -235 0
-229 -236 0
-229 -237 0
-229 -238 0
-230 -232 0
-230 -259 0
-230 -263 0
-230 -265 0
-230 -266 0
-231 -232 0
-231 -234 0
-231 -236 0
-231 -267 0
-231 -270 0
-231 -272 0
-231 -274 0
-233 -236 0
-233 -237 0
-233 -238 0
-234 -236 0
-234 -263 0
-234 -267 0
-234 -269 0
-234 -270 0
-235 -236 0
-235 -237 0
-235 -238 0
-235 -271 0
-235 -274 0
-235 -275 0
-235 -276 0
-237 -238 0
-237 -267 0
-237 -271 0
-237 -273 0
-237 -274 0
-239 -241 0
-239 -242 0
-239 -244 0
-239 -246 0
-240 -242 0
-240 -244 0
-240 -245 0
-240 -246 0
-240 -248 0
-240 -250 0
-241 -242 0
-241 -244 0
-241 -246 0
-241 -278 0
-241 -279 0
-241 -281 0
-241 -283 0
-243 -246 0
-243 -248 0
-243 -249 0
-243 -250 0
-243 -252 0
-243 -254 0
-244 -246 0
-244 -277 0
-244 -278 0
-244 -279 0
-245 -246 0
-245 -248 0
-245 -250 0
-245 -280 0
-245 -283 0
-245 -285 0
-245 -287 0
-247 -250 0
-247 -252 0
-247 -253 0
-247 -254 0
-247 -256 0
-247 -258 0
-248 -250 0
-248 -278 0
-248 -280 0
-248 -282 0
-248 -283 0
-249 -250 0
-249 -252 0
-249 -254 0
-249 -284 0
-249 -287 0
-249 -289 0
-249 -291 0
-251 -254 0
-251 -256 0
-251 -257 0
-251 -258 0
-251 -260 0
-251 -262 0
-252 -254 0
-252 -280 0
-252 -284 0
-252 -286 0
-252 -287 0
-253 -254 0
-253 -256 0
-253 -258 0
-253 -288 0
-253 -291 0
-253 -293 0
-253 -295 0
-255 -258 0
-255 -260 0
-255 -261 0
-255 -262 0
-255 -264 0
-255 -266 0
-256 -258 0
-256 -284 0
-256 -288 0
-256 -290 0
-256 -291 0
-257 -258 0
-257 -260 0
-257 -262 0
-257 -292 0
-257 -295 0
-257 -297 0
-257 -299 0
-259 -262 0
-259 -264 0
-259 -265 0
-259 -266 0
-259 -268 0
-259 -270 0
-260 -262 0
-260 -288 0
-260 -292 0
-260 -294 0
-260 -295 0
-261 -262 0
-261 -264 0
-261 -266 0
-261 -296 0
-261 -299 0
-261 -301 0
-261 -303 0
-263 -266 0
-263 -268 0
-263 -269 0
-263 -270 0
-263 -272 0
-263 -274 0
-264 -266 0
-264 -292 0
-264 -296 0
-264 -298 0
-264 -299 0
-265 -266 0
-265 -268 0
-265 -270 0
-265 -300 0
-265 -303 0
-265 -305 0
-265 -307 0
-267 -270 0
-267 -272 0
-267 -273 0
-267 -274 0
-267 -275 0
-267 -276 0
-268 -270 0
-268 -296 0
-268 -300 0
-268 -302 0
-268 -303 0
-269 -270 0
-269 -272 0
-269 -274 0
-269 -304 0
-269 -307 0
-269 -309 0
-269 -311 0
-271 -274 0
-271 -275 0
-271 -276 0
-272 -274 0
-272 -300 0
-272 -304 0
-272 -306 0
-272 -307 0
-273 -274 0
-273 -275 0
-273 -276 0
-273 -308 0
-273 -311 0
-273 -312 0
-275 -276 0
-275 -304 0
-275 -308 0
-275 -310 0
-275 -311 0
-277 -279 0
-277 -281 0
-277 -283 0
-278 -279 0
-278 -281 0
-278 -282 0
-278 -283 0
-278 -285 0
-278 -287 0
-280 -283 0
-280 -285 0
-280 -286 0
-280 -287 0
-280 -289 0
-280 -291 0
-281 -283 0
-281 -313 0
-282 -283 0
-282 -285 0
-282 -287 0
-282 -314 0
-282 -317 0
-282 -319 0
-282 -321 0
-284 -287 0
-284 -289 0
-284 -290 0
-284 -291 0
-284 -293 0
-284 -295 0
-285 -287 0
-285 -314 0
-285 -316 0
-285 -317 0
-286 -287 0
-286 -289 0
-286 -291 0
-286 -318 0
-286 -321 0
-286 -323 0
-286 -325 0
-288 -291 0
-288 -293 0
-288 -294 0
-288 -295 0
-288 -297 0
-288 -299 0
-289 -291 0
-289 -314 0
-289 -318 0
-289 -320 0
-289 -321 0
-290 -291 0
-290 -293 0
-290 -295 0
-290 -322 0
-290 -325 0
-290 -327 0
-290 -329 0
-292 -295 0
-292 -297 0
-292 -298 0
-292 -299 0
-292 -301 0
-292 -303 0
-293 -295 0
-293 -318 0
-293 -322 0
-293 -324 0
-293 -325 0
-294 -295 0
-294 -297 0
-294 -299 0
-294 -326 0
-294 -329 0
-294 -331 0
-294 -333 0
-296 -299 0
-296 -301 0
-296 -302 0
-296 -303 0
-296 -305 0
-296 -307 0
-297 -299 0
-297 -322 0
-297 -326 0
-297 -328 0
-297 -329 0
-298 -299 0
-298 -301 0
-298 -303 0
-298 -330 0
-298 -333 0
-298 -335 0
-298 -337 0
-300 -303 0
-300 -305 0
-300 -306 0
-300 -307 0
-300 -309 0
-300 -311 0
-301 -303 0
-301 -326 0
-301 -330 0
-301 -332 0
-301 -333 0
-302 -303 0
-302 -305 0
-302 -307 0
-302 -334 0
-302 -337 0
-302 -339 0
-302 -341 0
-304 -307 0
-304 -309 0
-304 -310 0
-304 -311 0
-304 -312 0
-305 -307 0
-305 -330 0
-305 -334 0
-305 -336 0
-305 -337 0
-306 -307 0
-306 -309 0
-306 -311 0
-306 -338 0
-306 -341 0
-306 -343 0
-308 -311 0
-308 -312 0
-309 -311 0
-309 -334 0
-309 -338 0
-309 -340 0
-309 -341 0
-310 -311 0
-310 -312 0
-310 -342 0
-314 -317 0
-314 -319 0
-314 -320 0
-314 -321 0
-314 -323 0
-314 -325 0
-315 -317 0
-316 -317 0
-316 -319 0
-316 -321 0
-318 -321 0
-318 -323 0
-318 -324 0
-318 -325 0
-318 -327 0
-318 -329 0
-319 -321 0
-320 -321 0
-320 -323 0
-320 -325 0
-322 -325 0
-322 -327 0
-322 -328 0
-322 -329 0
-322 -331 0
-322 -333 0
-323 -325 0
-324 -325 0
-324 -327 0
-324 -329 0
-326 -329 0
-326 -331 0
-326 -332 0
-326 -333 0
-326 -335 0
-326 -337 0
-327 -329 0
-328 -329 0
-328 -331 0
-328 -333 0
-330 -333 0
-330 -335 0
-330 -336 0
-330 -337 0
-330 -339 0
-330 -341 0
-331 -333 0
-332 -333 0
-332 -335 0
-332 -337 0
-334 -337 0
-334 -339 0
-334 -340 0
-334 -341 0
-334 -343 0
-335 -337 0
-336 -337 0
-336 -339 0
-336 -341 0
-338 -341 0
-338 -343 0
-338 -344 0
-339 -341 0
-340 -341 0
-340 -343 0
-188 0
-217 0
-223 0
-224 0
