p cnf 424 6992
-1 -3 -19 0
-1 -3 -27 0
-1 -3 -58 0
-1 -3 -59 0
-1 -3 -60 0
-1 -3 -61 0
-1 -19 -27 0
-1 -19 -58 0
-1 -19 -59 0
-1 -19 -60 0
-1 -19 -61 0
-1 -27 -58 0
-1 -27 -59 0
-1 -27 -60 0
-1 -27 -61 0
-1 -58 -59 0
-1 -58 -60 0
-1 -58 -61 0
-1 -59 -60 0
-1 -59 -61 0
-1 -60 -61 0
-3 -19 -27 0
-3 -19 -58 0
-3 -19 -59 0
-3 -19 -60 0
-3 -19 -61 0
-3 -27 -58 0
-3 -27 -59 0
-3 -27 -60 0
-3 -27 -61 0
-3 -58 -59 0
-3 -58 -60 0
-3 -58 -61 0
-3 -59 -60 0
-3 -59 -61 0
-3 -60 -61 0
-19 -27 -58 0
-19 -27 -59 0
-19 -27 -60 0
-19 -27 -61 0
-19 -58 -59 0
-19 -58 -60 0
-19 -58 -61 0
-19 -59 -60 0
-19 -59 -61 0
-19 -60 -61 0
-27 -58 -59 0
-27 -58 -60 0
-27 -58 -61 0
-27 -59 -60 0
-27 -59 -61 0
-27 -60 -61 0
-58 -59 -60 0
-58 -59 -61 0
-58 -60 -61 0
-59 -60 -61 0
3 19 27 58 59 60 61 0
1 19 27 58 59 60 61 0
1 3 27 58 59 60 61 0
1 3 19 58 59 60 61 0
1 3 19 27 59 60 61 0
1 3 19 27 58 60 61 0
1 3 19 27 58 59 61 0
1 3 19 27 58 59 60 0
-2 -5 -20 0
-2 -5 -31 0
-2 -5 -62 0
-2 -5 -63 0
-2 -5 -64 0
-2 -5 -65 0
-2 -20 -31 0
-2 -20 -62 0
-2 -20 -63 0
-2 -20 -64 0
-2 -20 -65 0
-2 -31 -62 0
-2 -31 -63 0
-2 -31 -64 0
-2 -31 -65 0
-2 -62 -63 0
-2 -62 -64 0
-2 -62 -65 0
-2 -63 -64 0
-2 -63 -65 0
-2 -64 -65 0
-5 -20 -31 0
-5 -20 -62 0
-5 -20 -63 0
-5 -20 -64 0
-5 -20 -65 0
-5 -31 -62 0
-5 -31 -63 0
-5 -31 -64 0
-5 -31 -65 0
-5 -62 -63 0
-5 -62 -64 0
-5 -62 -65 0
-5 -63 -64 0
-5 -63 -65 0
-5 -64 -65 0
-20 -31 -62 0
-20 -31 -63 0
-20 -31 -64 0
-20 -31 -65 0
-20 -62 -63 0
-20 -62 -64 0
-20 -62 -65 0
-20 -63 -64 0
-20 -63 -65 0
-20 -64 -65 0
-31 -62 -63 0
-31 -62 -64 0
-31 -62 -65 0
-31 -63 -64 0
-31 -63 -65 0
-31 -64 -65 0
-62 -63 -64 0
-62 -63 -65 0
-62 -64 -65 0
-63 -64 -65 0
5 20 31 62 63 64 65 0
2 20 31 62 63 64 65 0
2 5 31 62 63 64 65 0
2 5 20 62 63 64 65 0
2 5 20 31 63 64 65 0
2 5 20 31 62 64 65 0
2 5 20 31 62 63 65 0
2 5 20 31 62 63 64 0
-4 -7 -22 0
-4 -7 -35 0
-4 -7 -66 0
-4 -7 -67 0
-4 -7 -68 0
-4 -7 -69 0
-4 -22 -35 0
-4 -22 -66 0
-4 -22 -67 0
-4 -22 -68 0
-4 -22 -69 0
-4 -35 -66 0
-4 -35 -67 0
-4 -35 -68 0
-4 -35 -69 0
-4 -66 -67 0
-4 -66 -68 0
-4 -66 -69 0
-4 -67 -68 0
-4 -67 -69 0
-4 -68 -69 0
-7 -22 -35 0
-7 -22 -66 0
-7 -22 -67 0
-7 -22 -68 0
-7 -22 -69 0
-7 -35 -66 0
-7 -35 -67 0
-7 -35 -68 0
-7 -35 -69 0
-7 -66 -67 0
-7 -66 -68 0
-7 -66 -69 0
-7 -67 -68 0
-7 -67 -69 0
-7 -68 -69 0
-22 -35 -66 0
-22 -35 -67 0
-22 -35 -68 0
-22 -35 -69 0
-22 -66 -67 0
-22 -66 -68 0
-22 -66 -69 0
-22 -67 -68 0
-22 -67 -69 0
-22 -68 -69 0
-35 -66 -67 0
-35 -66 -68 0
-35 -66 -69 0
-35 -67 -68 0
-35 -67 -69 0
-35 -68 -69 0
-66 -67 -68 0
-66 -67 -69 0
-66 -68 -69 0
-67 -68 -69 0
7 22 35 66 67 68 69 0
4 22 35 66 67 68 69 0
4 7 35 66 67 68 69 0
4 7 22 66 67 68 69 0
4 7 22 35 67 68 69 0
4 7 22 35 66 68 69 0
4 7 22 35 66 67 69 0
4 7 22 35 66 67 68 0
-6 -9 -24 0
-6 -9 -39 0
-6 -9 -70 0
-6 -9 -71 0
-6 -9 -72 0
-6 -9 -73 0
-6 -24 -39 0
-6 -24 -70 0
-6 -24 -71 0
-6 -24 -72 0
-6 -24 -73 0
-6 -39 -70 0
-6 -39 -71 0
-6 -39 -72 0
-6 -39 -73 0
-6 -70 -71 0
-6 -70 -72 0
-6 -70 -73 0
-6 -71 -72 0
-6 -71 -73 0
-6 -72 -73 0
-9 -24 -39 0
-9 -24 -70 0
-9 -24 -71 0
-9 -24 -72 0
-9 -24 -73 0
-9 -39 -70 0
-9 -39 -71 0
-9 -39 -72 0
-9 -39 -73 0
-9 -70 -71 0
-9 -70 -72 0
-9 -70 -73 0
-9 -71 -72 0
-9 -71 -73 0
-9 -72 -73 0
-24 -39 -70 0
-24 -39 -71 0
-24 -39 -72 0
-24 -39 -73 0
-24 -70 -71 0
-24 -70 -72 0
-24 -70 -73 0
-24 -71 -72 0
-24 -71 -73 0
-24 -72 -73 0
-39 -70 -71 0
-39 -70 -72 0
-39 -70 -73 0
-39 -71 -72 0
-39 -71 -73 0
-39 -72 -73 0
-70 -71 -72 0
-70 -71 -73 0
-70 -72 -73 0
-71 -72 -73 0
9 24 39 70 71 72 73 0
6 24 39 70 71 72 73 0
6 9 39 70 71 72 73 0
6 9 24 70 71 72 73 0
6 9 24 39 71 72 73 0
6 9 24 39 70 72 73 0
6 9 24 39 70 71 73 0
6 9 24 39 70 71 72 0
-8 -11 -28 0
-8 -11 -43 0
-8 -11 -74 0
-8 -11 -75 0
-8 -11 -76 0
-8 -11 -77 0
-8 -28 -43 0
-8 -28 -74 0
-8 -28 -75 0
-8 -28 -76 0
-8 -28 -77 0
-8 -43 -74 0
-8 -43 -75 0
-8 -43 -76 0
-8 -43 -77 0
-8 -74 -75 0
-8 -74 -76 0
-8 -74 -77 0
-8 -75 -76 0
-8 -75 -77 0
-8 -76 -77 0
-11 -28 -43 0
-11 -28 -74 0
-11 -28 -75 0
-11 -28 -76 0
-11 -28 -77 0
-11 -43 -74 0
-11 -43 -75 0
-11 -43 -76 0
-11 -43 -77 0
-11 -74 -75 0
-11 -74 -76 0
-11 -74 -77 0
-11 -75 -76 0
-11 -75 -77 0
-11 -76 -77 0
-28 -43 -74 0
-28 -43 -75 0
-28 -43 -76 0
-28 -43 -77 0
-28 -74 -75 0
-28 -74 -76 0
-28 -74 -77 0
-28 -75 -76 0
-28 -75 -77 0
-28 -76 -77 0
-43 -74 -75 0
-43 -74 -76 0
-43 -74 -77 0
-43 -75 -76 0
-43 -75 -77 0
-43 -76 -77 0
-74 -75 -76 0
-74 -75 -77 0
-74 -76 -77 0
-75 -76 -77 0
11 28 43 74 75 76 77 0
8 28 43 74 75 76 77 0
8 11 43 74 75 76 77 0
8 11 28 74 75 76 77 0
8 11 28 43 75 76 77 0
8 11 28 43 74 76 77 0
8 11 28 43 74 75 77 0
8 11 28 43 74 75 76 0
-10 -13 -32 0
-10 -13 -47 0
-10 -13 -78 0
-10 -13 -79 0
-10 -13 -80 0
-10 -13 -81 0
-10 -32 -47 0
-10 -32 -78 0
-10 -32 -79 0
-10 -32 -80 0
-10 -32 -81 0
-10 -47 -78 0
-10 -47 -79 0
-10 -47 -80 0
-10 -47 -81 0
-10 -78 -79 0
-10 -78 -80 0
-10 -78 -81 0
-10 -79 -80 0
-10 -79 -81 0
-10 -80 -81 0
-13 -32 -47 0
-13 -32 -78 0
-13 -32 -79 0
-13 -32 -80 0
-13 -32 -81 0
-13 -47 -78 0
-13 -47 -79 0
-13 -47 -80 0
-13 -47 -81 0
-13 -78 -79 0
-13 -78 -80 0
-13 -78 -81 0
-13 -79 -80 0
-13 -79 -81 0
-13 -80 -81 0
-32 -47 -78 0
-32 -47 -79 0
-32 -47 -80 0
-32 -47 -81 0
-32 -78 -79 0
-32 -78 -80 0
-32 -78 -81 0
-32 -79 -80 0
-32 -79 -81 0
-32 -80 -81 0
-47 -78 -79 0
-47 -78 -80 0
-47 -78 -81 0
-47 -79 -80 0
-47 -79 -81 0
-47 -80 -81 0
-78 -79 -80 0
-78 -79 -81 0
-78 -80 -81 0
-79 -80 -81 0
13 32 47 78 79 80 81 0
10 32 47 78 79 80 81 0
10 13 47 78 79 80 81 0
10 13 32 78 79 80 81 0
10 13 32 47 79 80 81 0
10 13 32 47 78 80 81 0
10 13 32 47 78 79 81 0
10 13 32 47 78 79 80 0
-12 -15 -36 0
-12 -15 -50 0
-12 -15 -82 0
-12 -15 -83 0
-12 -15 -84 0
-12 -15 -85 0
-12 -36 -50 0
-12 -36 -82 0
-12 -36 -83 0
-12 -36 -84 0
-12 -36 -85 0
-12 -50 -82 0
-12 -50 -83 0
-12 -50 -84 0
-12 -50 -85 0
-12 -82 -83 0
-12 -82 -84 0
-12 -82 -85 0
-12 -83 -84 0
-12 -83 -85 0
-12 -84 -85 0
-15 -36 -50 0
-15 -36 -82 0
-15 -36 -83 0
-15 -36 -84 0
-15 -36 -85 0
-15 -50 -82 0
-15 -50 -83 0
-15 -50 -84 0
-15 -50 -85 0
-15 -82 -83 0
-15 -82 -84 0
-15 -82 -85 0
-15 -83 -84 0
-15 -83 -85 0
-15 -84 -85 0
-36 -50 -82 0
-36 -50 -83 0
-36 -50 -84 0
-36 -50 -85 0
-36 -82 -83 0
-36 -82 -84 0
-36 -82 -85 0
-36 -83 -84 0
-36 -83 -85 0
-36 -84 -85 0
-50 -82 -83 0
-50 -82 -84 0
-50 -82 -85 0
-50 -83 -84 0
-50 -83 -85 0
-50 -84 -85 0
-82 -83 -84 0
-82 -83 -85 0
-82 -84 -85 0
-83 -84 -85 0
15 36 50 82 83 84 85 0
12 36 50 82 83 84 85 0
12 15 50 82 83 84 85 0
12 15 36 82 83 84 85 0
12 15 36 50 83 84 85 0
12 15 36 50 82 84 85 0
12 15 36 50 82 83 85 0
12 15 36 50 82 83 84 0
-14 -17 -40 0
-14 -17 -52 0
-14 -17 -86 0
-14 -17 -87 0
-14 -17 -88 0
-14 -17 -89 0
-14 -40 -52 0
-14 -40 -86 0
-14 -40 -87 0
-14 -40 -88 0
-14 -40 -89 0
-14 -52 -86 0
-14 -52 -87 0
-14 -52 -88 0
-14 -52 -89 0
-14 -86 -87 0
-14 -86 -88 0
-14 -86 -89 0
-14 -87 -88 0
-14 -87 -89 0
-14 -88 -89 0
-17 -40 -52 0
-17 -40 -86 0
-17 -40 -87 0
-17 -40 -88 0
-17 -40 -89 0
-17 -52 -86 0
-17 -52 -87 0
-17 -52 -88 0
-17 -52 -89 0
-17 -86 -87 0
-17 -86 -88 0
-17 -86 -89 0
-17 -87 -88 0
-17 -87 -89 0
-17 -88 -89 0
-40 -52 -86 0
-40 -52 -87 0
-40 -52 -88 0
-40 -52 -89 0
-40 -86 -87 0
-40 -86 -88 0
-40 -86 -89 0
-40 -87 -88 0
-40 -87 -89 0
-40 -88 -89 0
-52 -86 -87 0
-52 -86 -88 0
-52 -86 -89 0
-52 -87 -88 0
-52 -87 -89 0
-52 -88 -89 0
-86 -87 -88 0
-86 -87 -89 0
-86 -88 -89 0
-87 -88 -89 0
17 40 52 86 87 88 89 0
14 40 52 86 87 88 89 0
14 17 52 86 87 88 89 0
14 17 40 86 87 88 89 0
14 17 40 52 87 88 89 0
14 17 40 52 86 88 89 0
14 17 40 52 86 87 89 0
14 17 40 52 86 87 88 0
-16 -18 -44 0
-16 -18 -54 0
-16 -18 -90 0
-16 -18 -91 0
-16 -18 -92 0
-16 -18 -93 0
-16 -44 -54 0
-16 -44 -90 0
-16 -44 -91 0
-16 -44 -92 0
-16 -44 -93 0
-16 -54 -90 0
-16 -54 -91 0
-16 -54 -92 0
-16 -54 -93 0
-16 -90 -91 0
-16 -90 -92 0
-16 -90 -93 0
-16 -91 -92 0
-16 -91 -93 0
-16 -92 -93 0
-18 -44 -54 0
-18 -44 -90 0
-18 -44 -91 0
-18 -44 -92 0
-18 -44 -93 0
-18 -54 -90 0
-18 -54 -91 0
-18 -54 -92 0
-18 -54 -93 0
-18 -90 -91 0
-18 -90 -92 0
-18 -90 -93 0
-18 -91 -92 0
-18 -91 -93 0
-18 -92 -93 0
-44 -54 -90 0
-44 -54 -91 0
-44 -54 -92 0
-44 -54 -93 0
-44 -90 -91 0
-44 -90 -92 0
-44 -90 -93 0
-44 -91 -92 0
-44 -91 -93 0
-44 -92 -93 0
-54 -90 -91 0
-54 -90 -92 0
-54 -90 -93 0
-54 -91 -92 0
-54 -91 -93 0
-54 -92 -93 0
-90 -91 -92 0
-90 -91 -93 0
-90 -92 -93 0
-91 -92 -93 0
18 44 54 90 91 92 93 0
16 44 54 90 91 92 93 0
16 18 54 90 91 92 93 0
16 18 44 90 91 92 93 0
16 18 44 54 91 92 93 0
16 18 44 54 90 92 93 0
16 18 44 54 90 91 93 0
16 18 44 54 90 91 92 0
-21 -25 -55 0
-21 -25 -66 0
-21 -25 -100 0
-21 -25 -101 0
-21 -25 -102 0
-21 -25 -103 0
-21 -55 -66 0
-21 -55 -100 0
-21 -55 -101 0
-21 -55 -102 0
-21 -55 -103 0
-21 -66 -100 0
-21 -66 -101 0
-21 -66 -102 0
-21 -66 -103 0
-21 -100 -101 0
-21 -100 -102 0
-21 -100 -103 0
-21 -101 -102 0
-21 -101 -103 0
-21 -102 -103 0
-25 -55 -66 0
-25 -55 -100 0
-25 -55 -101 0
-25 -55 -102 0
-25 -55 -103 0
-25 -66 -100 0
-25 -66 -101 0
-25 -66 -102 0
-25 -66 -103 0
-25 -100 -101 0
-25 -100 -102 0
-25 -100 -103 0
-25 -101 -102 0
-25 -101 -103 0
-25 -102 -103 0
-55 -66 -100 0
-55 -66 -101 0
-55 -66 -102 0
-55 -66 -103 0
-55 -100 -101 0
-55 -100 -102 0
-55 -100 -103 0
-55 -101 -102 0
-55 -101 -103 0
-55 -102 -103 0
-66 -100 -101 0
-66 -100 -102 0
-66 -100 -103 0
-66 -101 -102 0
-66 -101 -103 0
-66 -102 -103 0
-100 -101 -102 0
-100 -101 -103 0
-100 -102 -103 0
-101 -102 -103 0
25 55 66 100 101 102 103 0
21 55 66 100 101 102 103 0
21 25 66 100 101 102 103 0
21 25 55 100 101 102 103 0
21 25 55 66 101 102 103 0
21 25 55 66 100 102 103 0
21 25 55 66 100 101 103 0
21 25 55 66 100 101 102 0
-23 -29 -56 0
-23 -29 -70 0
-23 -29 -104 0
-23 -29 -105 0
-23 -29 -106 0
-23 -29 -107 0
-23 -56 -70 0
-23 -56 -104 0
-23 -56 -105 0
-23 -56 -106 0
-23 -56 -107 0
-23 -70 -104 0
-23 -70 -105 0
-23 -70 -106 0
-23 -70 -107 0
-23 -104 -105 0
-23 -104 -106 0
-23 -104 -107 0
-23 -105 -106 0
-23 -105 -107 0
-23 -106 -107 0
-29 -56 -70 0
-29 -56 -104 0
-29 -56 -105 0
-29 -56 -106 0
-29 -56 -107 0
-29 -70 -104 0
-29 -70 -105 0
-29 -70 -106 0
-29 -70 -107 0
-29 -104 -105 0
-29 -104 -106 0
-29 -104 -107 0
-29 -105 -106 0
-29 -105 -107 0
-29 -106 -107 0
-56 -70 -104 0
-56 -70 -105 0
-56 -70 -106 0
-56 -70 -107 0
-56 -104 -105 0
-56 -104 -106 0
-56 -104 -107 0
-56 -105 -106 0
-56 -105 -107 0
-56 -106 -107 0
-70 -104 -105 0
-70 -104 -106 0
-70 -104 -107 0
-70 -105 -106 0
-70 -105 -107 0
-70 -106 -107 0
-104 -105 -106 0
-104 -105 -107 0
-104 -106 -107 0
-105 -106 -107 0
29 56 70 104 105 106 107 0
23 56 70 104 105 106 107 0
23 29 70 104 105 106 107 0
23 29 56 104 105 106 107 0
23 29 56 70 105 106 107 0
23 29 56 70 104 106 107 0
23 29 56 70 104 105 107 0
23 29 56 70 104 105 106 0
-24 -25 -26 0
-26 -33 -59 0
-26 -33 -74 0
-26 -33 -108 0
-26 -33 -109 0
-26 -33 -110 0
-26 -33 -111 0
-26 -59 -74 0
-26 -59 -108 0
-26 -59 -109 0
-26 -59 -110 0
-26 -59 -111 0
-26 -74 -108 0
-26 -74 -109 0
-26 -74 -110 0
-26 -74 -111 0
-26 -108 -109 0
-26 -108 -110 0
-26 -108 -111 0
-26 -109 -110 0
-26 -109 -111 0
-26 -110 -111 0
-33 -59 -74 0
-33 -59 -108 0
-33 -59 -109 0
-33 -59 -110 0
-33 -59 -111 0
-33 -74 -108 0
-33 -74 -109 0
-33 -74 -110 0
-33 -74 -111 0
-33 -108 -109 0
-33 -108 -110 0
-33 -108 -111 0
-33 -109 -110 0
-33 -109 -111 0
-33 -110 -111 0
-59 -74 -108 0
-59 -74 -109 0
-59 -74 -110 0
-59 -74 -111 0
-59 -108 -109 0
-59 -108 -110 0
-59 -108 -111 0
-59 -109 -110 0
-59 -109 -111 0
-59 -110 -111 0
-74 -108 -109 0
-74 -108 -110 0
-74 -108 -111 0
-74 -109 -110 0
-74 -109 -111 0
-74 -110 -111 0
-108 -109 -110 0
-108 -109 -111 0
-108 -110 -111 0
-109 -110 -111 0
33 59 74 108 109 110 111 0
26 59 74 108 109 110 111 0
26 33 74 108 109 110 111 0
26 33 59 108 109 110 111 0
26 33 59 74 109 110 111 0
26 33 59 74 108 110 111 0
26 33 59 74 108 109 111 0
26 33 59 74 108 109 110 0
-27 -28 -29 0
-27 -28 -30 0
-27 -29 -30 0
-28 -29 -30 0
-30 -37 -63 0
-30 -37 -78 0
-30 -37 -112 0
-30 -37 -113 0
-30 -37 -114 0
-30 -37 -115 0
-30 -63 -78 0
-30 -63 -112 0
-30 -63 -113 0
-30 -63 -114 0
-30 -63 -115 0
-30 -78 -112 0
-30 -78 -113 0
-30 -78 -114 0
-30 -78 -115 0
-30 -112 -113 0
-30 -112 -114 0
-30 -112 -115 0
-30 -113 -114 0
-30 -113 -115 0
-30 -114 -115 0
-37 -63 -78 0
-37 -63 -112 0
-37 -63 -113 0
-37 -63 -114 0
-37 -63 -115 0
-37 -78 -112 0
-37 -78 -113 0
-37 -78 -114 0
-37 -78 -115 0
-37 -112 -113 0
-37 -112 -114 0
-37 -112 -115 0
-37 -113 -114 0
-37 -113 -115 0
-37 -114 -115 0
-63 -78 -112 0
-63 -78 -113 0
-63 -78 -114 0
-63 -78 -115 0
-63 -112 -113 0
-63 -112 -114 0
-63 -112 -115 0
-63 -113 -114 0
-63 -113 -115 0
-63 -114 -115 0
-78 -112 -113 0
-78 -112 -114 0
-78 -112 -115 0
-78 -113 -114 0
-78 -113 -115 0
-78 -114 -115 0
-112 -113 -114 0
-112 -113 -115 0
-112 -114 -115 0
-113 -114 -115 0
37 63 78 112 113 114 115 0
30 63 78 112 113 114 115 0
30 37 78 112 113 114 115 0
30 37 63 112 113 114 115 0
30 37 63 78 113 114 115 0
30 37 63 78 112 114 115 0
30 37 63 78 112 113 115 0
30 37 63 78 112 113 114 0
-31 -32 -33 0
-31 -32 -34 0
-31 -33 -34 0
-32 -33 -34 0
-34 -41 -67 0
-34 -41 -82 0
-34 -41 -116 0
-34 -41 -117 0
-34 -41 -118 0
-34 -41 -119 0
-34 -67 -82 0
-34 -67 -116 0
-34 -67 -117 0
-34 -67 -118 0
-34 -67 -119 0
-34 -82 -116 0
-34 -82 -117 0
-34 -82 -118 0
-34 -82 -119 0
-34 -116 -117 0
-34 -116 -118 0
-34 -116 -119 0
-34 -117 -118 0
-34 -117 -119 0
-34 -118 -119 0
-41 -67 -82 0
-41 -67 -116 0
-41 -67 -117 0
-41 -67 -118 0
-41 -67 -119 0
-41 -82 -116 0
-41 -82 -117 0
-41 -82 -118 0
-41 -82 -119 0
-41 -116 -117 0
-41 -116 -118 0
-41 -116 -119 0
-41 -117 -118 0
-41 -117 -119 0
-41 -118 -119 0
-67 -82 -116 0
-67 -82 -117 0
-67 -82 -118 0
-67 -82 -119 0
-67 -116 -117 0
-67 -116 -118 0
-67 -116 -119 0
-67 -117 -118 0
-67 -117 -119 0
-67 -118 -119 0
-82 -116 -117 0
-82 -116 -118 0
-82 -116 -119 0
-82 -117 -118 0
-82 -117 -119 0
-82 -118 -119 0
-116 -117 -118 0
-116 -117 -119 0
-116 -118 -119 0
-117 -118 -119 0
41 67 82 116 117 118 119 0
34 67 82 116 117 118 119 0
34 41 82 116 117 118 119 0
34 41 67 116 117 118 119 0
34 41 67 82 117 118 119 0
34 41 67 82 116 118 119 0
34 41 67 82 116 117 119 0
34 41 67 82 116 117 118 0
-35 -36 -37 0
-35 -36 -38 0
-35 -37 -38 0
-36 -37 -38 0
-38 -45 -71 0
-38 -45 -86 0
-38 -45 -120 0
-38 -45 -121 0
-38 -45 -122 0
-38 -45 -123 0
-38 -71 -86 0
-38 -71 -120 0
-38 -71 -121 0
-38 -71 -122 0
-38 -71 -123 0
-38 -86 -120 0
-38 -86 -121 0
-38 -86 -122 0
-38 -86 -123 0
-38 -120 -121 0
-38 -120 -122 0
-38 -120 -123 0
-38 -121 -122 0
-38 -121 -123 0
-38 -122 -123 0
-45 -71 -86 0
-45 -71 -120 0
-45 -71 -121 0
-45 -71 -122 0
-45 -71 -123 0
-45 -86 -120 0
-45 -86 -121 0
-45 -86 -122 0
-45 -86 -123 0
-45 -120 -121 0
-45 -120 -122 0
-45 -120 -123 0
-45 -121 -122 0
-45 -121 -123 0
-45 -122 -123 0
-71 -86 -120 0
-71 -86 -121 0
-71 -86 -122 0
-71 -86 -123 0
-71 -120 -121 0
-71 -120 -122 0
-71 -120 -123 0
-71 -121 -122 0
-71 -121 -123 0
-71 -122 -123 0
-86 -120 -121 0
-86 -120 -122 0
-86 -120 -123 0
-86 -121 -122 0
-86 -121 -123 0
-86 -122 -123 0
-120 -121 -122 0
-120 -121 -123 0
-120 -122 -123 0
-121 -122 -123 0
45 71 86 120 121 122 123 0
38 71 86 120 121 122 123 0
38 45 86 120 121 122 123 0
38 45 71 120 121 122 123 0
38 45 71 86 121 122 123 0
38 45 71 86 120 122 123 0
38 45 71 86 120 121 123 0
38 45 71 86 120 121 122 0
-39 -40 -41 0
-39 -40 -42 0
-39 -41 -42 0
-40 -41 -42 0
-42 -48 -75 0
-42 -48 -90 0
-42 -48 -124 0
-42 -48 -125 0
-42 -48 -126 0
-42 -48 -127 0
-42 -75 -90 0
-42 -75 -124 0
-42 -75 -125 0
-42 -75 -126 0
-42 -75 -127 0
-42 -90 -124 0
-42 -90 -125 0
-42 -90 -126 0
-42 -90 -127 0
-42 -124 -125 0
-42 -124 -126 0
-42 -124 -127 0
-42 -125 -126 0
-42 -125 -127 0
-42 -126 -127 0
-48 -75 -90 0
-48 -75 -124 0
-48 -75 -125 0
-48 -75 -126 0
-48 -75 -127 0
-48 -90 -124 0
-48 -90 -125 0
-48 -90 -126 0
-48 -90 -127 0
-48 -124 -125 0
-48 -124 -126 0
-48 -124 -127 0
-48 -125 -126 0
-48 -125 -127 0
-48 -126 -127 0
-75 -90 -124 0
-75 -90 -125 0
-75 -90 -126 0
-75 -90 -127 0
-75 -124 -125 0
-75 -124 -126 0
-75 -124 -127 0
-75 -125 -126 0
-75 -125 -127 0
-75 -126 -127 0
-90 -124 -125 0
-90 -124 -126 0
-90 -124 -127 0
-90 -125 -126 0
-90 -125 -127 0
-90 -126 -127 0
-124 -125 -126 0
-124 -125 -127 0
-124 -126 -127 0
-125 -126 -127 0
48 75 90 124 125 126 127 0
42 75 90 124 125 126 127 0
42 48 90 124 125 126 127 0
42 48 75 124 125 126 127 0
42 48 75 90 125 126 127 0
42 48 75 90 124 126 127 0
42 48 75 90 124 125 127 0
42 48 75 90 124 125 126 0
-43 -44 -45 0
-43 -44 -46 0
-43 -45 -46 0
-44 -45 -46 0
-46 -51 -79 0
-46 -51 -94 0
-46 -51 -128 0
-46 -51 -129 0
-46 -51 -130 0
-46 -51 -131 0
-46 -79 -94 0
-46 -79 -128 0
-46 -79 -129 0
-46 -79 -130 0
-46 -79 -131 0
-46 -94 -128 0
-46 -94 -129 0
-46 -94 -130 0
-46 -94 -131 0
-46 -128 -129 0
-46 -128 -130 0
-46 -128 -131 0
-46 -129 -130 0
-46 -129 -131 0
-46 -130 -131 0
-51 -79 -94 0
-51 -79 -128 0
-51 -79 -129 0
-51 -79 -130 0
-51 -79 -131 0
-51 -94 -128 0
-51 -94 -129 0
-51 -94 -130 0
-51 -94 -131 0
-51 -128 -129 0
-51 -128 -130 0
-51 -128 -131 0
-51 -129 -130 0
-51 -129 -131 0
-51 -130 -131 0
-79 -94 -128 0
-79 -94 -129 0
-79 -94 -130 0
-79 -94 -131 0
-79 -128 -129 0
-79 -128 -130 0
-79 -128 -131 0
-79 -129 -130 0
-79 -129 -131 0
-79 -130 -131 0
-94 -128 -129 0
-94 -128 -130 0
-94 -128 -131 0
-94 -129 -130 0
-94 -129 -131 0
-94 -130 -131 0
-128 -129 -130 0
-128 -129 -131 0
-128 -130 -131 0
-129 -130 -131 0
51 79 94 128 129 130 131 0
46 79 94 128 129 130 131 0
46 51 94 128 129 130 131 0
46 51 79 128 129 130 131 0
46 51 79 94 129 130 131 0
46 51 79 94 128 130 131 0
46 51 79 94 128 129 131 0
46 51 79 94 128 129 130 0
-47 -48 -49 0
-49 -53 -83 0
-49 -53 -96 0
-49 -53 -132 0
-49 -53 -133 0
-49 -53 -134 0
-49 -53 -135 0
-49 -83 -96 0
-49 -83 -132 0
-49 -83 -133 0
-49 -83 -134 0
-49 -83 -135 0
-49 -96 -132 0
-49 -96 -133 0
-49 -96 -134 0
-49 -96 -135 0
-49 -132 -133 0
-49 -132 -134 0
-49 -132 -135 0
-49 -133 -134 0
-49 -133 -135 0
-49 -134 -135 0
-53 -83 -96 0
-53 -83 -132 0
-53 -83 -133 0
-53 -83 -134 0
-53 -83 -135 0
-53 -96 -132 0
-53 -96 -133 0
-53 -96 -134 0
-53 -96 -135 0
-53 -132 -133 0
-53 -132 -134 0
-53 -132 -135 0
-53 -133 -134 0
-53 -133 -135 0
-53 -134 -135 0
-83 -96 -132 0
-83 -96 -133 0
-83 -96 -134 0
-83 -96 -135 0
-83 -132 -133 0
-83 -132 -134 0
-83 -132 -135 0
-83 -133 -134 0
-83 -133 -135 0
-83 -134 -135 0
-96 -132 -133 0
-96 -132 -134 0
-96 -132 -135 0
-96 -133 -134 0
-96 -133 -135 0
-96 -134 -135 0
-132 -133 -134 0
-132 -133 -135 0
-132 -134 -135 0
-133 -134 -135 0
53 83 96 132 133 134 135 0
49 83 96 132 133 134 135 0
49 53 96 132 133 134 135 0
49 53 83 132 133 134 135 0
49 53 83 96 133 134 135 0
49 53 83 96 132 134 135 0
49 53 83 96 132 133 135 0
49 53 83 96 132 133 134 0
-57 -64 -97 0
-57 -64 -108 0
-57 -64 -142 0
-57 -64 -143 0
-57 -64 -144 0
-57 -64 -145 0
-57 -97 -108 0
-57 -97 -142 0
-57 -97 -143 0
-57 -97 -144 0
-57 -97 -145 0
-57 -108 -142 0
-57 -108 -143 0
-57 -108 -144 0
-57 -108 -145 0
-57 -142 -143 0
-57 -142 -144 0
-57 -142 -145 0
-57 -143 -144 0
-57 -143 -145 0
-57 -144 -145 0
-64 -97 -108 0
-64 -97 -142 0
-64 -97 -143 0
-64 -97 -144 0
-64 -97 -145 0
-64 -108 -142 0
-64 -108 -143 0
-64 -108 -144 0
-64 -108 -145 0
-64 -142 -143 0
-64 -142 -144 0
-64 -142 -145 0
-64 -143 -144 0
-64 -143 -145 0
-64 -144 -145 0
-97 -108 -142 0
-97 -108 -143 0
-97 -108 -144 0
-97 -108 -145 0
-97 -142 -143 0
-97 -142 -144 0
-97 -142 -145 0
-97 -143 -144 0
-97 -143 -145 0
-97 -144 -145 0
-108 -142 -143 0
-108 -142 -144 0
-108 -142 -145 0
-108 -143 -144 0
-108 -143 -145 0
-108 -144 -145 0
-142 -143 -144 0
-142 -143 -145 0
-142 -144 -145 0
-143 -144 -145 0
64 97 108 142 143 144 145 0
57 97 108 142 143 144 145 0
57 64 108 142 143 144 145 0
57 64 97 142 143 144 145 0
57 64 97 108 143 144 145 0
57 64 97 108 142 144 145 0
57 64 97 108 142 143 145 0
57 64 97 108 142 143 144 0
-60 -104 -140 0
-60 -104 -141 0
-60 -140 -141 0
-104 -140 -141 0
-61 -68 -98 0
-61 -68 -112 0
-61 -68 -146 0
-61 -68 -147 0
-61 -68 -148 0
-61 -68 -149 0
-61 -98 -112 0
-61 -98 -146 0
-61 -98 -147 0
-61 -98 -148 0
-61 -98 -149 0
-61 -112 -146 0
-61 -112 -147 0
-61 -112 -148 0
-61 -112 -149 0
-61 -146 -147 0
-61 -146 -148 0
-61 -146 -149 0
-61 -147 -148 0
-61 -147 -149 0
-61 -148 -149 0
-68 -98 -112 0
-68 -98 -146 0
-68 -98 -147 0
-68 -98 -148 0
-68 -98 -149 0
-68 -112 -146 0
-68 -112 -147 0
-68 -112 -148 0
-68 -112 -149 0
-68 -146 -147 0
-68 -146 -148 0
-68 -146 -149 0
-68 -147 -148 0
-68 -147 -149 0
-68 -148 -149 0
-98 -112 -146 0
-98 -112 -147 0
-98 -112 -148 0
-98 -112 -149 0
-98 -146 -147 0
-98 -146 -148 0
-98 -146 -149 0
-98 -147 -148 0
-98 -147 -149 0
-98 -148 -149 0
-112 -146 -147 0
-112 -146 -148 0
-112 -146 -149 0
-112 -147 -148 0
-112 -147 -149 0
-112 -148 -149 0
-146 -147 -148 0
-146 -147 -149 0
-146 -148 -149 0
-147 -148 -149 0
68 98 112 146 147 148 149 0
61 98 112 146 147 148 149 0
61 68 112 146 147 148 149 0
61 68 98 146 147 148 149 0
61 68 98 112 147 148 149 0
61 68 98 112 146 148 149 0
61 68 98 112 146 147 149 0
61 68 98 112 146 147 148 0
-62 -98 -99 0
-65 -72 -101 0
-65 -72 -116 0
-65 -72 -150 0
-65 -72 -151 0
-65 -72 -152 0
-65 -72 -153 0
-65 -101 -116 0
-65 -101 -150 0
-65 -101 -151 0
-65 -101 -152 0
-65 -101 -153 0
-65 -116 -150 0
-65 -116 -151 0
-65 -116 -152 0
-65 -116 -153 0
-65 -150 -151 0
-65 -150 -152 0
-65 -150 -153 0
-65 -151 -152 0
-65 -151 -153 0
-65 -152 -153 0
-72 -101 -116 0
-72 -101 -150 0
-72 -101 -151 0
-72 -101 -152 0
-72 -101 -153 0
-72 -116 -150 0
-72 -116 -151 0
-72 -116 -152 0
-72 -116 -153 0
-72 -150 -151 0
-72 -150 -152 0
-72 -150 -153 0
-72 -151 -152 0
-72 -151 -153 0
-72 -152 -153 0
-101 -116 -150 0
-101 -116 -151 0
-101 -116 -152 0
-101 -116 -153 0
-101 -150 -151 0
-101 -150 -152 0
-101 -150 -153 0
-101 -151 -152 0
-101 -151 -153 0
-101 -152 -153 0
-116 -150 -151 0
-116 -150 -152 0
-116 -150 -153 0
-116 -151 -152 0
-116 -151 -153 0
-116 -152 -153 0
-150 -151 -152 0
-150 -151 -153 0
-150 -152 -153 0
-151 -152 -153 0
72 101 116 150 151 152 153 0
65 101 116 150 151 152 153 0
65 72 116 150 151 152 153 0
65 72 101 150 151 152 153 0
65 72 101 116 151 152 153 0
65 72 101 116 150 152 153 0
65 72 101 116 150 151 153 0
65 72 101 116 150 151 152 0
-69 -76 -105 0
-69 -76 -120 0
-69 -76 -154 0
-69 -76 -155 0
-69 -76 -156 0
-69 -76 -157 0
-69 -105 -120 0
-69 -105 -154 0
-69 -105 -155 0
-69 -105 -156 0
-69 -105 -157 0
-69 -120 -154 0
-69 -120 -155 0
-69 -120 -156 0
-69 -120 -157 0
-69 -154 -155 0
-69 -154 -156 0
-69 -154 -157 0
-69 -155 -156 0
-69 -155 -157 0
-69 -156 -157 0
-76 -105 -120 0
-76 -105 -154 0
-76 -105 -155 0
-76 -105 -156 0
-76 -105 -157 0
-76 -120 -154 0
-76 -120 -155 0
-76 -120 -156 0
-76 -120 -157 0
-76 -154 -155 0
-76 -154 -156 0
-76 -154 -157 0
-76 -155 -156 0
-76 -155 -157 0
-76 -156 -157 0
-105 -120 -154 0
-105 -120 -155 0
-105 -120 -156 0
-105 -120 -157 0
-105 -154 -155 0
-105 -154 -156 0
-105 -154 -157 0
-105 -155 -156 0
-105 -155 -157 0
-105 -156 -157 0
-120 -154 -155 0
-120 -154 -156 0
-120 -154 -157 0
-120 -155 -156 0
-120 -155 -157 0
-120 -156 -157 0
-154 -155 -156 0
-154 -155 -157 0
-154 -156 -157 0
-155 -156 -157 0
76 105 120 154 155 156 157 0
69 105 120 154 155 156 157 0
69 76 120 154 155 156 157 0
69 76 105 154 155 156 157 0
69 76 105 120 155 156 157 0
69 76 105 120 154 156 157 0
69 76 105 120 154 155 157 0
69 76 105 120 154 155 156 0
-73 -80 -109 0
-73 -80 -124 0
-73 -80 -158 0
-73 -80 -159 0
-73 -80 -160 0
-73 -80 -161 0
-73 -109 -124 0
-73 -109 -158 0
-73 -109 -159 0
-73 -109 -160 0
-73 -109 -161 0
-73 -124 -158 0
-73 -124 -159 0
-73 -124 -160 0
-73 -124 -161 0
-73 -158 -159 0
-73 -158 -160 0
-73 -158 -161 0
-73 -159 -160 0
-73 -159 -161 0
-73 -160 -161 0
-80 -109 -124 0
-80 -109 -158 0
-80 -109 -159 0
-80 -109 -160 0
-80 -109 -161 0
-80 -124 -158 0
-80 -124 -159 0
-80 -124 -160 0
-80 -124 -161 0
-80 -158 -159 0
-80 -158 -160 0
-80 -158 -161 0
-80 -159 -160 0
-80 -159 -161 0
-80 -160 -161 0
-109 -124 -158 0
-109 -124 -159 0
-109 -124 -160 0
-109 -124 -161 0
-109 -158 -159 0
-109 -158 -160 0
-109 -158 -161 0
-109 -159 -160 0
-109 -159 -161 0
-109 -160 -161 0
-124 -158 -159 0
-124 -158 -160 0
-124 -158 -161 0
-124 -159 -160 0
-124 -159 -161 0
-124 -160 -161 0
-158 -159 -160 0
-158 -159 -161 0
-158 -160 -161 0
-159 -160 -161 0
80 109 124 158 159 160 161 0
73 109 124 158 159 160 161 0
73 80 124 158 159 160 161 0
73 80 109 158 159 160 161 0
73 80 109 124 159 160 161 0
73 80 109 124 158 160 161 0
73 80 109 124 158 159 161 0
73 80 109 124 158 159 160 0
-77 -84 -113 0
-77 -84 -128 0
-77 -84 -162 0
-77 -84 -163 0
-77 -84 -164 0
-77 -84 -165 0
-77 -113 -128 0
-77 -113 -162 0
-77 -113 -163 0
-77 -113 -164 0
-77 -113 -165 0
-77 -128 -162 0
-77 -128 -163 0
-77 -128 -164 0
-77 -128 -165 0
-77 -162 -163 0
-77 -162 -164 0
-77 -162 -165 0
-77 -163 -164 0
-77 -163 -165 0
-77 -164 -165 0
-84 -113 -128 0
-84 -113 -162 0
-84 -113 -163 0
-84 -113 -164 0
-84 -113 -165 0
-84 -128 -162 0
-84 -128 -163 0
-84 -128 -164 0
-84 -128 -165 0
-84 -162 -163 0
-84 -162 -164 0
-84 -162 -165 0
-84 -163 -164 0
-84 -163 -165 0
-84 -164 -165 0
-113 -128 -162 0
-113 -128 -163 0
-113 -128 -164 0
-113 -128 -165 0
-113 -162 -163 0
-113 -162 -164 0
-113 -162 -165 0
-113 -163 -164 0
-113 -163 -165 0
-113 -164 -165 0
-128 -162 -163 0
-128 -162 -164 0
-128 -162 -165 0
-128 -163 -164 0
-128 -163 -165 0
-128 -164 -165 0
-162 -163 -164 0
-162 -163 -165 0
-162 -164 -165 0
-163 -164 -165 0
84 113 128 162 163 164 165 0
77 113 128 162 163 164 165 0
77 84 128 162 163 164 165 0
77 84 113 162 163 164 165 0
77 84 113 128 163 164 165 0
77 84 113 128 162 164 165 0
77 84 113 128 162 163 165 0
77 84 113 128 162 163 164 0
-81 -88 -117 0
-81 -88 -132 0
-81 -88 -166 0
-81 -88 -167 0
-81 -88 -168 0
-81 -88 -169 0
-81 -117 -132 0
-81 -117 -166 0
-81 -117 -167 0
-81 -117 -168 0
-81 -117 -169 0
-81 -132 -166 0
-81 -132 -167 0
-81 -132 -168 0
-81 -132 -169 0
-81 -166 -167 0
-81 -166 -168 0
-81 -166 -169 0
-81 -167 -168 0
-81 -167 -169 0
-81 -168 -169 0
-88 -117 -132 0
-88 -117 -166 0
-88 -117 -167 0
-88 -117 -168 0
-88 -117 -169 0
-88 -132 -166 0
-88 -132 -167 0
-88 -132 -168 0
-88 -132 -169 0
-88 -166 -167 0
-88 -166 -168 0
-88 -166 -169 0
-88 -167 -168 0
-88 -167 -169 0
-88 -168 -169 0
-117 -132 -166 0
-117 -132 -167 0
-117 -132 -168 0
-117 -132 -169 0
-117 -166 -167 0
-117 -166 -168 0
-117 -166 -169 0
-117 -167 -168 0
-117 -167 -169 0
-117 -168 -169 0
-132 -166 -167 0
-132 -166 -168 0
-132 -166 -169 0
-132 -167 -168 0
-132 -167 -169 0
-132 -168 -169 0
-166 -167 -168 0
-166 -167 -169 0
-166 -168 -169 0
-167 -168 -169 0
88 117 132 166 167 168 169 0
81 117 132 166 167 168 169 0
81 88 132 166 167 168 169 0
81 88 117 166 167 168 169 0
81 88 117 132 167 168 169 0
81 88 117 132 166 168 169 0
81 88 117 132 166 167 169 0
81 88 117 132 166 167 168 0
-85 -92 -121 0
-85 -92 -136 0
-85 -92 -170 0
-85 -92 -171 0
-85 -92 -172 0
-85 -92 -173 0
-85 -121 -136 0
-85 -121 -170 0
-85 -121 -171 0
-85 -121 -172 0
-85 -121 -173 0
-85 -136 -170 0
-85 -136 -171 0
-85 -136 -172 0
-85 -136 -173 0
-85 -170 -171 0
-85 -170 -172 0
-85 -170 -173 0
-85 -171 -172 0
-85 -171 -173 0
-85 -172 -173 0
-92 -121 -136 0
-92 -121 -170 0
-92 -121 -171 0
-92 -121 -172 0
-92 -121 -173 0
-92 -136 -170 0
-92 -136 -171 0
-92 -136 -172 0
-92 -136 -173 0
-92 -170 -171 0
-92 -170 -172 0
-92 -170 -173 0
-92 -171 -172 0
-92 -171 -173 0
-92 -172 -173 0
-121 -136 -170 0
-121 -136 -171 0
-121 -136 -172 0
-121 -136 -173 0
-121 -170 -171 0
-121 -170 -172 0
-121 -170 -173 0
-121 -171 -172 0
-121 -171 -173 0
-121 -172 -173 0
-136 -170 -171 0
-136 -170 -172 0
-136 -170 -173 0
-136 -171 -172 0
-136 -171 -173 0
-136 -172 -173 0
-170 -171 -172 0
-170 -171 -173 0
-170 -172 -173 0
-171 -172 -173 0
92 121 136 170 171 172 173 0
85 121 136 170 171 172 173 0
85 92 136 170 171 172 173 0
85 92 121 170 171 172 173 0
85 92 121 136 171 172 173 0
85 92 121 136 170 172 173 0
85 92 121 136 170 171 173 0
85 92 121 136 170 171 172 0
-87 -136 -137 0
-89 -95 -125 0
-89 -95 -138 0
-89 -95 -174 0
-89 -95 -175 0
-89 -95 -176 0
-89 -95 -177 0
-89 -125 -138 0
-89 -125 -174 0
-89 -125 -175 0
-89 -125 -176 0
-89 -125 -177 0
-89 -138 -174 0
-89 -138 -175 0
-89 -138 -176 0
-89 -138 -177 0
-89 -174 -175 0
-89 -174 -176 0
-89 -174 -177 0
-89 -175 -176 0
-89 -175 -177 0
-89 -176 -177 0
-95 -125 -138 0
-95 -125 -174 0
-95 -125 -175 0
-95 -125 -176 0
-95 -125 -177 0
-95 -138 -174 0
-95 -138 -175 0
-95 -138 -176 0
-95 -138 -177 0
-95 -174 -175 0
-95 -174 -176 0
-95 -174 -177 0
-95 -175 -176 0
-95 -175 -177 0
-95 -176 -177 0
-125 -138 -174 0
-125 -138 -175 0
-125 -138 -176 0
-125 -138 -177 0
-125 -174 -175 0
-125 -174 -176 0
-125 -174 -177 0
-125 -175 -176 0
-125 -175 -177 0
-125 -176 -177 0
-138 -174 -175 0
-138 -174 -176 0
-138 -174 -177 0
-138 -175 -176 0
-138 -175 -177 0
-138 -176 -177 0
-174 -175 -176 0
-174 -175 -177 0
-174 -176 -177 0
-175 -176 -177 0
95 125 138 174 175 176 177 0
89 125 138 174 175 176 177 0
89 95 138 174 175 176 177 0
89 95 125 174 175 176 177 0
89 95 125 138 175 176 177 0
89 95 125 138 174 176 177 0
89 95 125 138 174 175 177 0
89 95 125 138 174 175 176 0
-93 -129 -178 0
-93 -129 -179 0
-93 -178 -179 0
-129 -178 -179 0
-99 -106 -139 0
-99 -106 -150 0
-99 -106 -184 0
-99 -106 -185 0
-99 -106 -186 0
-99 -106 -187 0
-99 -139 -150 0
-99 -139 -184 0
-99 -139 -185 0
-99 -139 -186 0
-99 -139 -187 0
-99 -150 -184 0
-99 -150 -185 0
-99 -150 -186 0
-99 -150 -187 0
-99 -184 -185 0
-99 -184 -186 0
-99 -184 -187 0
-99 -185 -186 0
-99 -185 -187 0
-99 -186 -187 0
-106 -139 -150 0
-106 -139 -184 0
-106 -139 -185 0
-106 -139 -186 0
-106 -139 -187 0
-106 -150 -184 0
-106 -150 -185 0
-106 -150 -186 0
-106 -150 -187 0
-106 -184 -185 0
-106 -184 -186 0
-106 -184 -187 0
-106 -185 -186 0
-106 -185 -187 0
-106 -186 -187 0
-139 -150 -184 0
-139 -150 -185 0
-139 -150 -186 0
-139 -150 -187 0
-139 -184 -185 0
-139 -184 -186 0
-139 -184 -187 0
-139 -185 -186 0
-139 -185 -187 0
-139 -186 -187 0
-150 -184 -185 0
-150 -184 -186 0
-150 -184 -187 0
-150 -185 -186 0
-150 -185 -187 0
-150 -186 -187 0
-184 -185 -186 0
-184 -185 -187 0
-184 -186 -187 0
-185 -186 -187 0
106 139 150 184 185 186 187 0
99 139 150 184 185 186 187 0
99 106 150 184 185 186 187 0
99 106 139 184 185 186 187 0
99 106 139 150 185 186 187 0
99 106 139 150 184 186 187 0
99 106 139 150 184 185 187 0
99 106 139 150 184 185 186 0
-102 -146 -182 0
-102 -146 -183 0
-102 -182 -183 0
-146 -182 -183 0
-103 -110 -140 0
-103 -110 -154 0
-103 -110 -188 0
-103 -110 -189 0
-103 -110 -190 0
-103 -110 -191 0
-103 -140 -154 0
-103 -140 -188 0
-103 -140 -189 0
-103 -140 -190 0
-103 -140 -191 0
-103 -154 -188 0
-103 -154 -189 0
-103 -154 -190 0
-103 -154 -191 0
-103 -188 -189 0
-103 -188 -190 0
-103 -188 -191 0
-103 -189 -190 0
-103 -189 -191 0
-103 -190 -191 0
-110 -140 -154 0
-110 -140 -188 0
-110 -140 -189 0
-110 -140 -190 0
-110 -140 -191 0
-110 -154 -188 0
-110 -154 -189 0
-110 -154 -190 0
-110 -154 -191 0
-110 -188 -189 0
-110 -188 -190 0
-110 -188 -191 0
-110 -189 -190 0
-110 -189 -191 0
-110 -190 -191 0
-140 -154 -188 0
-140 -154 -189 0
-140 -154 -190 0
-140 -154 -191 0
-140 -188 -189 0
-140 -188 -190 0
-140 -188 -191 0
-140 -189 -190 0
-140 -189 -191 0
-140 -190 -191 0
-154 -188 -189 0
-154 -188 -190 0
-154 -188 -191 0
-154 -189 -190 0
-154 -189 -191 0
-154 -190 -191 0
-188 -189 -190 0
-188 -189 -191 0
-188 -190 -191 0
-189 -190 -191 0
110 140 154 188 189 190 191 0
103 140 154 188 189 190 191 0
103 110 154 188 189 190 191 0
103 110 140 188 189 190 191 0
103 110 140 154 189 190 191 0
103 110 140 154 188 190 191 0
103 110 140 154 188 189 191 0
103 110 140 154 188 189 190 0
-107 -114 -143 0
-107 -114 -158 0
-107 -114 -192 0
-107 -114 -193 0
-107 -114 -194 0
-107 -114 -195 0
-107 -143 -158 0
-107 -143 -192 0
-107 -143 -193 0
-107 -143 -194 0
-107 -143 -195 0
-107 -158 -192 0
-107 -158 -193 0
-107 -158 -194 0
-107 -158 -195 0
-107 -192 -193 0
-107 -192 -194 0
-107 -192 -195 0
-107 -193 -194 0
-107 -193 -195 0
-107 -194 -195 0
-114 -143 -158 0
-114 -143 -192 0
-114 -143 -193 0
-114 -143 -194 0
-114 -143 -195 0
-114 -158 -192 0
-114 -158 -193 0
-114 -158 -194 0
-114 -158 -195 0
-114 -192 -193 0
-114 -192 -194 0
-114 -192 -195 0
-114 -193 -194 0
-114 -193 -195 0
-114 -194 -195 0
-143 -158 -192 0
-143 -158 -193 0
-143 -158 -194 0
-143 -158 -195 0
-143 -192 -193 0
-143 -192 -194 0
-143 -192 -195 0
-143 -193 -194 0
-143 -193 -195 0
-143 -194 -195 0
-158 -192 -193 0
-158 -192 -194 0
-158 -192 -195 0
-158 -193 -194 0
-158 -193 -195 0
-158 -194 -195 0
-192 -193 -194 0
-192 -193 -195 0
-192 -194 -195 0
-193 -194 -195 0
114 143 158 192 193 194 195 0
107 143 158 192 193 194 195 0
107 114 158 192 193 194 195 0
107 114 143 192 193 194 195 0
107 114 143 158 193 194 195 0
107 114 143 158 192 194 195 0
107 114 143 158 192 193 195 0
107 114 143 158 192 193 194 0
-111 -118 -147 0
-111 -118 -162 0
-111 -118 -196 0
-111 -118 -197 0
-111 -118 -198 0
-111 -118 -199 0
-111 -147 -162 0
-111 -147 -196 0
-111 -147 -197 0
-111 -147 -198 0
-111 -147 -199 0
-111 -162 -196 0
-111 -162 -197 0
-111 -162 -198 0
-111 -162 -199 0
-111 -196 -197 0
-111 -196 -198 0
-111 -196 -199 0
-111 -197 -198 0
-111 -197 -199 0
-111 -198 -199 0
-118 -147 -162 0
-118 -147 -196 0
-118 -147 -197 0
-118 -147 -198 0
-118 -147 -199 0
-118 -162 -196 0
-118 -162 -197 0
-118 -162 -198 0
-118 -162 -199 0
-118 -196 -197 0
-118 -196 -198 0
-118 -196 -199 0
-118 -197 -198 0
-118 -197 -199 0
-118 -198 -199 0
-147 -162 -196 0
-147 -162 -197 0
-147 -162 -198 0
-147 -162 -199 0
-147 -196 -197 0
-147 -196 -198 0
-147 -196 -199 0
-147 -197 -198 0
-147 -197 -199 0
-147 -198 -199 0
-162 -196 -197 0
-162 -196 -198 0
-162 -196 -199 0
-162 -197 -198 0
-162 -197 -199 0
-162 -198 -199 0
-196 -197 -198 0
-196 -197 -199 0
-196 -198 -199 0
-197 -198 -199 0
118 147 162 196 197 198 199 0
111 147 162 196 197 198 199 0
111 118 162 196 197 198 199 0
111 118 147 196 197 198 199 0
111 118 147 162 197 198 199 0
111 118 147 162 196 198 199 0
111 118 147 162 196 197 199 0
111 118 147 162 196 197 198 0
-115 -122 -151 0
-115 -122 -166 0
-115 -122 -200 0
-115 -122 -201 0
-115 -122 -202 0
-115 -122 -203 0
-115 -151 -166 0
-115 -151 -200 0
-115 -151 -201 0
-115 -151 -202 0
-115 -151 -203 0
-115 -166 -200 0
-115 -166 -201 0
-115 -166 -202 0
-115 -166 -203 0
-115 -200 -201 0
-115 -200 -202 0
-115 -200 -203 0
-115 -201 -202 0
-115 -201 -203 0
-115 -202 -203 0
-122 -151 -166 0
-122 -151 -200 0
-122 -151 -201 0
-122 -151 -202 0
-122 -151 -203 0
-122 -166 -200 0
-122 -166 -201 0
-122 -166 -202 0
-122 -166 -203 0
-122 -200 -201 0
-122 -200 -202 0
-122 -200 -203 0
-122 -201 -202 0
-122 -201 -203 0
-122 -202 -203 0
-151 -166 -200 0
-151 -166 -201 0
-151 -166 -202 0
-151 -166 -203 0
-151 -200 -201 0
-151 -200 -202 0
-151 -200 -203 0
-151 -201 -202 0
-151 -201 -203 0
-151 -202 -203 0
-166 -200 -201 0
-166 -200 -202 0
-166 -200 -203 0
-166 -201 -202 0
-166 -201 -203 0
-166 -202 -203 0
-200 -201 -202 0
-200 -201 -203 0
-200 -202 -203 0
-201 -202 -203 0
122 151 166 200 201 202 203 0
115 151 166 200 201 202 203 0
115 122 166 200 201 202 203 0
115 122 151 200 201 202 203 0
115 122 151 166 201 202 203 0
115 122 151 166 200 202 203 0
115 122 151 166 200 201 203 0
115 122 151 166 200 201 202 0
-119 -126 -155 0
-119 -126 -170 0
-119 -126 -204 0
-119 -126 -205 0
-119 -126 -206 0
-119 -126 -207 0
-119 -155 -170 0
-119 -155 -204 0
-119 -155 -205 0
-119 -155 -206 0
-119 -155 -207 0
-119 -170 -204 0
-119 -170 -205 0
-119 -170 -206 0
-119 -170 -207 0
-119 -204 -205 0
-119 -204 -206 0
-119 -204 -207 0
-119 -205 -206 0
-119 -205 -207 0
-119 -206 -207 0
-126 -155 -170 0
-126 -155 -204 0
-126 -155 -205 0
-126 -155 -206 0
-126 -155 -207 0
-126 -170 -204 0
-126 -170 -205 0
-126 -170 -206 0
-126 -170 -207 0
-126 -204 -205 0
-126 -204 -206 0
-126 -204 -207 0
-126 -205 -206 0
-126 -205 -207 0
-126 -206 -207 0
-155 -170 -204 0
-155 -170 -205 0
-155 -170 -206 0
-155 -170 -207 0
-155 -204 -205 0
-155 -204 -206 0
-155 -204 -207 0
-155 -205 -206 0
-155 -205 -207 0
-155 -206 -207 0
-170 -204 -205 0
-170 -204 -206 0
-170 -204 -207 0
-170 -205 -206 0
-170 -205 -207 0
-170 -206 -207 0
-204 -205 -206 0
-204 -205 -207 0
-204 -206 -207 0
-205 -206 -207 0
126 155 170 204 205 206 207 0
119 155 170 204 205 206 207 0
119 126 170 204 205 206 207 0
119 126 155 204 205 206 207 0
119 126 155 170 205 206 207 0
119 126 155 170 204 206 207 0
119 126 155 170 204 205 207 0
119 126 155 170 204 205 206 0
-123 -130 -159 0
-123 -130 -174 0
-123 -130 -208 0
-123 -130 -209 0
-123 -130 -210 0
-123 -130 -211 0
-123 -159 -174 0
-123 -159 -208 0
-123 -159 -209 0
-123 -159 -210 0
-123 -159 -211 0
-123 -174 -208 0
-123 -174 -209 0
-123 -174 -210 0
-123 -174 -211 0
-123 -208 -209 0
-123 -208 -210 0
-123 -208 -211 0
-123 -209 -210 0
-123 -209 -211 0
-123 -210 -211 0
-130 -159 -174 0
-130 -159 -208 0
-130 -159 -209 0
-130 -159 -210 0
-130 -159 -211 0
-130 -174 -208 0
-130 -174 -209 0
-130 -174 -210 0
-130 -174 -211 0
-130 -208 -209 0
-130 -208 -210 0
-130 -208 -211 0
-130 -209 -210 0
-130 -209 -211 0
-130 -210 -211 0
-159 -174 -208 0
-159 -174 -209 0
-159 -174 -210 0
-159 -174 -211 0
-159 -208 -209 0
-159 -208 -210 0
-159 -208 -211 0
-159 -209 -210 0
-159 -209 -211 0
-159 -210 -211 0
-174 -208 -209 0
-174 -208 -210 0
-174 -208 -211 0
-174 -209 -210 0
-174 -209 -211 0
-174 -210 -211 0
-208 -209 -210 0
-208 -209 -211 0
-208 -210 -211 0
-209 -210 -211 0
130 159 174 208 209 210 211 0
123 159 174 208 209 210 211 0
123 130 174 208 209 210 211 0
123 130 159 208 209 210 211 0
123 130 159 174 209 210 211 0
123 130 159 174 208 210 211 0
123 130 159 174 208 209 211 0
123 130 159 174 208 209 210 0
-127 -134 -163 0
-127 -134 -178 0
-127 -134 -212 0
-127 -134 -213 0
-127 -134 -214 0
-127 -134 -215 0
-127 -163 -178 0
-127 -163 -212 0
-127 -163 -213 0
-127 -163 -214 0
-127 -163 -215 0
-127 -178 -212 0
-127 -178 -213 0
-127 -178 -214 0
-127 -178 -215 0
-127 -212 -213 0
-127 -212 -214 0
-127 -212 -215 0
-127 -213 -214 0
-127 -213 -215 0
-127 -214 -215 0
-134 -163 -178 0
-134 -163 -212 0
-134 -163 -213 0
-134 -163 -214 0
-134 -163 -215 0
-134 -178 -212 0
-134 -178 -213 0
-134 -178 -214 0
-134 -178 -215 0
-134 -212 -213 0
-134 -212 -214 0
-134 -212 -215 0
-134 -213 -214 0
-134 -213 -215 0
-134 -214 -215 0
-163 -178 -212 0
-163 -178 -213 0
-163 -178 -214 0
-163 -178 -215 0
-163 -212 -213 0
-163 -212 -214 0
-163 -212 -215 0
-163 -213 -214 0
-163 -213 -215 0
-163 -214 -215 0
-178 -212 -213 0
-178 -212 -214 0
-178 -212 -215 0
-178 -213 -214 0
-178 -213 -215 0
-178 -214 -215 0
-212 -213 -214 0
-212 -213 -215 0
-212 -214 -215 0
-213 -214 -215 0
134 163 178 212 213 214 215 0
127 163 178 212 213 214 215 0
127 134 178 212 213 214 215 0
127 134 163 212 213 214 215 0
127 134 163 178 213 214 215 0
127 134 163 178 212 214 215 0
127 134 163 178 212 213 215 0
127 134 163 178 212 213 214 0
-131 -137 -167 0
-131 -137 -180 0
-131 -137 -216 0
-131 -137 -217 0
-131 -137 -218 0
-131 -137 -219 0
-131 -167 -180 0
-131 -167 -216 0
-131 -167 -217 0
-131 -167 -218 0
-131 -167 -219 0
-131 -180 -216 0
-131 -180 -217 0
-131 -180 -218 0
-131 -180 -219 0
-131 -216 -217 0
-131 -216 -218 0
-131 -216 -219 0
-131 -217 -218 0
-131 -217 -219 0
-131 -218 -219 0
-137 -167 -180 0
-137 -167 -216 0
-137 -167 -217 0
-137 -167 -218 0
-137 -167 -219 0
-137 -180 -216 0
-137 -180 -217 0
-137 -180 -218 0
-137 -180 -219 0
-137 -216 -217 0
-137 -216 -218 0
-137 -216 -219 0
-137 -217 -218 0
-137 -217 -219 0
-137 -218 -219 0
-167 -180 -216 0
-167 -180 -217 0
-167 -180 -218 0
-167 -180 -219 0
-167 -216 -217 0
-167 -216 -218 0
-167 -216 -219 0
-167 -217 -218 0
-167 -217 -219 0
-167 -218 -219 0
-180 -216 -217 0
-180 -216 -218 0
-180 -216 -219 0
-180 -217 -218 0
-180 -217 -219 0
-180 -218 -219 0
-216 -217 -218 0
-216 -217 -219 0
-216 -218 -219 0
-217 -218 -219 0
137 167 180 216 217 218 219 0
131 167 180 216 217 218 219 0
131 137 180 216 217 218 219 0
131 137 167 216 217 218 219 0
131 137 167 180 217 218 219 0
131 137 167 180 216 218 219 0
131 137 167 180 216 217 219 0
131 137 167 180 216 217 218 0
-135 -171 -220 0
-135 -171 -221 0
-135 -220 -221 0
-171 -220 -221 0
-141 -148 -181 0
-141 -148 -192 0
-141 -148 -226 0
-141 -148 -227 0
-141 -148 -228 0
-141 -148 -229 0
-141 -181 -192 0
-141 -181 -226 0
-141 -181 -227 0
-141 -181 -228 0
-141 -181 -229 0
-141 -192 -226 0
-141 -192 -227 0
-141 -192 -228 0
-141 -192 -229 0
-141 -226 -227 0
-141 -226 -228 0
-141 -226 -229 0
-141 -227 -228 0
-141 -227 -229 0
-141 -228 -229 0
-148 -181 -192 0
-148 -181 -226 0
-148 -181 -227 0
-148 -181 -228 0
-148 -181 -229 0
-148 -192 -226 0
-148 -192 -227 0
-148 -192 -228 0
-148 -192 -229 0
-148 -226 -227 0
-148 -226 -228 0
-148 -226 -229 0
-148 -227 -228 0
-148 -227 -229 0
-148 -228 -229 0
-181 -192 -226 0
-181 -192 -227 0
-181 -192 -228 0
-181 -192 -229 0
-181 -226 -227 0
-181 -226 -228 0
-181 -226 -229 0
-181 -227 -228 0
-181 -227 -229 0
-181 -228 -229 0
-192 -226 -227 0
-192 -226 -228 0
-192 -226 -229 0
-192 -227 -228 0
-192 -227 -229 0
-192 -228 -229 0
-226 -227 -228 0
-226 -227 -229 0
-226 -228 -229 0
-227 -228 -229 0
148 181 192 226 227 228 229 0
141 181 192 226 227 228 229 0
141 148 192 226 227 228 229 0
141 148 181 226 227 228 229 0
141 148 181 192 227 228 229 0
141 148 181 192 226 228 229 0
141 148 181 192 226 227 229 0
141 148 181 192 226 227 228 0
-144 -188 -224 0
-144 -188 -225 0
-144 -224 -225 0
-188 -224 -225 0
-145 -152 -182 0
-145 -152 -196 0
-145 -152 -230 0
-145 -152 -231 0
-145 -152 -232 0
-145 -152 -233 0
-145 -182 -196 0
-145 -182 -230 0
-145 -182 -231 0
-145 -182 -232 0
-145 -182 -233 0
-145 -196 -230 0
-145 -196 -231 0
-145 -196 -232 0
-145 -196 -233 0
-145 -230 -231 0
-145 -230 -232 0
-145 -230 -233 0
-145 -231 -232 0
-145 -231 -233 0
-145 -232 -233 0
-152 -182 -196 0
-152 -182 -230 0
-152 -182 -231 0
-152 -182 -232 0
-152 -182 -233 0
-152 -196 -230 0
-152 -196 -231 0
-152 -196 -232 0
-152 -196 -233 0
-152 -230 -231 0
-152 -230 -232 0
-152 -230 -233 0
-152 -231 -232 0
-152 -231 -233 0
-152 -232 -233 0
-182 -196 -230 0
-182 -196 -231 0
-182 -196 -232 0
-182 -196 -233 0
-182 -230 -231 0
-182 -230 -232 0
-182 -230 -233 0
-182 -231 -232 0
-182 -231 -233 0
-182 -232 -233 0
-196 -230 -231 0
-196 -230 -232 0
-196 -230 -233 0
-196 -231 -232 0
-196 -231 -233 0
-196 -232 -233 0
-230 -231 -232 0
-230 -231 -233 0
-230 -232 -233 0
-231 -232 -233 0
152 182 196 230 231 232 233 0
145 182 196 230 231 232 233 0
145 152 196 230 231 232 233 0
145 152 182 230 231 232 233 0
145 152 182 196 231 232 233 0
145 152 182 196 230 232 233 0
145 152 182 196 230 231 233 0
145 152 182 196 230 231 232 0
-149 -156 -185 0
-149 -156 -200 0
-149 -156 -234 0
-149 -156 -235 0
-149 -156 -236 0
-149 -156 -237 0
-149 -185 -200 0
-149 -185 -234 0
-149 -185 -235 0
-149 -185 -236 0
-149 -185 -237 0
-149 -200 -234 0
-149 -200 -235 0
-149 -200 -236 0
-149 -200 -237 0
-149 -234 -235 0
-149 -234 -236 0
-149 -234 -237 0
-149 -235 -236 0
-149 -235 -237 0
-149 -236 -237 0
-156 -185 -200 0
-156 -185 -234 0
-156 -185 -235 0
-156 -185 -236 0
-156 -185 -237 0
-156 -200 -234 0
-156 -200 -235 0
-156 -200 -236 0
-156 -200 -237 0
-156 -234 -235 0
-156 -234 -236 0
-156 -234 -237 0
-156 -235 -236 0
-156 -235 -237 0
-156 -236 -237 0
-185 -200 -234 0
-185 -200 -235 0
-185 -200 -236 0
-185 -200 -237 0
-185 -234 -235 0
-185 -234 -236 0
-185 -234 -237 0
-185 -235 -236 0
-185 -235 -237 0
-185 -236 -237 0
-200 -234 -235 0
-200 -234 -236 0
-200 -234 -237 0
-200 -235 -236 0
-200 -235 -237 0
-200 -236 -237 0
-234 -235 -236 0
-234 -235 -237 0
-234 -236 -237 0
-235 -236 -237 0
156 185 200 234 235 236 237 0
149 185 200 234 235 236 237 0
149 156 200 234 235 236 237 0
149 156 185 234 235 236 237 0
149 156 185 200 235 236 237 0
149 156 185 200 234 236 237 0
149 156 185 200 234 235 237 0
149 156 185 200 234 235 236 0
-153 -160 -189 0
-153 -160 -204 0
-153 -160 -238 0
-153 -160 -239 0
-153 -160 -240 0
-153 -160 -241 0
-153 -189 -204 0
-153 -189 -238 0
-153 -189 -239 0
-153 -189 -240 0
-153 -189 -241 0
-153 -204 -238 0
-153 -204 -239 0
-153 -204 -240 0
-153 -204 -241 0
-153 -238 -239 0
-153 -238 -240 0
-153 -238 -241 0
-153 -239 -240 0
-153 -239 -241 0
-153 -240 -241 0
-160 -189 -204 0
-160 -189 -238 0
-160 -189 -239 0
-160 -189 -240 0
-160 -189 -241 0
-160 -204 -238 0
-160 -204 -239 0
-160 -204 -240 0
-160 -204 -241 0
-160 -238 -239 0
-160 -238 -240 0
-160 -238 -241 0
-160 -239 -240 0
-160 -239 -241 0
-160 -240 -241 0
-189 -204 -238 0
-189 -204 -239 0
-189 -204 -240 0
-189 -204 -241 0
-189 -238 -239 0
-189 -238 -240 0
-189 -238 -241 0
-189 -239 -240 0
-189 -239 -241 0
-189 -240 -241 0
-204 -238 -239 0
-204 -238 -240 0
-204 -238 -241 0
-204 -239 -240 0
-204 -239 -241 0
-204 -240 -241 0
-238 -239 -240 0
-238 -239 -241 0
-238 -240 -241 0
-239 -240 -241 0
160 189 204 238 239 240 241 0
153 189 204 238 239 240 241 0
153 160 204 238 239 240 241 0
153 160 189 238 239 240 241 0
153 160 189 204 239 240 241 0
153 160 189 204 238 240 241 0
153 160 189 204 238 239 241 0
153 160 189 204 238 239 240 0
-157 -164 -193 0
-157 -164 -208 0
-157 -164 -242 0
-157 -164 -243 0
-157 -164 -244 0
-157 -164 -245 0
-157 -193 -208 0
-157 -193 -242 0
-157 -193 -243 0
-157 -193 -244 0
-157 -193 -245 0
-157 -208 -242 0
-157 -208 -243 0
-157 -208 -244 0
-157 -208 -245 0
-157 -242 -243 0
-157 -242 -244 0
-157 -242 -245 0
-157 -243 -244 0
-157 -243 -245 0
-157 -244 -245 0
-164 -193 -208 0
-164 -193 -242 0
-164 -193 -243 0
-164 -193 -244 0
-164 -193 -245 0
-164 -208 -242 0
-164 -208 -243 0
-164 -208 -244 0
-164 -208 -245 0
-164 -242 -243 0
-164 -242 -244 0
-164 -242 -245 0
-164 -243 -244 0
-164 -243 -245 0
-164 -244 -245 0
-193 -208 -242 0
-193 -208 -243 0
-193 -208 -244 0
-193 -208 -245 0
-193 -242 -243 0
-193 -242 -244 0
-193 -242 -245 0
-193 -243 -244 0
-193 -243 -245 0
-193 -244 -245 0
-208 -242 -243 0
-208 -242 -244 0
-208 -242 -245 0
-208 -243 -244 0
-208 -243 -245 0
-208 -244 -245 0
-242 -243 -244 0
-242 -243 -245 0
-242 -244 -245 0
-243 -244 -245 0
164 193 208 242 243 244 245 0
157 193 208 242 243 244 245 0
157 164 208 242 243 244 245 0
157 164 193 242 243 244 245 0
157 164 193 208 243 244 245 0
157 164 193 208 242 244 245 0
157 164 193 208 242 243 245 0
157 164 193 208 242 243 244 0
-161 -168 -197 0
-161 -168 -212 0
-161 -168 -246 0
-161 -168 -247 0
-161 -168 -248 0
-161 -168 -249 0
-161 -197 -212 0
-161 -197 -246 0
-161 -197 -247 0
-161 -197 -248 0
-161 -197 -249 0
-161 -212 -246 0
-161 -212 -247 0
-161 -212 -248 0
-161 -212 -249 0
-161 -246 -247 0
-161 -246 -248 0
-161 -246 -249 0
-161 -247 -248 0
-161 -247 -249 0
-161 -248 -249 0
-168 -197 -212 0
-168 -197 -246 0
-168 -197 -247 0
-168 -197 -248 0
-168 -197 -249 0
-168 -212 -246 0
-168 -212 -247 0
-168 -212 -248 0
-168 -212 -249 0
-168 -246 -247 0
-168 -246 -248 0
-168 -246 -249 0
-168 -247 -248 0
-168 -247 -249 0
-168 -248 -249 0
-197 -212 -246 0
-197 -212 -247 0
-197 -212 -248 0
-197 -212 -249 0
-197 -246 -247 0
-197 -246 -248 0
-197 -246 -249 0
-197 -247 -248 0
-197 -247 -249 0
-197 -248 -249 0
-212 -246 -247 0
-212 -246 -248 0
-212 -246 -249 0
-212 -247 -248 0
-212 -247 -249 0
-212 -248 -249 0
-246 -247 -248 0
-246 -247 -249 0
-246 -248 -249 0
-247 -248 -249 0
168 197 212 246 247 248 249 0
161 197 212 246 247 248 249 0
161 168 212 246 247 248 249 0
161 168 197 246 247 248 249 0
161 168 197 212 247 248 249 0
161 168 197 212 246 248 249 0
161 168 197 212 246 247 249 0
161 168 197 212 246 247 248 0
-165 -172 -201 0
-165 -172 -216 0
-165 -172 -250 0
-165 -172 -251 0
-165 -172 -252 0
-165 -172 -253 0
-165 -201 -216 0
-165 -201 -250 0
-165 -201 -251 0
-165 -201 -252 0
-165 -201 -253 0
-165 -216 -250 0
-165 -216 -251 0
-165 -216 -252 0
-165 -216 -253 0
-165 -250 -251 0
-165 -250 -252 0
-165 -250 -253 0
-165 -251 -252 0
-165 -251 -253 0
-165 -252 -253 0
-172 -201 -216 0
-172 -201 -250 0
-172 -201 -251 0
-172 -201 -252 0
-172 -201 -253 0
-172 -216 -250 0
-172 -216 -251 0
-172 -216 -252 0
-172 -216 -253 0
-172 -250 -251 0
-172 -250 -252 0
-172 -250 -253 0
-172 -251 -252 0
-172 -251 -253 0
-172 -252 -253 0
-201 -216 -250 0
-201 -216 -251 0
-201 -216 -252 0
-201 -216 -253 0
-201 -250 -251 0
-201 -250 -252 0
-201 -250 -253 0
-201 -251 -252 0
-201 -251 -253 0
-201 -252 -253 0
-216 -250 -251 0
-216 -250 -252 0
-216 -250 -253 0
-216 -251 -252 0
-216 -251 -253 0
-216 -252 -253 0
-250 -251 -252 0
-250 -251 -253 0
-250 -252 -253 0
-251 -252 -253 0
172 201 216 250 251 252 253 0
165 201 216 250 251 252 253 0
165 172 216 250 251 252 253 0
165 172 201 250 251 252 253 0
165 172 201 216 251 252 253 0
165 172 201 216 250 252 253 0
165 172 201 216 250 251 253 0
165 172 201 216 250 251 252 0
-169 -176 -205 0
-169 -176 -220 0
-169 -176 -254 0
-169 -176 -255 0
-169 -176 -256 0
-169 -176 -257 0
-169 -205 -220 0
-169 -205 -254 0
-169 -205 -255 0
-169 -205 -256 0
-169 -205 -257 0
-169 -220 -254 0
-169 -220 -255 0
-169 -220 -256 0
-169 -220 -257 0
-169 -254 -255 0
-169 -254 -256 0
-169 -254 -257 0
-169 -255 -256 0
-169 -255 -257 0
-169 -256 -257 0
-176 -205 -220 0
-176 -205 -254 0
-176 -205 -255 0
-176 -205 -256 0
-176 -205 -257 0
-176 -220 -254 0
-176 -220 -255 0
-176 -220 -256 0
-176 -220 -257 0
-176 -254 -255 0
-176 -254 -256 0
-176 -254 -257 0
-176 -255 -256 0
-176 -255 -257 0
-176 -256 -257 0
-205 -220 -254 0
-205 -220 -255 0
-205 -220 -256 0
-205 -220 -257 0
-205 -254 -255 0
-205 -254 -256 0
-205 -254 -257 0
-205 -255 -256 0
-205 -255 -257 0
-205 -256 -257 0
-220 -254 -255 0
-220 -254 -256 0
-220 -254 -257 0
-220 -255 -256 0
-220 -255 -257 0
-220 -256 -257 0
-254 -255 -256 0
-254 -255 -257 0
-254 -256 -257 0
-255 -256 -257 0
176 205 220 254 255 256 257 0
169 205 220 254 255 256 257 0
169 176 220 254 255 256 257 0
169 176 205 254 255 256 257 0
169 176 205 220 255 256 257 0
169 176 205 220 254 256 257 0
169 176 205 220 254 255 257 0
169 176 205 220 254 255 256 0
-173 -179 -209 0
-173 -179 -222 0
-173 -179 -258 0
-173 -179 -259 0
-173 -179 -260 0
-173 -179 -261 0
-173 -209 -222 0
-173 -209 -258 0
-173 -209 -259 0
-173 -209 -260 0
-173 -209 -261 0
-173 -222 -258 0
-173 -222 -259 0
-173 -222 -260 0
-173 -222 -261 0
-173 -258 -259 0
-173 -258 -260 0
-173 -258 -261 0
-173 -259 -260 0
-173 -259 -261 0
-173 -260 -261 0
-179 -209 -222 0
-179 -209 -258 0
-179 -209 -259 0
-179 -209 -260 0
-179 -209 -261 0
-179 -222 -258 0
-179 -222 -259 0
-179 -222 -260 0
-179 -222 -261 0
-179 -258 -259 0
-179 -258 -260 0
-179 -258 -261 0
-179 -259 -260 0
-179 -259 -261 0
-179 -260 -261 0
-209 -222 -258 0
-209 -222 -259 0
-209 -222 -260 0
-209 -222 -261 0
-209 -258 -259 0
-209 -258 -260 0
-209 -258 -261 0
-209 -259 -260 0
-209 -259 -261 0
-209 -260 -261 0
-222 -258 -259 0
-222 -258 -260 0
-222 -258 -261 0
-222 -259 -260 0
-222 -259 -261 0
-222 -260 -261 0
-258 -259 -260 0
-258 -259 -261 0
-258 -260 -261 0
-259 -260 -261 0
179 209 222 258 259 260 261 0
173 209 222 258 259 260 261 0
173 179 222 258 259 260 261 0
173 179 209 258 259 260 261 0
173 179 209 222 259 260 261 0
173 179 209 222 258 260 261 0
173 179 209 222 258 259 261 0
173 179 209 222 258 259 260 0
-177 -213 -262 0
-177 -213 -263 0
-177 -262 -263 0
-213 -262 -263 0
-183 -190 -223 0
-183 -190 -234 0
-183 -190 -268 0
-183 -190 -269 0
-183 -190 -270 0
-183 -190 -271 0
-183 -223 -234 0
-183 -223 -268 0
-183 -223 -269 0
-183 -223 -270 0
-183 -223 -271 0
-183 -234 -268 0
-183 -234 -269 0
-183 -234 -270 0
-183 -234 -271 0
-183 -268 -269 0
-183 -268 -270 0
-183 -268 -271 0
-183 -269 -270 0
-183 -269 -271 0
-183 -270 -271 0
-190 -223 -234 0
-190 -223 -268 0
-190 -223 -269 0
-190 -223 -270 0
-190 -223 -271 0
-190 -234 -268 0
-190 -234 -269 0
-190 -234 -270 0
-190 -234 -271 0
-190 -268 -269 0
-190 -268 -270 0
-190 -268 -271 0
-190 -269 -270 0
-190 -269 -271 0
-190 -270 -271 0
-223 -234 -268 0
-223 -234 -269 0
-223 -234 -270 0
-223 -234 -271 0
-223 -268 -269 0
-223 -268 -270 0
-223 -268 -271 0
-223 -269 -270 0
-223 -269 -271 0
-223 -270 -271 0
-234 -268 -269 0
-234 -268 -270 0
-234 -268 -271 0
-234 -269 -270 0
-234 -269 -271 0
-234 -270 -271 0
-268 -269 -270 0
-268 -269 -271 0
-268 -270 -271 0
-269 -270 -271 0
190 223 234 268 269 270 271 0
183 223 234 268 269 270 271 0
183 190 234 268 269 270 271 0
183 190 223 268 269 270 271 0
183 190 223 234 269 270 271 0
183 190 223 234 268 270 271 0
183 190 223 234 268 269 271 0
183 190 223 234 268 269 270 0
-186 -230 -266 0
-186 -230 -267 0
-186 -266 -267 0
-230 -266 -267 0
-187 -194 -224 0
-187 -194 -238 0
-187 -194 -272 0
-187 -194 -273 0
-187 -194 -274 0
-187 -194 -275 0
-187 -224 -238 0
-187 -224 -272 0
-187 -224 -273 0
-187 -224 -274 0
-187 -224 -275 0
-187 -238 -272 0
-187 -238 -273 0
-187 -238 -274 0
-187 -238 -275 0
-187 -272 -273 0
-187 -272 -274 0
-187 -272 -275 0
-187 -273 -274 0
-187 -273 -275 0
-187 -274 -275 0
-194 -224 -238 0
-194 -224 -272 0
-194 -224 -273 0
-194 -224 -274 0
-194 -224 -275 0
-194 -238 -272 0
-194 -238 -273 0
-194 -238 -274 0
-194 -238 -275 0
-194 -272 -273 0
-194 -272 -274 0
-194 -272 -275 0
-194 -273 -274 0
-194 -273 -275 0
-194 -274 -275 0
-224 -238 -272 0
-224 -238 -273 0
-224 -238 -274 0
-224 -238 -275 0
-224 -272 -273 0
-224 -272 -274 0
-224 -272 -275 0
-224 -273 -274 0
-224 -273 -275 0
-224 -274 -275 0
-238 -272 -273 0
-238 -272 -274 0
-238 -272 -275 0
-238 -273 -274 0
-238 -273 -275 0
-238 -274 -275 0
-272 -273 -274 0
-272 -273 -275 0
-272 -274 -275 0
-273 -274 -275 0
194 224 238 272 273 274 275 0
187 224 238 272 273 274 275 0
187 194 238 272 273 274 275 0
187 194 224 272 273 274 275 0
187 194 224 238 273 274 275 0
187 194 224 238 272 274 275 0
187 194 224 238 272 273 275 0
187 194 224 238 272 273 274 0
-191 -198 -227 0
-191 -198 -242 0
-191 -198 -276 0
-191 -198 -277 0
-191 -198 -278 0
-191 -198 -279 0
-191 -227 -242 0
-191 -227 -276 0
-191 -227 -277 0
-191 -227 -278 0
-191 -227 -279 0
-191 -242 -276 0
-191 -242 -277 0
-191 -242 -278 0
-191 -242 -279 0
-191 -276 -277 0
-191 -276 -278 0
-191 -276 -279 0
-191 -277 -278 0
-191 -277 -279 0
-191 -278 -279 0
-198 -227 -242 0
-198 -227 -276 0
-198 -227 -277 0
-198 -227 -278 0
-198 -227 -279 0
-198 -242 -276 0
-198 -242 -277 0
-198 -242 -278 0
-198 -242 -279 0
-198 -276 -277 0
-198 -276 -278 0
-198 -276 -279 0
-198 -277 -278 0
-198 -277 -279 0
-198 -278 -279 0
-227 -242 -276 0
-227 -242 -277 0
-227 -242 -278 0
-227 -242 -279 0
-227 -276 -277 0
-227 -276 -278 0
-227 -276 -279 0
-227 -277 -278 0
-227 -277 -279 0
-227 -278 -279 0
-242 -276 -277 0
-242 -276 -278 0
-242 -276 -279 0
-242 -277 -278 0
-242 -277 -279 0
-242 -278 -279 0
-276 -277 -278 0
-276 -277 -279 0
-276 -278 -279 0
-277 -278 -279 0
198 227 242 276 277 278 279 0
191 227 242 276 277 278 279 0
191 198 242 276 277 278 279 0
191 198 227 276 277 278 279 0
191 198 227 242 277 278 279 0
191 198 227 242 276 278 279 0
191 198 227 242 276 277 279 0
191 198 227 242 276 277 278 0
-195 -202 -231 0
-195 -202 -246 0
-195 -202 -280 0
-195 -202 -281 0
-195 -202 -282 0
-195 -202 -283 0
-195 -231 -246 0
-195 -231 -280 0
-195 -231 -281 0
-195 -231 -282 0
-195 -231 -283 0
-195 -246 -280 0
-195 -246 -281 0
-195 -246 -282 0
-195 -246 -283 0
-195 -280 -281 0
-195 -280 -282 0
-195 -280 -283 0
-195 -281 -282 0
-195 -281 -283 0
-195 -282 -283 0
-202 -231 -246 0
-202 -231 -280 0
-202 -231 -281 0
-202 -231 -282 0
-202 -231 -283 0
-202 -246 -280 0
-202 -246 -281 0
-202 -246 -282 0
-202 -246 -283 0
-202 -280 -281 0
-202 -280 -282 0
-202 -280 -283 0
-202 -281 -282 0
-202 -281 -283 0
-202 -282 -283 0
-231 -246 -280 0
-231 -246 -281 0
-231 -246 -282 0
-231 -246 -283 0
-231 -280 -281 0
-231 -280 -282 0
-231 -280 -283 0
-231 -281 -282 0
-231 -281 -283 0
-231 -282 -283 0
-246 -280 -281 0
-246 -280 -282 0
-246 -280 -283 0
-246 -281 -282 0
-246 -281 -283 0
-246 -282 -283 0
-280 -281 -282 0
-280 -281 -283 0
-280 -282 -283 0
-281 -282 -283 0
202 231 246 280 281 282 283 0
195 231 246 280 281 282 283 0
195 202 246 280 281 282 283 0
195 202 231 280 281 282 283 0
195 202 231 246 281 282 283 0
195 202 231 246 280 282 283 0
195 202 231 246 280 281 283 0
195 202 231 246 280 281 282 0
-199 -206 -235 0
-199 -206 -250 0
-199 -206 -284 0
-199 -206 -285 0
-199 -206 -286 0
-199 -206 -287 0
-199 -235 -250 0
-199 -235 -284 0
-199 -235 -285 0
-199 -235 -286 0
-199 -235 -287 0
-199 -250 -284 0
-199 -250 -285 0
-199 -250 -286 0
-199 -250 -287 0
-199 -284 -285 0
-199 -284 -286 0
-199 -284 -287 0
-199 -285 -286 0
-199 -285 -287 0
-199 -286 -287 0
-206 -235 -250 0
-206 -235 -284 0
-206 -235 -285 0
-206 -235 -286 0
-206 -235 -287 0
-206 -250 -284 0
-206 -250 -285 0
-206 -250 -286 0
-206 -250 -287 0
-206 -284 -285 0
-206 -284 -286 0
-206 -284 -287 0
-206 -285 -286 0
-206 -285 -287 0
-206 -286 -287 0
-235 -250 -284 0
-235 -250 -285 0
-235 -250 -286 0
-235 -250 -287 0
-235 -284 -285 0
-235 -284 -286 0
-235 -284 -287 0
-235 -285 -286 0
-235 -285 -287 0
-235 -286 -287 0
-250 -284 -285 0
-250 -284 -286 0
-250 -284 -287 0
-250 -285 -286 0
-250 -285 -287 0
-250 -286 -287 0
-284 -285 -286 0
-284 -285 -287 0
-284 -286 -287 0
-285 -286 -287 0
206 235 250 284 285 286 287 0
199 235 250 284 285 286 287 0
199 206 250 284 285 286 287 0
199 206 235 284 285 286 287 0
199 206 235 250 285 286 287 0
199 206 235 250 284 286 287 0
199 206 235 250 284 285 287 0
199 206 235 250 284 285 286 0
-203 -210 -239 0
-203 -210 -254 0
-203 -210 -288 0
-203 -210 -289 0
-203 -210 -290 0
-203 -210 -291 0
-203 -239 -254 0
-203 -239 -288 0
-203 -239 -289 0
-203 -239 -290 0
-203 -239 -291 0
-203 -254 -288 0
-203 -254 -289 0
-203 -254 -290 0
-203 -254 -291 0
-203 -288 -289 0
-203 -288 -290 0
-203 -288 -291 0
-203 -289 -290 0
-203 -289 -291 0
-203 -290 -291 0
-210 -239 -254 0
-210 -239 -288 0
-210 -239 -289 0
-210 -239 -290 0
-210 -239 -291 0
-210 -254 -288 0
-210 -254 -289 0
-210 -254 -290 0
-210 -254 -291 0
-210 -288 -289 0
-210 -288 -290 0
-210 -288 -291 0
-210 -289 -290 0
-210 -289 -291 0
-210 -290 -291 0
-239 -254 -288 0
-239 -254 -289 0
-239 -254 -290 0
-239 -254 -291 0
-239 -288 -289 0
-239 -288 -290 0
-239 -288 -291 0
-239 -289 -290 0
-239 -289 -291 0
-239 -290 -291 0
-254 -288 -289 0
-254 -288 -290 0
-254 -288 -291 0
-254 -289 -290 0
-254 -289 -291 0
-254 -290 -291 0
-288 -289 -290 0
-288 -289 -291 0
-288 -290 -291 0
-289 -290 -291 0
210 239 254 288 289 290 291 0
203 239 254 288 289 290 291 0
203 210 254 288 289 290 291 0
203 210 239 288 289 290 291 0
203 210 239 254 289 290 291 0
203 210 239 254 288 290 291 0
203 210 239 254 288 289 291 0
203 210 239 254 288 289 290 0
-207 -214 -243 0
-207 -214 -258 0
-207 -214 -292 0
-207 -214 -293 0
-207 -214 -294 0
-207 -214 -295 0
-207 -243 -258 0
-207 -243 -292 0
-207 -243 -293 0
-207 -243 -294 0
-207 -243 -295 0
-207 -258 -292 0
-207 -258 -293 0
-207 -258 -294 0
-207 -258 -295 0
-207 -292 -293 0
-207 -292 -294 0
-207 -292 -295 0
-207 -293 -294 0
-207 -293 -295 0
-207 -294 -295 0
-214 -243 -258 0
-214 -243 -292 0
-214 -243 -293 0
-214 -243 -294 0
-214 -243 -295 0
-214 -258 -292 0
-214 -258 -293 0
-214 -258 -294 0
-214 -258 -295 0
-214 -292 -293 0
-214 -292 -294 0
-214 -292 -295 0
-214 -293 -294 0
-214 -293 -295 0
-214 -294 -295 0
-243 -258 -292 0
-243 -258 -293 0
-243 -258 -294 0
-243 -258 -295 0
-243 -292 -293 0
-243 -292 -294 0
-243 -292 -295 0
-243 -293 -294 0
-243 -293 -295 0
-243 -294 -295 0
-258 -292 -293 0
-258 -292 -294 0
-258 -292 -295 0
-258 -293 -294 0
-258 -293 -295 0
-258 -294 -295 0
-292 -293 -294 0
-292 -293 -295 0
-292 -294 -295 0
-293 -294 -295 0
214 243 258 292 293 294 295 0
207 243 258 292 293 294 295 0
207 214 258 292 293 294 295 0
207 214 243 292 293 294 295 0
207 214 243 258 293 294 295 0
207 214 243 258 292 294 295 0
207 214 243 258 292 293 295 0
207 214 243 258 292 293 294 0
-211 -218 -247 0
-211 -218 -262 0
-211 -218 -296 0
-211 -218 -297 0
-211 -218 -298 0
-211 -218 -299 0
-211 -247 -262 0
-211 -247 -296 0
-211 -247 -297 0
-211 -247 -298 0
-211 -247 -299 0
-211 -262 -296 0
-211 -262 -297 0
-211 -262 -298 0
-211 -262 -299 0
-211 -296 -297 0
-211 -296 -298 0
-211 -296 -299 0
-211 -297 -298 0
-211 -297 -299 0
-211 -298 -299 0
-218 -247 -262 0
-218 -247 -296 0
-218 -247 -297 0
-218 -247 -298 0
-218 -247 -299 0
-218 -262 -296 0
-218 -262 -297 0
-218 -262 -298 0
-218 -262 -299 0
-218 -296 -297 0
-218 -296 -298 0
-218 -296 -299 0
-218 -297 -298 0
-218 -297 -299 0
-218 -298 -299 0
-247 -262 -296 0
-247 -262 -297 0
-247 -262 -298 0
-247 -262 -299 0
-247 -296 -297 0
-247 -296 -298 0
-247 -296 -299 0
-247 -297 -298 0
-247 -297 -299 0
-247 -298 -299 0
-262 -296 -297 0
-262 -296 -298 0
-262 -296 -299 0
-262 -297 -298 0
-262 -297 -299 0
-262 -298 -299 0
-296 -297 -298 0
-296 -297 -299 0
-296 -298 -299 0
-297 -298 -299 0
218 247 262 296 297 298 299 0
211 247 262 296 297 298 299 0
211 218 262 296 297 298 299 0
211 218 247 296 297 298 299 0
211 218 247 262 297 298 299 0
211 218 247 262 296 298 299 0
211 218 247 262 296 297 299 0
211 218 247 262 296 297 298 0
-215 -221 -251 0
-215 -221 -264 0
-215 -221 -300 0
-215 -221 -301 0
-215 -221 -302 0
-215 -221 -303 0
-215 -251 -264 0
-215 -251 -300 0
-215 -251 -301 0
-215 -251 -302 0
-215 -251 -303 0
-215 -264 -300 0
-215 -264 -301 0
-215 -264 -302 0
-215 -264 -303 0
-215 -300 -301 0
-215 -300 -302 0
-215 -300 -303 0
-215 -301 -302 0
-215 -301 -303 0
-215 -302 -303 0
-221 -251 -264 0
-221 -251 -300 0
-221 -251 -301 0
-221 -251 -302 0
-221 -251 -303 0
-221 -264 -300 0
-221 -264 -301 0
-221 -264 -302 0
-221 -264 -303 0
-221 -300 -301 0
-221 -300 -302 0
-221 -300 -303 0
-221 -301 -302 0
-221 -301 -303 0
-221 -302 -303 0
-251 -264 -300 0
-251 -264 -301 0
-251 -264 -302 0
-251 -264 -303 0
-251 -300 -301 0
-251 -300 -302 0
-251 -300 -303 0
-251 -301 -302 0
-251 -301 -303 0
-251 -302 -303 0
-264 -300 -301 0
-264 -300 -302 0
-264 -300 -303 0
-264 -301 -302 0
-264 -301 -303 0
-264 -302 -303 0
-300 -301 -302 0
-300 -301 -303 0
-300 -302 -303 0
-301 -302 -303 0
221 251 264 300 301 302 303 0
215 251 264 300 301 302 303 0
215 221 264 300 301 302 303 0
215 221 251 300 301 302 303 0
215 221 251 264 301 302 303 0
215 221 251 264 300 302 303 0
215 221 251 264 300 301 303 0
215 221 251 264 300 301 302 0
-219 -255 -304 0
-219 -255 -305 0
-219 -304 -305 0
-255 -304 -305 0
-225 -232 -265 0
-225 -232 -276 0
-225 -232 -310 0
-225 -232 -311 0
-225 -232 -312 0
-225 -232 -313 0
-225 -265 -276 0
-225 -265 -310 0
-225 -265 -311 0
-225 -265 -312 0
-225 -265 -313 0
-225 -276 -310 0
-225 -276 -311 0
-225 -276 -312 0
-225 -276 -313 0
-225 -310 -311 0
-225 -310 -312 0
-225 -310 -313 0
-225 -311 -312 0
-225 -311 -313 0
-225 -312 -313 0
-232 -265 -276 0
-232 -265 -310 0
-232 -265 -311 0
-232 -265 -312 0
-232 -265 -313 0
-232 -276 -310 0
-232 -276 -311 0
-232 -276 -312 0
-232 -276 -313 0
-232 -310 -311 0
-232 -310 -312 0
-232 -310 -313 0
-232 -311 -312 0
-232 -311 -313 0
-232 -312 -313 0
-265 -276 -310 0
-265 -276 -311 0
-265 -276 -312 0
-265 -276 -313 0
-265 -310 -311 0
-265 -310 -312 0
-265 -310 -313 0
-265 -311 -312 0
-265 -311 -313 0
-265 -312 -313 0
-276 -310 -311 0
-276 -310 -312 0
-276 -310 -313 0
-276 -311 -312 0
-276 -311 -313 0
-276 -312 -313 0
-310 -311 -312 0
-310 -311 -313 0
-310 -312 -313 0
-311 -312 -313 0
232 265 276 310 311 312 313 0
225 265 276 310 311 312 313 0
225 232 276 310 311 312 313 0
225 232 265 310 311 312 313 0
225 232 265 276 311 312 313 0
225 232 265 276 310 312 313 0
225 232 265 276 310 311 313 0
225 232 265 276 310 311 312 0
-228 -272 -308 0
-228 -272 -309 0
-228 -308 -309 0
-272 -308 -309 0
-229 -236 -266 0
-229 -236 -280 0
-229 -236 -314 0
-229 -236 -315 0
-229 -236 -316 0
-229 -236 -317 0
-229 -266 -280 0
-229 -266 -314 0
-229 -266 -315 0
-229 -266 -316 0
-229 -266 -317 0
-229 -280 -314 0
-229 -280 -315 0
-229 -280 -316 0
-229 -280 -317 0
-229 -314 -315 0
-229 -314 -316 0
-229 -314 -317 0
-229 -315 -316 0
-229 -315 -317 0
-229 -316 -317 0
-236 -266 -280 0
-236 -266 -314 0
-236 -266 -315 0
-236 -266 -316 0
-236 -266 -317 0
-236 -280 -314 0
-236 -280 -315 0
-236 -280 -316 0
-236 -280 -317 0
-236 -314 -315 0
-236 -314 -316 0
-236 -314 -317 0
-236 -315 -316 0
-236 -315 -317 0
-236 -316 -317 0
-266 -280 -314 0
-266 -280 -315 0
-266 -280 -316 0
-266 -280 -317 0
-266 -314 -315 0
-266 -314 -316 0
-266 -314 -317 0
-266 -315 -316 0
-266 -315 -317 0
-266 -316 -317 0
-280 -314 -315 0
-280 -314 -316 0
-280 -314 -317 0
-280 -315 -316 0
-280 -315 -317 0
-280 -316 -317 0
-314 -315 -316 0
-314 -315 -317 0
-314 -316 -317 0
-315 -316 -317 0
236 266 280 314 315 316 317 0
229 266 280 314 315 316 317 0
229 236 280 314 315 316 317 0
229 236 266 314 315 316 317 0
229 236 266 280 315 316 317 0
229 236 266 280 314 316 317 0
229 236 266 280 314 315 317 0
229 236 266 280 314 315 316 0
-233 -240 -269 0
-233 -240 -284 0
-233 -240 -318 0
-233 -240 -319 0
-233 -240 -320 0
-233 -240 -321 0
-233 -269 -284 0
-233 -269 -318 0
-233 -269 -319 0
-233 -269 -320 0
-233 -269 -321 0
-233 -284 -318 0
-233 -284 -319 0
-233 -284 -320 0
-233 -284 -321 0
-233 -318 -319 0
-233 -318 -320 0
-233 -318 -321 0
-233 -319 -320 0
-233 -319 -321 0
-233 -320 -321 0
-240 -269 -284 0
-240 -269 -318 0
-240 -269 -319 0
-240 -269 -320 0
-240 -269 -321 0
-240 -284 -318 0
-240 -284 -319 0
-240 -284 -320 0
-240 -284 -321 0
-240 -318 -319 0
-240 -318 -320 0
-240 -318 -321 0
-240 -319 -320 0
-240 -319 -321 0
-240 -320 -321 0
-269 -284 -318 0
-269 -284 -319 0
-269 -284 -320 0
-269 -284 -321 0
-269 -318 -319 0
-269 -318 -320 0
-269 -318 -321 0
-269 -319 -320 0
-269 -319 -321 0
-269 -320 -321 0
-284 -318 -319 0
-284 -318 -320 0
-284 -318 -321 0
-284 -319 -320 0
-284 -319 -321 0
-284 -320 -321 0
-318 -319 -320 0
-318 -319 -321 0
-318 -320 -321 0
-319 -320 -321 0
240 269 284 318 319 320 321 0
233 269 284 318 319 320 321 0
233 240 284 318 319 320 321 0
233 240 269 318 319 320 321 0
233 240 269 284 319 320 321 0
233 240 269 284 318 320 321 0
233 240 269 284 318 319 321 0
233 240 269 284 318 319 320 0
-237 -244 -273 0
-237 -244 -288 0
-237 -244 -322 0
-237 -244 -323 0
-237 -244 -324 0
-237 -244 -325 0
-237 -273 -288 0
-237 -273 -322 0
-237 -273 -323 0
-237 -273 -324 0
-237 -273 -325 0
-237 -288 -322 0
-237 -288 -323 0
-237 -288 -324 0
-237 -288 -325 0
-237 -322 -323 0
-237 -322 -324 0
-237 -322 -325 0
-237 -323 -324 0
-237 -323 -325 0
-237 -324 -325 0
-244 -273 -288 0
-244 -273 -322 0
-244 -273 -323 0
-244 -273 -324 0
-244 -273 -325 0
-244 -288 -322 0
-244 -288 -323 0
-244 -288 -324 0
-244 -288 -325 0
-244 -322 -323 0
-244 -322 -324 0
-244 -322 -325 0
-244 -323 -324 0
-244 -323 -325 0
-244 -324 -325 0
-273 -288 -322 0
-273 -288 -323 0
-273 -288 -324 0
-273 -288 -325 0
-273 -322 -323 0
-273 -322 -324 0
-273 -322 -325 0
-273 -323 -324 0
-273 -323 -325 0
-273 -324 -325 0
-288 -322 -323 0
-288 -322 -324 0
-288 -322 -325 0
-288 -323 -324 0
-288 -323 -325 0
-288 -324 -325 0
-322 -323 -324 0
-322 -323 -325 0
-322 -324 -325 0
-323 -324 -325 0
244 273 288 322 323 324 325 0
237 273 288 322 323 324 325 0
237 244 288 322 323 324 325 0
237 244 273 322 323 324 325 0
237 244 273 288 323 324 325 0
237 244 273 288 322 324 325 0
237 244 273 288 322 323 325 0
237 244 273 288 322 323 324 0
-241 -248 -277 0
-241 -248 -292 0
-241 -248 -326 0
-241 -248 -327 0
-241 -248 -328 0
-241 -248 -329 0
-241 -277 -292 0
-241 -277 -326 0
-241 -277 -327 0
-241 -277 -328 0
-241 -277 -329 0
-241 -292 -326 0
-241 -292 -327 0
-241 -292 -328 0
-241 -292 -329 0
-241 -326 -327 0
-241 -326 -328 0
-241 -326 -329 0
-241 -327 -328 0
-241 -327 -329 0
-241 -328 -329 0
-248 -277 -292 0
-248 -277 -326 0
-248 -277 -327 0
-248 -277 -328 0
-248 -277 -329 0
-248 -292 -326 0
-248 -292 -327 0
-248 -292 -328 0
-248 -292 -329 0
-248 -326 -327 0
-248 -326 -328 0
-248 -326 -329 0
-248 -327 -328 0
-248 -327 -329 0
-248 -328 -329 0
-277 -292 -326 0
-277 -292 -327 0
-277 -292 -328 0
-277 -292 -329 0
-277 -326 -327 0
-277 -326 -328 0
-277 -326 -329 0
-277 -327 -328 0
-277 -327 -329 0
-277 -328 -329 0
-292 -326 -327 0
-292 -326 -328 0
-292 -326 -329 0
-292 -327 -328 0
-292 -327 -329 0
-292 -328 -329 0
-326 -327 -328 0
-326 -327 -329 0
-326 -328 -329 0
-327 -328 -329 0
248 277 292 326 327 328 329 0
241 277 292 326 327 328 329 0
241 248 292 326 327 328 329 0
241 248 277 326 327 328 329 0
241 248 277 292 327 328 329 0
241 248 277 292 326 328 329 0
241 248 277 292 326 327 329 0
241 248 277 292 326 327 328 0
-245 -252 -281 0
-245 -252 -296 0
-245 -252 -330 0
-245 -252 -331 0
-245 -252 -332 0
-245 -252 -333 0
-245 -281 -296 0
-245 -281 -330 0
-245 -281 -331 0
-245 -281 -332 0
-245 -281 -333 0
-245 -296 -330 0
-245 -296 -331 0
-245 -296 -332 0
-245 -296 -333 0
-245 -330 -331 0
-245 -330 -332 0
-245 -330 -333 0
-245 -331 -332 0
-245 -331 -333 0
-245 -332 -333 0
-252 -281 -296 0
-252 -281 -330 0
-252 -281 -331 0
-252 -281 -332 0
-252 -281 -333 0
-252 -296 -330 0
-252 -296 -331 0
-252 -296 -332 0
-252 -296 -333 0
-252 -330 -331 0
-252 -330 -332 0
-252 -330 -333 0
-252 -331 -332 0
-252 -331 -333 0
-252 -332 -333 0
-281 -296 -330 0
-281 -296 -331 0
-281 -296 -332 0
-281 -296 -333 0
-281 -330 -331 0
-281 -330 -332 0
-281 -330 -333 0
-281 -331 -332 0
-281 -331 -333 0
-281 -332 -333 0
-296 -330 -331 0
-296 -330 -332 0
-296 -330 -333 0
-296 -331 -332 0
-296 -331 -333 0
-296 -332 -333 0
-330 -331 -332 0
-330 -331 -333 0
-330 -332 -333 0
-331 -332 -333 0
252 281 296 330 331 332 333 0
245 281 296 330 331 332 333 0
245 252 296 330 331 332 333 0
245 252 281 330 331 332 333 0
245 252 281 296 331 332 333 0
245 252 281 296 330 332 333 0
245 252 281 296 330 331 333 0
245 252 281 296 330 331 332 0
-249 -256 -285 0
-249 -256 -300 0
-249 -256 -334 0
-249 -256 -335 0
-249 -256 -336 0
-249 -256 -337 0
-249 -285 -300 0
-249 -285 -334 0
-249 -285 -335 0
-249 -285 -336 0
-249 -285 -337 0
-249 -300 -334 0
-249 -300 -335 0
-249 -300 -336 0
-249 -300 -337 0
-249 -334 -335 0
-249 -334 -336 0
-249 -334 -337 0
-249 -335 -336 0
-249 -335 -337 0
-249 -336 -337 0
-256 -285 -300 0
-256 -285 -334 0
-256 -285 -335 0
-256 -285 -336 0
-256 -285 -337 0
-256 -300 -334 0
-256 -300 -335 0
-256 -300 -336 0
-256 -300 -337 0
-256 -334 -335 0
-256 -334 -336 0
-256 -334 -337 0
-256 -335 -336 0
-256 -335 -337 0
-256 -336 -337 0
-285 -300 -334 0
-285 -300 -335 0
-285 -300 -336 0
-285 -300 -337 0
-285 -334 -335 0
-285 -334 -336 0
-285 -334 -337 0
-285 -335 -336 0
-285 -335 -337 0
-285 -336 -337 0
-300 -334 -335 0
-300 -334 -336 0
-300 -334 -337 0
-300 -335 -336 0
-300 -335 -337 0
-300 -336 -337 0
-334 -335 -336 0
-334 -335 -337 0
-334 -336 -337 0
-335 -336 -337 0
256 285 300 334 335 336 337 0
249 285 300 334 335 336 337 0
249 256 300 334 335 336 337 0
249 256 285 334 335 336 337 0
249 256 285 300 335 336 337 0
249 256 285 300 334 336 337 0
249 256 285 300 334 335 337 0
249 256 285 300 334 335 336 0
-253 -260 -289 0
-253 -260 -304 0
-253 -260 -338 0
-253 -260 -339 0
-253 -260 -340 0
-253 -260 -341 0
-253 -289 -304 0
-253 -289 -338 0
-253 -289 -339 0
-253 -289 -340 0
-253 -289 -341 0
-253 -304 -338 0
-253 -304 -339 0
-253 -304 -340 0
-253 -304 -341 0
-253 -338 -339 0
-253 -338 -340 0
-253 -338 -341 0
-253 -339 -340 0
-253 -339 -341 0
-253 -340 -341 0
-260 -289 -304 0
-260 -289 -338 0
-260 -289 -339 0
-260 -289 -340 0
-260 -289 -341 0
-260 -304 -338 0
-260 -304 -339 0
-260 -304 -340 0
-260 -304 -341 0
-260 -338 -339 0
-260 -338 -340 0
-260 -338 -341 0
-260 -339 -340 0
-260 -339 -341 0
-260 -340 -341 0
-289 -304 -338 0
-289 -304 -339 0
-289 -304 -340 0
-289 -304 -341 0
-289 -338 -339 0
-289 -338 -340 0
-289 -338 -341 0
-289 -339 -340 0
-289 -339 -341 0
-289 -340 -341 0
-304 -338 -339 0
-304 -338 -340 0
-304 -338 -341 0
-304 -339 -340 0
-304 -339 -341 0
-304 -340 -341 0
-338 -339 -340 0
-338 -339 -341 0
-338 -340 -341 0
-339 -340 -341 0
260 289 304 338 339 340 341 0
253 289 304 338 339 340 341 0
253 260 304 338 339 340 341 0
253 260 289 338 339 340 341 0
253 260 289 304 339 340 341 0
253 260 289 304 338 340 341 0
253 260 289 304 338 339 341 0
253 260 289 304 338 339 340 0
-257 -263 -293 0
-257 -263 -306 0
-257 -263 -342 0
-257 -263 -343 0
-257 -263 -344 0
-257 -263 -345 0
-257 -293 -306 0
-257 -293 -342 0
-257 -293 -343 0
-257 -293 -344 0
-257 -293 -345 0
-257 -306 -342 0
-257 -306 -343 0
-257 -306 -344 0
-257 -306 -345 0
-257 -342 -343 0
-257 -342 -344 0
-257 -342 -345 0
-257 -343 -344 0
-257 -343 -345 0
-257 -344 -345 0
-263 -293 -306 0
-263 -293 -342 0
-263 -293 -343 0
-263 -293 -344 0
-263 -293 -345 0
-263 -306 -342 0
-263 -306 -343 0
-263 -306 -344 0
-263 -306 -345 0
-263 -342 -343 0
-263 -342 -344 0
-263 -342 -345 0
-263 -343 -344 0
-263 -343 -345 0
-263 -344 -345 0
-293 -306 -342 0
-293 -306 -343 0
-293 -306 -344 0
-293 -306 -345 0
-293 -342 -343 0
-293 -342 -344 0
-293 -342 -345 0
-293 -343 -344 0
-293 -343 -345 0
-293 -344 -345 0
-306 -342 -343 0
-306 -342 -344 0
-306 -342 -345 0
-306 -343 -344 0
-306 -343 -345 0
-306 -344 -345 0
-342 -343 -344 0
-342 -343 -345 0
-342 -344 -345 0
-343 -344 -345 0
263 293 306 342 343 344 345 0
257 293 306 342 343 344 345 0
257 263 306 342 343 344 345 0
257 263 293 342 343 344 345 0
257 263 293 306 343 344 345 0
257 263 293 306 342 344 345 0
257 263 293 306 342 343 345 0
257 263 293 306 342 343 344 0
-261 -297 -346 0
-261 -297 -347 0
-261 -346 -347 0
-297 -346 -347 0
-267 -274 -307 0
-267 -274 -318 0
-267 -274 -351 0
-267 -274 -352 0
-267 -274 -353 0
-267 -274 -354 0
-267 -307 -318 0
-267 -307 -351 0
-267 -307 -352 0
-267 -307 -353 0
-267 -307 -354 0
-267 -318 -351 0
-267 -318 -352 0
-267 -318 -353 0
-267 -318 -354 0
-267 -351 -352 0
-267 -351 -353 0
-267 -351 -354 0
-267 -352 -353 0
-267 -352 -354 0
-267 -353 -354 0
-274 -307 -318 0
-274 -307 -351 0
-274 -307 -352 0
-274 -307 -353 0
-274 -307 -354 0
-274 -318 -351 0
-274 -318 -352 0
-274 -318 -353 0
-274 -318 -354 0
-274 -351 -352 0
-274 -351 -353 0
-274 -351 -354 0
-274 -352 -353 0
-274 -352 -354 0
-274 -353 -354 0
-307 -318 -351 0
-307 -318 -352 0
-307 -318 -353 0
-307 -318 -354 0
-307 -351 -352 0
-307 -351 -353 0
-307 -351 -354 0
-307 -352 -353 0
-307 -352 -354 0
-307 -353 -354 0
-318 -351 -352 0
-318 -351 -353 0
-318 -351 -354 0
-318 -352 -353 0
-318 -352 -354 0
-318 -353 -354 0
-351 -352 -353 0
-351 -352 -354 0
-351 -353 -354 0
-352 -353 -354 0
274 307 318 351 352 353 354 0
267 307 318 351 352 353 354 0
267 274 318 351 352 353 354 0
267 274 307 351 352 353 354 0
267 274 307 318 352 353 354 0
267 274 307 318 351 353 354 0
267 274 307 318 351 352 354 0
267 274 307 318 351 352 353 0
-270 -314 -350 0
-271 -278 -308 0
-271 -278 -322 0
-271 -278 -355 0
-271 -278 -356 0
-271 -278 -357 0
-271 -278 -358 0
-271 -308 -322 0
-271 -308 -355 0
-271 -308 -356 0
-271 -308 -357 0
-271 -308 -358 0
-271 -322 -355 0
-271 -322 -356 0
-271 -322 -357 0
-271 -322 -358 0
-271 -355 -356 0
-271 -355 -357 0
-271 -355 -358 0
-271 -356 -357 0
-271 -356 -358 0
-271 -357 -358 0
-278 -308 -322 0
-278 -308 -355 0
-278 -308 -356 0
-278 -308 -357 0
-278 -308 -358 0
-278 -322 -355 0
-278 -322 -356 0
-278 -322 -357 0
-278 -322 -358 0
-278 -355 -356 0
-278 -355 -357 0
-278 -355 -358 0
-278 -356 -357 0
-278 -356 -358 0
-278 -357 -358 0
-308 -322 -355 0
-308 -322 -356 0
-308 -322 -357 0
-308 -322 -358 0
-308 -355 -356 0
-308 -355 -357 0
-308 -355 -358 0
-308 -356 -357 0
-308 -356 -358 0
-308 -357 -358 0
-322 -355 -356 0
-322 -355 -357 0
-322 -355 -358 0
-322 -356 -357 0
-322 -356 -358 0
-322 -357 -358 0
-355 -356 -357 0
-355 -356 -358 0
-355 -357 -358 0
-356 -357 -358 0
278 308 322 355 356 357 358 0
271 308 322 355 356 357 358 0
271 278 322 355 356 357 358 0
271 278 308 355 356 357 358 0
271 278 308 322 356 357 358 0
271 278 308 322 355 357 358 0
271 278 308 322 355 356 358 0
271 278 308 322 355 356 357 0
-275 -282 -311 0
-275 -282 -326 0
-275 -282 -359 0
-275 -282 -360 0
-275 -282 -361 0
-275 -282 -362 0
-275 -311 -326 0
-275 -311 -359 0
-275 -311 -360 0
-275 -311 -361 0
-275 -311 -362 0
-275 -326 -359 0
-275 -326 -360 0
-275 -326 -361 0
-275 -326 -362 0
-275 -359 -360 0
-275 -359 -361 0
-275 -359 -362 0
-275 -360 -361 0
-275 -360 -362 0
-275 -361 -362 0
-282 -311 -326 0
-282 -311 -359 0
-282 -311 -360 0
-282 -311 -361 0
-282 -311 -362 0
-282 -326 -359 0
-282 -326 -360 0
-282 -326 -361 0
-282 -326 -362 0
-282 -359 -360 0
-282 -359 -361 0
-282 -359 -362 0
-282 -360 -361 0
-282 -360 -362 0
-282 -361 -362 0
-311 -326 -359 0
-311 -326 -360 0
-311 -326 -361 0
-311 -326 -362 0
-311 -359 -360 0
-311 -359 -361 0
-311 -359 -362 0
-311 -360 -361 0
-311 -360 -362 0
-311 -361 -362 0
-326 -359 -360 0
-326 -359 -361 0
-326 -359 -362 0
-326 -360 -361 0
-326 -360 -362 0
-326 -361 -362 0
-359 -360 -361 0
-359 -360 -362 0
-359 -361 -362 0
-360 -361 -362 0
282 311 326 359 360 361 362 0
275 311 326 359 360 361 362 0
275 282 326 359 360 361 362 0
275 282 311 359 360 361 362 0
275 282 311 326 360 361 362 0
275 282 311 326 359 361 362 0
275 282 311 326 359 360 362 0
275 282 311 326 359 360 361 0
-279 -286 -315 0
-279 -286 -330 0
-279 -286 -363 0
-279 -286 -364 0
-279 -286 -365 0
-279 -286 -366 0
-279 -315 -330 0
-279 -315 -363 0
-279 -315 -364 0
-279 -315 -365 0
-279 -315 -366 0
-279 -330 -363 0
-279 -330 -364 0
-279 -330 -365 0
-279 -330 -366 0
-279 -363 -364 0
-279 -363 -365 0
-279 -363 -366 0
-279 -364 -365 0
-279 -364 -366 0
-279 -365 -366 0
-286 -315 -330 0
-286 -315 -363 0
-286 -315 -364 0
-286 -315 -365 0
-286 -315 -366 0
-286 -330 -363 0
-286 -330 -364 0
-286 -330 -365 0
-286 -330 -366 0
-286 -363 -364 0
-286 -363 -365 0
-286 -363 -366 0
-286 -364 -365 0
-286 -364 -366 0
-286 -365 -366 0
-315 -330 -363 0
-315 -330 -364 0
-315 -330 -365 0
-315 -330 -366 0
-315 -363 -364 0
-315 -363 -365 0
-315 -363 -366 0
-315 -364 -365 0
-315 -364 -366 0
-315 -365 -366 0
-330 -363 -364 0
-330 -363 -365 0
-330 -363 -366 0
-330 -364 -365 0
-330 -364 -366 0
-330 -365 -366 0
-363 -364 -365 0
-363 -364 -366 0
-363 -365 -366 0
-364 -365 -366 0
286 315 330 363 364 365 366 0
279 315 330 363 364 365 366 0
279 286 330 363 364 365 366 0
279 286 315 363 364 365 366 0
279 286 315 330 364 365 366 0
279 286 315 330 363 365 366 0
279 286 315 330 363 364 366 0
279 286 315 330 363 364 365 0
-283 -290 -319 0
-283 -290 -334 0
-283 -290 -367 0
-283 -290 -368 0
-283 -290 -369 0
-283 -290 -370 0
-283 -319 -334 0
-283 -319 -367 0
-283 -319 -368 0
-283 -319 -369 0
-283 -319 -370 0
-283 -334 -367 0
-283 -334 -368 0
-283 -334 -369 0
-283 -334 -370 0
-283 -367 -368 0
-283 -367 -369 0
-283 -367 -370 0
-283 -368 -369 0
-283 -368 -370 0
-283 -369 -370 0
-290 -319 -334 0
-290 -319 -367 0
-290 -319 -368 0
-290 -319 -369 0
-290 -319 -370 0
-290 -334 -367 0
-290 -334 -368 0
-290 -334 -369 0
-290 -334 -370 0
-290 -367 -368 0
-290 -367 -369 0
-290 -367 -370 0
-290 -368 -369 0
-290 -368 -370 0
-290 -369 -370 0
-319 -334 -367 0
-319 -334 -368 0
-319 -334 -369 0
-319 -334 -370 0
-319 -367 -368 0
-319 -367 -369 0
-319 -367 -370 0
-319 -368 -369 0
-319 -368 -370 0
-319 -369 -370 0
-334 -367 -368 0
-334 -367 -369 0
-334 -367 -370 0
-334 -368 -369 0
-334 -368 -370 0
-334 -369 -370 0
-367 -368 -369 0
-367 -368 -370 0
-367 -369 -370 0
-368 -369 -370 0
290 319 334 367 368 369 370 0
283 319 334 367 368 369 370 0
283 290 334 367 368 369 370 0
283 290 319 367 368 369 370 0
283 290 319 334 368 369 370 0
283 290 319 334 367 369 370 0
283 290 319 334 367 368 370 0
283 290 319 334 367 368 369 0
-287 -294 -323 0
-287 -294 -338 0
-287 -294 -371 0
-287 -294 -372 0
-287 -294 -373 0
-287 -294 -374 0
-287 -323 -338 0
-287 -323 -371 0
-287 -323 -372 0
-287 -323 -373 0
-287 -323 -374 0
-287 -338 -371 0
-287 -338 -372 0
-287 -338 -373 0
-287 -338 -374 0
-287 -371 -372 0
-287 -371 -373 0
-287 -371 -374 0
-287 -372 -373 0
-287 -372 -374 0
-287 -373 -374 0
-294 -323 -338 0
-294 -323 -371 0
-294 -323 -372 0
-294 -323 -373 0
-294 -323 -374 0
-294 -338 -371 0
-294 -338 -372 0
-294 -338 -373 0
-294 -338 -374 0
-294 -371 -372 0
-294 -371 -373 0
-294 -371 -374 0
-294 -372 -373 0
-294 -372 -374 0
-294 -373 -374 0
-323 -338 -371 0
-323 -338 -372 0
-323 -338 -373 0
-323 -338 -374 0
-323 -371 -372 0
-323 -371 -373 0
-323 -371 -374 0
-323 -372 -373 0
-323 -372 -374 0
-323 -373 -374 0
-338 -371 -372 0
-338 -371 -373 0
-338 -371 -374 0
-338 -372 -373 0
-338 -372 -374 0
-338 -373 -374 0
-371 -372 -373 0
-371 -372 -374 0
-371 -373 -374 0
-372 -373 -374 0
294 323 338 371 372 373 374 0
287 323 338 371 372 373 374 0
287 294 338 371 372 373 374 0
287 294 323 371 372 373 374 0
287 294 323 338 372 373 374 0
287 294 323 338 371 373 374 0
287 294 323 338 371 372 374 0
287 294 323 338 371 372 373 0
-291 -298 -327 0
-291 -298 -342 0
-291 -298 -375 0
-291 -298 -376 0
-291 -298 -377 0
-291 -298 -378 0
-291 -327 -342 0
-291 -327 -375 0
-291 -327 -376 0
-291 -327 -377 0
-291 -327 -378 0
-291 -342 -375 0
-291 -342 -376 0
-291 -342 -377 0
-291 -342 -378 0
-291 -375 -376 0
-291 -375 -377 0
-291 -375 -378 0
-291 -376 -377 0
-291 -376 -378 0
-291 -377 -378 0
-298 -327 -342 0
-298 -327 -375 0
-298 -327 -376 0
-298 -327 -377 0
-298 -327 -378 0
-298 -342 -375 0
-298 -342 -376 0
-298 -342 -377 0
-298 -342 -378 0
-298 -375 -376 0
-298 -375 -377 0
-298 -375 -378 0
-298 -376 -377 0
-298 -376 -378 0
-298 -377 -378 0
-327 -342 -375 0
-327 -342 -376 0
-327 -342 -377 0
-327 -342 -378 0
-327 -375 -376 0
-327 -375 -377 0
-327 -375 -378 0
-327 -376 -377 0
-327 -376 -378 0
-327 -377 -378 0
-342 -375 -376 0
-342 -375 -377 0
-342 -375 -378 0
-342 -376 -377 0
-342 -376 -378 0
-342 -377 -378 0
-375 -376 -377 0
-375 -376 -378 0
-375 -377 -378 0
-376 -377 -378 0
298 327 342 375 376 377 378 0
291 327 342 375 376 377 378 0
291 298 342 375 376 377 378 0
291 298 327 375 376 377 378 0
291 298 327 342 376 377 378 0
291 298 327 342 375 377 378 0
291 298 327 342 375 376 378 0
291 298 327 342 375 376 377 0
-295 -302 -331 0
-295 -302 -346 0
-295 -302 -379 0
-295 -302 -380 0
-295 -302 -381 0
-295 -302 -382 0
-295 -331 -346 0
-295 -331 -379 0
-295 -331 -380 0
-295 -331 -381 0
-295 -331 -382 0
-295 -346 -379 0
-295 -346 -380 0
-295 -346 -381 0
-295 -346 -382 0
-295 -379 -380 0
-295 -379 -381 0
-295 -379 -382 0
-295 -380 -381 0
-295 -380 -382 0
-295 -381 -382 0
-302 -331 -346 0
-302 -331 -379 0
-302 -331 -380 0
-302 -331 -381 0
-302 -331 -382 0
-302 -346 -379 0
-302 -346 -380 0
-302 -346 -381 0
-302 -346 -382 0
-302 -379 -380 0
-302 -379 -381 0
-302 -379 -382 0
-302 -380 -381 0
-302 -380 -382 0
-302 -381 -382 0
-331 -346 -379 0
-331 -346 -380 0
-331 -346 -381 0
-331 -346 -382 0
-331 -379 -380 0
-331 -379 -381 0
-331 -379 -382 0
-331 -380 -381 0
-331 -380 -382 0
-331 -381 -382 0
-346 -379 -380 0
-346 -379 -381 0
-346 -379 -382 0
-346 -380 -381 0
-346 -380 -382 0
-346 -381 -382 0
-379 -380 -381 0
-379 -380 -382 0
-379 -381 -382 0
-380 -381 -382 0
302 331 346 379 380 381 382 0
295 331 346 379 380 381 382 0
295 302 346 379 380 381 382 0
295 302 331 379 380 381 382 0
295 302 331 346 380 381 382 0
295 302 331 346 379 381 382 0
295 302 331 346 379 380 382 0
295 302 331 346 379 380 381 0
-299 -305 -335 0
-299 -305 -348 0
-299 -305 -383 0
-299 -305 -384 0
-299 -305 -385 0
-299 -305 -386 0
-299 -335 -348 0
-299 -335 -383 0
-299 -335 -384 0
-299 -335 -385 0
-299 -335 -386 0
-299 -348 -383 0
-299 -348 -384 0
-299 -348 -385 0
-299 -348 -386 0
-299 -383 -384 0
-299 -383 -385 0
-299 -383 -386 0
-299 -384 -385 0
-299 -384 -386 0
-299 -385 -386 0
-305 -335 -348 0
-305 -335 -383 0
-305 -335 -384 0
-305 -335 -385 0
-305 -335 -386 0
-305 -348 -383 0
-305 -348 -384 0
-305 -348 -385 0
-305 -348 -386 0
-305 -383 -384 0
-305 -383 -385 0
-305 -383 -386 0
-305 -384 -385 0
-305 -384 -386 0
-305 -385 -386 0
-335 -348 -383 0
-335 -348 -384 0
-335 -348 -385 0
-335 -348 -386 0
-335 -383 -384 0
-335 -383 -385 0
-335 -383 -386 0
-335 -384 -385 0
-335 -384 -386 0
-335 -385 -386 0
-348 -383 -384 0
-348 -383 -385 0
-348 -383 -386 0
-348 -384 -385 0
-348 -384 -386 0
-348 -385 -386 0
-383 -384 -385 0
-383 -384 -386 0
-383 -385 -386 0
-384 -385 -386 0
305 335 348 383 384 385 386 0
299 335 348 383 384 385 386 0
299 305 348 383 384 385 386 0
299 305 335 383 384 385 386 0
299 305 335 348 384 385 386 0
299 305 335 348 383 385 386 0
299 305 335 348 383 384 386 0
299 305 335 348 383 384 385 0
-303 -339 -387 0
-309 -316 -349 0
-309 -316 -359 0
-309 -316 -389 0
-309 -316 -390 0
-309 -316 -391 0
-309 -316 -392 0
-309 -349 -359 0
-309 -349 -389 0
-309 -349 -390 0
-309 -349 -391 0
-309 -349 -392 0
-309 -359 -389 0
-309 -359 -390 0
-309 -359 -391 0
-309 -359 -392 0
-309 -389 -390 0
-309 -389 -391 0
-309 -389 -392 0
-309 -390 -391 0
-309 -390 -392 0
-309 -391 -392 0
-316 -349 -359 0
-316 -349 -389 0
-316 -349 -390 0
-316 -349 -391 0
-316 -349 -392 0
-316 -359 -389 0
-316 -359 -390 0
-316 -359 -391 0
-316 -359 -392 0
-316 -389 -390 0
-316 -389 -391 0
-316 -389 -392 0
-316 -390 -391 0
-316 -390 -392 0
-316 -391 -392 0
-349 -359 -389 0
-349 -359 -390 0
-349 -359 -391 0
-349 -359 -392 0
-349 -389 -390 0
-349 -389 -391 0
-349 -389 -392 0
-349 -390 -391 0
-349 -390 -392 0
-349 -391 -392 0
-359 -389 -390 0
-359 -389 -391 0
-359 -389 -392 0
-359 -390 -391 0
-359 -390 -392 0
-359 -391 -392 0
-389 -390 -391 0
-389 -390 -392 0
-389 -391 -392 0
-390 -391 -392 0
316 349 359 389 390 391 392 0
309 349 359 389 390 391 392 0
309 316 359 389 390 391 392 0
309 316 349 389 390 391 392 0
309 316 349 359 390 391 392 0
309 316 349 359 389 391 392 0
309 316 349 359 389 390 392 0
309 316 349 359 389 390 391 0
-313 -320 -350 0
-313 -320 -363 0
-313 -320 -393 0
-313 -320 -394 0
-313 -320 -395 0
-313 -320 -396 0
-313 -350 -363 0
-313 -350 -393 0
-313 -350 -394 0
-313 -350 -395 0
-313 -350 -396 0
-313 -363 -393 0
-313 -363 -394 0
-313 -363 -395 0
-313 -363 -396 0
-313 -393 -394 0
-313 -393 -395 0
-313 -393 -396 0
-313 -394 -395 0
-313 -394 -396 0
-313 -395 -396 0
-320 -350 -363 0
-320 -350 -393 0
-320 -350 -394 0
-320 -350 -395 0
-320 -350 -396 0
-320 -363 -393 0
-320 -363 -394 0
-320 -363 -395 0
-320 -363 -396 0
-320 -393 -394 0
-320 -393 -395 0
-320 -393 -396 0
-320 -394 -395 0
-320 -394 -396 0
-320 -395 -396 0
-350 -363 -393 0
-350 -363 -394 0
-350 -363 -395 0
-350 -363 -396 0
-350 -393 -394 0
-350 -393 -395 0
-350 -393 -396 0
-350 -394 -395 0
-350 -394 -396 0
-350 -395 -396 0
-363 -393 -394 0
-363 -393 -395 0
-363 -393 -396 0
-363 -394 -395 0
-363 -394 -396 0
-363 -395 -396 0
-393 -394 -395 0
-393 -394 -396 0
-393 -395 -396 0
-394 -395 -396 0
320 350 363 393 394 395 396 0
313 350 363 393 394 395 396 0
313 320 363 393 394 395 396 0
313 320 350 393 394 395 396 0
313 320 350 363 394 395 396 0
313 320 350 363 393 395 396 0
313 320 350 363 393 394 396 0
313 320 350 363 393 394 395 0
-317 -324 -352 0
-317 -324 -367 0
-317 -324 -397 0
-317 -324 -398 0
-317 -324 -399 0
-317 -324 -400 0
-317 -352 -367 0
-317 -352 -397 0
-317 -352 -398 0
-317 -352 -399 0
-317 -352 -400 0
-317 -367 -397 0
-317 -367 -398 0
-317 -367 -399 0
-317 -367 -400 0
-317 -397 -398 0
-317 -397 -399 0
-317 -397 -400 0
-317 -398 -399 0
-317 -398 -400 0
-317 -399 -400 0
-324 -352 -367 0
-324 -352 -397 0
-324 -352 -398 0
-324 -352 -399 0
-324 -352 -400 0
-324 -367 -397 0
-324 -367 -398 0
-324 -367 -399 0
-324 -367 -400 0
-324 -397 -398 0
-324 -397 -399 0
-324 -397 -400 0
-324 -398 -399 0
-324 -398 -400 0
-324 -399 -400 0
-352 -367 -397 0
-352 -367 -398 0
-352 -367 -399 0
-352 -367 -400 0
-352 -397 -398 0
-352 -397 -399 0
-352 -397 -400 0
-352 -398 -399 0
-352 -398 -400 0
-352 -399 -400 0
-367 -397 -398 0
-367 -397 -399 0
-367 -397 -400 0
-367 -398 -399 0
-367 -398 -400 0
-367 -399 -400 0
-397 -398 -399 0
-397 -398 -400 0
-397 -399 -400 0
-398 -399 -400 0
324 352 367 397 398 399 400 0
317 352 367 397 398 399 400 0
317 324 367 397 398 399 400 0
317 324 352 397 398 399 400 0
317 324 352 367 398 399 400 0
317 324 352 367 397 399 400 0
317 324 352 367 397 398 400 0
317 324 352 367 397 398 399 0
-321 -328 -356 0
-321 -328 -371 0
-321 -328 -401 0
-321 -328 -402 0
-321 -328 -403 0
-321 -328 -404 0
-321 -356 -371 0
-321 -356 -401 0
-321 -356 -402 0
-321 -356 -403 0
-321 -356 -404 0
-321 -371 -401 0
-321 -371 -402 0
-321 -371 -403 0
-321 -371 -404 0
-321 -401 -402 0
-321 -401 -403 0
-321 -401 -404 0
-321 -402 -403 0
-321 -402 -404 0
-321 -403 -404 0
-328 -356 -371 0
-328 -356 -401 0
-328 -356 -402 0
-328 -356 -403 0
-328 -356 -404 0
-328 -371 -401 0
-328 -371 -402 0
-328 -371 -403 0
-328 -371 -404 0
-328 -401 -402 0
-328 -401 -403 0
-328 -401 -404 0
-328 -402 -403 0
-328 -402 -404 0
-328 -403 -404 0
-356 -371 -401 0
-356 -371 -402 0
-356 -371 -403 0
-356 -371 -404 0
-356 -401 -402 0
-356 -401 -403 0
-356 -401 -404 0
-356 -402 -403 0
-356 -402 -404 0
-356 -403 -404 0
-371 -401 -402 0
-371 -401 -403 0
-371 -401 -404 0
-371 -402 -403 0
-371 -402 -404 0
-371 -403 -404 0
-401 -402 -403 0
-401 -402 -404 0
-401 -403 -404 0
-402 -403 -404 0
328 356 371 401 402 403 404 0
321 356 371 401 402 403 404 0
321 328 371 401 402 403 404 0
321 328 356 401 402 403 404 0
321 328 356 371 402 403 404 0
321 328 356 371 401 403 404 0
321 328 356 371 401 402 404 0
321 328 356 371 401 402 403 0
-325 -332 -360 0
-325 -332 -375 0
-325 -332 -405 0
-325 -332 -406 0
-325 -332 -407 0
-325 -332 -408 0
-325 -360 -375 0
-325 -360 -405 0
-325 -360 -406 0
-325 -360 -407 0
-325 -360 -408 0
-325 -375 -405 0
-325 -375 -406 0
-325 -375 -407 0
-325 -375 -408 0
-325 -405 -406 0
-325 -405 -407 0
-325 -405 -408 0
-325 -406 -407 0
-325 -406 -408 0
-325 -407 -408 0
-332 -360 -375 0
-332 -360 -405 0
-332 -360 -406 0
-332 -360 -407 0
-332 -360 -408 0
-332 -375 -405 0
-332 -375 -406 0
-332 -375 -407 0
-332 -375 -408 0
-332 -405 -406 0
-332 -405 -407 0
-332 -405 -408 0
-332 -406 -407 0
-332 -406 -408 0
-332 -407 -408 0
-360 -375 -405 0
-360 -375 -406 0
-360 -375 -407 0
-360 -375 -408 0
-360 -405 -406 0
-360 -405 -407 0
-360 -405 -408 0
-360 -406 -407 0
-360 -406 -408 0
-360 -407 -408 0
-375 -405 -406 0
-375 -405 -407 0
-375 -405 -408 0
-375 -406 -407 0
-375 -406 -408 0
-375 -407 -408 0
-405 -406 -407 0
-405 -406 -408 0
-405 -407 -408 0
-406 -407 -408 0
332 360 375 405 406 407 408 0
325 360 375 405 406 407 408 0
325 332 375 405 406 407 408 0
325 332 360 405 406 407 408 0
325 332 360 375 406 407 408 0
325 332 360 375 405 407 408 0
325 332 360 375 405 406 408 0
325 332 360 375 405 406 407 0
-329 -336 -364 0
-329 -336 -379 0
-329 -336 -409 0
-329 -336 -410 0
-329 -336 -411 0
-329 -336 -412 0
-329 -364 -379 0
-329 -364 -409 0
-329 -364 -410 0
-329 -364 -411 0
-329 -364 -412 0
-329 -379 -409 0
-329 -379 -410 0
-329 -379 -411 0
-329 -379 -412 0
-329 -409 -410 0
-329 -409 -411 0
-329 -409 -412 0
-329 -410 -411 0
-329 -410 -412 0
-329 -411 -412 0
-336 -364 -379 0
-336 -364 -409 0
-336 -364 -410 0
-336 -364 -411 0
-336 -364 -412 0
-336 -379 -409 0
-336 -379 -410 0
-336 -379 -411 0
-336 -379 -412 0
-336 -409 -410 0
-336 -409 -411 0
-336 -409 -412 0
-336 -410 -411 0
-336 -410 -412 0
-336 -411 -412 0
-364 -379 -409 0
-364 -379 -410 0
-364 -379 -411 0
-364 -379 -412 0
-364 -409 -410 0
-364 -409 -411 0
-364 -409 -412 0
-364 -410 -411 0
-364 -410 -412 0
-364 -411 -412 0
-379 -409 -410 0
-379 -409 -411 0
-379 -409 -412 0
-379 -410 -411 0
-379 -410 -412 0
-379 -411 -412 0
-409 -410 -411 0
-409 -410 -412 0
-409 -411 -412 0
-410 -411 -412 0
336 364 379 409 410 411 412 0
329 364 379 409 410 411 412 0
329 336 379 409 410 411 412 0
329 336 364 409 410 411 412 0
329 336 364 379 410 411 412 0
329 336 364 379 409 411 412 0
329 336 364 379 409 410 412 0
329 336 364 379 409 410 411 0
-333 -340 -368 0
-333 -340 -383 0
-333 -340 -413 0
-333 -340 -414 0
-333 -340 -415 0
-333 -340 -416 0
-333 -368 -383 0
-333 -368 -413 0
-333 -368 -414 0
-333 -368 -415 0
-333 -368 -416 0
-333 -383 -413 0
-333 -383 -414 0
-333 -383 -415 0
-333 -383 -416 0
-333 -413 -414 0
-333 -413 -415 0
-333 -413 -416 0
-333 -414 -415 0
-333 -414 -416 0
-333 -415 -416 0
-340 -368 -383 0
-340 -368 -413 0
-340 -368 -414 0
-340 -368 -415 0
-340 -368 -416 0
-340 -383 -413 0
-340 -383 -414 0
-340 -383 -415 0
-340 -383 -416 0
-340 -413 -414 0
-340 -413 -415 0
-340 -413 -416 0
-340 -414 -415 0
-340 -414 -416 0
-340 -415 -416 0
-368 -383 -413 0
-368 -383 -414 0
-368 -383 -415 0
-368 -383 -416 0
-368 -413 -414 0
-368 -413 -415 0
-368 -413 -416 0
-368 -414 -415 0
-368 -414 -416 0
-368 -415 -416 0
-383 -413 -414 0
-383 -413 -415 0
-383 -413 -416 0
-383 -414 -415 0
-383 -414 -416 0
-383 -415 -416 0
-413 -414 -415 0
-413 -414 -416 0
-413 -415 -416 0
-414 -415 -416 0
340 368 383 413 414 415 416 0
333 368 383 413 414 415 416 0
333 340 383 413 414 415 416 0
333 340 368 413 414 415 416 0
333 340 368 383 414 415 416 0
333 340 368 383 413 415 416 0
333 340 368 383 413 414 416 0
333 340 368 383 413 414 415 0
-337 -344 -372 0
-337 -344 -387 0
-337 -344 -417 0
-337 -344 -418 0
-337 -344 -419 0
-337 -344 -420 0
-337 -372 -387 0
-337 -372 -417 0
-337 -372 -418 0
-337 -372 -419 0
-337 -372 -420 0
-337 -387 -417 0
-337 -387 -418 0
-337 -387 -419 0
-337 -387 -420 0
-337 -417 -418 0
-337 -417 -419 0
-337 -417 -420 0
-337 -418 -419 0
-337 -418 -420 0
-337 -419 -420 0
-344 -372 -387 0
-344 -372 -417 0
-344 -372 -418 0
-344 -372 -419 0
-344 -372 -420 0
-344 -387 -417 0
-344 -387 -418 0
-344 -387 -419 0
-344 -387 -420 0
-344 -417 -418 0
-344 -417 -419 0
-344 -417 -420 0
-344 -418 -419 0
-344 -418 -420 0
-344 -419 -420 0
-372 -387 -417 0
-372 -387 -418 0
-372 -387 -419 0
-372 -387 -420 0
-372 -417 -418 0
-372 -417 -419 0
-372 -417 -420 0
-372 -418 -419 0
-372 -418 -420 0
-372 -419 -420 0
-387 -417 -418 0
-387 -417 -419 0
-387 -417 -420 0
-387 -418 -419 0
-387 -418 -420 0
-387 -419 -420 0
-417 -418 -419 0
-417 -418 -420 0
-417 -419 -420 0
-418 -419 -420 0
344 372 387 417 418 419 420 0
337 372 387 417 418 419 420 0
337 344 387 417 418 419 420 0
337 344 372 417 418 419 420 0
337 344 372 387 418 419 420 0
337 344 372 387 417 419 420 0
337 344 372 387 417 418 420 0
337 344 372 387 417 418 419 0
-341 -347 -376 0
-341 -347 -388 0
-341 -347 -421 0
-341 -347 -422 0
-341 -347 -423 0
-341 -347 -424 0
-341 -376 -388 0
-341 -376 -421 0
-341 -376 -422 0
-341 -376 -423 0
-341 -376 -424 0
-341 -388 -421 0
-341 -388 -422 0
-341 -388 -423 0
-341 -388 -424 0
-341 -421 -422 0
-341 -421 -423 0
-341 -421 -424 0
-341 -422 -423 0
-341 -422 -424 0
-341 -423 -424 0
-347 -376 -388 0
-347 -376 -421 0
-347 -376 -422 0
-347 -376 -423 0
-347 -376 -424 0
-347 -388 -421 0
-347 -388 -422 0
-347 -388 -423 0
-347 -388 -424 0
-347 -421 -422 0
-347 -421 -423 0
-347 -421 -424 0
-347 -422 -423 0
-347 -422 -424 0
-347 -423 -424 0
-376 -388 -421 0
-376 -388 -422 0
-376 -388 -423 0
-376 -388 -424 0
-376 -421 -422 0
-376 -421 -423 0
-376 -421 -424 0
-376 -422 -423 0
-376 -422 -424 0
-376 -423 -424 0
-388 -421 -422 0
-388 -421 -423 0
-388 -421 -424 0
-388 -422 -423 0
-388 -422 -424 0
-388 -423 -424 0
-421 -422 -423 0
-421 -422 -424 0
-421 -423 -424 0
-422 -423 -424 0
347 376 388 421 422 423 424 0
341 376 388 421 422 423 424 0
341 347 388 421 422 423 424 0
341 347 376 421 422 423 424 0
341 347 376 388 422 423 424 0
341 347 376 388 421 423 424 0
341 347 376 388 421 422 424 0
341 347 376 388 421 422 423 0
-354 -361 -401 0
-358 -365 -390 0
-358 -365 -405 0
-358 -390 -405 0
-365 -390 -405 0
-362 -369 -394 0
-362 -369 -409 0
-362 -394 -409 0
-369 -394 -409 0
-366 -373 -398 0
-366 -373 -413 0
-366 -398 -413 0
-373 -398 -413 0
-370 -377 -402 0
-370 -377 -417 0
-370 -402 -417 0
-377 -402 -417 0
-374 -381 -406 0
-374 -381 -421 0
-374 -406 -421 0
-381 -406 -421 0
-378 -385 -410 0
-1 -20 0
-2 -3 0
-2 -22 0
-2 -25 0
-2 -27 0
-3 -20 0
-3 -22 0
-3 -23 0
-4 -5 0
-4 -24 0
-4 -27 0
-4 -29 0
-4 -31 0
-5 -22 0
-5 -24 0
-5 -26 0
-5 -27 0
-6 -7 0
-6 -28 0
-6 -31 0
-6 -33 0
-6 -35 0
-7 -24 0
-7 -28 0
-7 -30 0
-7 -31 0
-8 -9 0
-8 -32 0
-8 -35 0
-8 -37 0
-8 -39 0
-9 -28 0
-9 -32 0
-9 -34 0
-9 -35 0
-10 -11 0
-10 -36 0
-10 -39 0
-10 -41 0
-10 -43 0
-11 -32 0
-11 -36 0
-11 -38 0
-11 -39 0
-12 -13 0
-12 -40 0
-12 -43 0
-12 -45 0
-12 -47 0
-13 -36 0
-13 -40 0
-13 -42 0
-13 -43 0
-14 -15 0
-14 -44 0
-14 -47 0
-14 -48 0
-14 -50 0
-15 -40 0
-15 -44 0
-15 -46 0
-15 -47 0
-16 -17 0
-16 -50 0
-16 -51 0
-16 -52 0
-17 -44 0
-17 -49 0
-17 -50 0
-18 -52 0
-19 -21 0
-20 -23 0
-20 -25 0
-20 -27 0
-21 -56 0
-21 -58 0
-21 -60 0
-21 -62 0
-22 -25 0
-22 -26 0
-22 -27 0
-22 -29 0
-22 -31 0
-23 -25 0
-23 -27 0
-23 -59 0
-23 -62 0
-23 -64 0
-23 -66 0
-24 -27 0
-24 -29 0
-24 -30 0
-24 -31 0
-24 -33 0
-24 -35 0
-25 -27 0
-25 -56 0
-25 -59 0
-25 -61 0
-25 -62 0
-26 -27 0
-26 -29 0
-26 -31 0
-26 -63 0
-26 -66 0
-26 -68 0
-26 -70 0
-28 -31 0
-28 -33 0
-28 -34 0
-28 -35 0
-28 -37 0
-28 -39 0
-29 -31 0
-29 -59 0
-29 -63 0
-29 -65 0
-29 -66 0
-30 -31 0
-30 -33 0
-30 -35 0
-30 -67 0
-30 -70 0
-30 -72 0
-30 -74 0
-32 -35 0
-32 -37 0
-32 -38 0
-32 -39 0
-32 -41 0
-32 -43 0
-33 -35 0
-33 -63 0
-33 -67 0
-33 -69 0
-33 -70 0
-34 -35 0
-34 -37 0
-34 -39 0
-34 -71 0
-34 -74 0
-34 -76 0
-34 -78 0
-36 -39 0
-36 -41 0
-36 -42 0
-36 -43 0
-36 -45 0
-36 -47 0
-37 -39 0
-37 -67 0
-37 -71 0
-37 -73 0
-37 -74 0
-38 -39 0
-38 -41 0
-38 -43 0
-38 -75 0
-38 -78 0
-38 -80 0
-38 -82 0
-40 -43 0
-40 -45 0
-40 -46 0
-40 -47 0
-40 -48 0
-40 -50 0
-41 -43 0
-41 -71 0
-41 -75 0
-41 -77 0
-41 -78 0
-42 -43 0
-42 -45 0
-42 -47 0
-42 -79 0
-42 -82 0
-42 -84 0
-42 -86 0
-44 -47 0
-44 -48 0
-44 -49 0
-44 -50 0
-44 -51 0
-44 -52 0
-45 -47 0
-45 -75 0
-45 -79 0
-45 -81 0
-45 -82 0
-46 -47 0
-46 -48 0
-46 -50 0
-46 -83 0
-46 -86 0
-46 -88 0
-46 -90 0
-48 -50 0
-48 -79 0
-48 -83 0
-48 -85 0
-48 -86 0
-49 -50 0
-49 -51 0
-49 -52 0
-49 -87 0
-49 -90 0
-49 -92 0
-49 -94 0
-51 -52 0
-51 -83 0
-51 -87 0
-51 -89 0
-51 -90 0
-53 -54 0
-53 -87 0
-53 -91 0
-53 -93 0
-53 -94 0
-55 -57 0
-55 -58 0
-55 -60 0
-55 -62 0
-56 -58 0
-56 -60 0
-56 -61 0
-56 -62 0
-56 -64 0
-56 -66 0
-57 -58 0
-57 -60 0
-57 -62 0
-57 -98 0
-57 -100 0
-57 -102 0
-57 -104 0
-59 -62 0
-59 -64 0
-59 -65 0
-59 -66 0
-59 -68 0
-59 -70 0
-60 -62 0
-60 -97 0
-60 -98 0
-60 -99 0
-60 -100 0
-61 -62 0
-61 -64 0
-61 -66 0
-61 -101 0
-61 -104 0
-61 -106 0
-61 -108 0
-63 -66 0
-63 -68 0
-63 -69 0
-63 -70 0
-63 -72 0
-63 -74 0
-64 -66 0
-64 -98 0
-64 -101 0
-64 -103 0
-64 -104 0
-65 -66 0
-65 -68 0
-65 -70 0
-65 -105 0
-65 -108 0
-65 -110 0
-65 -112 0
-67 -70 0
-67 -72 0
-67 -73 0
-67 -74 0
-67 -76 0
-67 -78 0
-68 -70 0
-68 -101 0
-68 -105 0
-68 -107 0
-68 -108 0
-69 -70 0
-69 -72 0
-69 -74 0
-69 -109 0
-69 -112 0
-69 -114 0
-69 -116 0
-71 -74 0
-71 -76 0
-71 -77 0
-71 -78 0
-71 -80 0
-71 -82 0
-72 -74 0
-72 -105 0
-72 -109 0
-72 -111 0
-72 -112 0
-73 -74 0
-73 -76 0
-73 -78 0
-73 -113 0
-73 -116 0
-73 -118 0
-73 -120 0
-75 -78 0
-75 -80 0
-75 -81 0
-75 -82 0
-75 -84 0
-75 -86 0
-76 -78 0
-76 -109 0
-76 -113 0
-76 -115 0
-76 -116 0
-77 -78 0
-77 -80 0
-77 -82 0
-77 -117 0
-77 -120 0
-77 -122 0
-77 -124 0
-79 -82 0
-79 -84 0
-79 -85 0
-79 -86 0
-79 -88 0
-79 -90 0
-80 -82 0
-80 -113 0
-80 -117 0
-80 -119 0
-80 -120 0
-81 -82 0
-81 -84 0
-81 -86 0
-81 -121 0
-81 -124 0
-81 -126 0
-81 -128 0
-83 -86 0
-83 -88 0
-83 -89 0
-83 -90 0
-83 -92 0
-83 -94 0
-84 -86 0
-84 -117 0
-84 -121 0
-84 -123 0
-84 -124 0
-85 -86 0
-85 -88 0
-85 -90 0
-85 -125 0
-85 -128 0
-85 -130 0
-85 -132 0
-87 -90 0
-87 -92 0
-87 -93 0
-87 -94 0
-87 -95 0
-87 -96 0
-88 -90 0
-88 -121 0
-88 -125 0
-88 -127 0
-88 -128 0
-89 -90 0
-89 -92 0
-89 -94 0
-89 -129 0
-89 -132 0
-89 -134 0
-89 -136 0
-91 -94 0
-91 -95 0
-91 -96 0
-92 -94 0
-92 -125 0
-92 -129 0
-92 -131 0
-92 -132 0
-93 -94 0
-93 -95 0
-93 -96 0
-93 -133 0
-93 -136 0
-93 -137 0
-93 -138 0
-95 -96 0
-95 -129 0
-95 -133 0
-95 -135 0
-95 -136 0
-97 -99 0
-97 -100 0
-97 -102 0
-97 -104 0
-98 -100 0
-98 -102 0
-98 -103 0
-98 -104 0
-98 -106 0
-98 -108 0
-99 -100 0
-99 -102 0
-99 -104 0
-99 -140 0
-99 -142 0
-99 -144 0
-99 -146 0
-101 -104 0
-101 -106 0
-101 -107 0
-101 -108 0
-101 -110 0
-101 -112 0
-102 -104 0
-102 -139 0
-102 -140 0
-102 -141 0
-102 -142 0
-103 -104 0
-103 -106 0
-103 -108 0
-103 -143 0
-103 -146 0
-103 -148 0
-103 -150 0
-105 -108 0
-105 -110 0
-105 -111 0
-105 -112 0
-105 -114 0
-105 -116 0
-106 -108 0
-106 -140 0
-106 -143 0
-106 -145 0
-106 -146 0
-107 -108 0
-107 -110 0
-107 -112 0
-107 -147 0
-107 -150 0
-107 -152 0
-107 -154 0
-109 -112 0
-109 -114 0
-109 -115 0
-109 -116 0
-109 -118 0
-109 -120 0
-110 -112 0
-110 -143 0
-110 -147 0
-110 -149 0
-110 -150 0
-111 -112 0
-111 -114 0
-111 -116 0
-111 -151 0
-111 -154 0
-111 -156 0
-111 -158 0
-113 -116 0
-113 -118 0
-113 -119 0
-113 -120 0
-113 -122 0
-113 -124 0
-114 -116 0
-114 -147 0
-114 -151 0
-114 -153 0
-114 -154 0
-115 -116 0
-115 -118 0
-115 -120 0
-115 -155 0
-115 -158 0
-115 -160 0
-115 -162 0
-117 -120 0
-117 -122 0
-117 -123 0
-117 -124 0
-117 -126 0
-117 -128 0
-118 -120 0
-118 -151 0
-118 -155 0
-118 -157 0
-118 -158 0
-119 -120 0
-119 -122 0
-119 -124 0
-119 -159 0
-119 -162 0
-119 -164 0
-119 -166 0
-121 -124 0
-121 -126 0
-121 -127 0
-121 -128 0
-121 -130 0
-121 -132 0
-122 -124 0
-122 -155 0
-122 -159 0
-122 -161 0
-122 -162 0
-123 -124 0
-123 -126 0
-123 -128 0
-123 -163 0
-123 -166 0
-123 -168 0
-123 -170 0
-125 -128 0
-125 -130 0
-125 -131 0
-125 -132 0
-125 -134 0
-125 -136 0
-126 -128 0
-126 -159 0
-126 -163 0
-126 -165 0
-126 -166 0
-127 -128 0
-127 -130 0
-127 -132 0
-127 -167 0
-127 -170 0
-127 -172 0
-127 -174 0
-129 -132 0
-129 -134 0
-129 -135 0
-129 -136 0
-129 -137 0
-129 -138 0
-130 -132 0
-130 -163 0
-130 -167 0
-130 -169 0
-130 -170 0
-131 -132 0
-131 -134 0
-131 -136 0
-131 -171 0
-131 -174 0
-131 -176 0
-131 -178 0
-133 -136 0
-133 -137 0
-133 -138 0
-134 -136 0
-134 -167 0
-134 -171 0
-134 -173 0
-134 -174 0
-135 -136 0
-135 -137 0
-135 -138 0
-135 -175 0
-135 -178 0
-135 -179 0
-135 -180 0
-137 -138 0
-137 -171 0
-137 -175 0
-137 -177 0
-137 -178 0
-139 -141 0
-139 -142 0
-139 -144 0
-139 -146 0
-140 -142 0
-140 -144 0
-140 -145 0
-140 -146 0
-140 -148 0
-140 -150 0
-141 -142 0
-141 -144 0
-141 -146 0
-141 -182 0
-141 -184 0
-141 -186 0
-141 -188 0
-143 -146 0
-143 -148 0
-143 -149 0
-143 -150 0
-143 -152 0
-143 -154 0
-144 -146 0
-144 -181 0
-144 -182 0
-144 -183 0
-144 -184 0
-145 -146 0
-145 -148 0
-145 -150 0
-145 -185 0
-145 -188 0
-145 -190 0
-145 -192 0
-147 -150 0
-147 -152 0
-147 -153 0
-147 -154 0
-147 -156 0
-147 -158 0
-148 -150 0
-148 -182 0
-148 -185 0
-148 -187 0
-148 -188 0
-149 -150 0
-149 -152 0
-149 -154 0
-149 -189 0
-149 -192 0
-149 -194 0
-149 -196 0
-151 -154 0
-151 -156 0
-151 -157 0
-151 -158 0
-151 -160 0
-151 -162 0
-152 -154 0
-152 -185 0
-152 -189 0
-152 -191 0
-152 -192 0
-153 -154 0
-153 -156 0
-153 -158 0
-153 -193 0
-153 -196 0
-153 -198 0
-153 -200 0
-155 -158 0
-155 -160 0
-155 -161 0
-155 -162 0
-155 -164 0
-155 -166 0
-156 -158 0
-156 -189 0
-156 -193 0
-156 -195 0
-156 -196 0
-157 -158 0
-157 -160 0
-157 -162 0
-157 -197 0
-157 -200 0
-157 -202 0
-157 -204 0
-159 -162 0
-159 -164 0
-159 -165 0
-159 -166 0
-159 -168 0
-159 -170 0
-160 -162 0
-160 -193 0
-160 -197 0
-160 -199 0
-160 -200 0
-161 -162 0
-161 -164 0
-161 -166 0
-161 -201 0
-161 -204 0
-161 -206 0
-161 -208 0
-163 -166 0
-163 -168 0
-163 -169 0
-163 -170 0
-163 -172 0
-163 -174 0
-164 -166 0
-164 -197 0
-164 -201 0
-164 -203 0
-164 -204 0
-165 -166 0
-165 -168 0
-165 -170 0
-165 -205 0
-165 -208 0
-165 -210 0
-165 -212 0
-167 -170 0
-167 -172 0
-167 -173 0
-167 -174 0
-167 -176 0
-167 -178 0
-168 -170 0
-168 -201 0
-168 -205 0
-168 -207 0
-168 -208 0
-169 -170 0
-169 -172 0
-169 -174 0
-169 -209 0
-169 -212 0
-169 -214 0
-169 -216 0
-171 -174 0
-171 -176 0
-171 -177 0
-171 -178 0
-171 -179 0
-171 -180 0
-172 -174 0
-172 -205 0
-172 -209 0
-172 -211 0
-172 -212 0
-173 -174 0
-173 -176 0
-173 -178 0
-173 -213 0
-173 -216 0
-173 -218 0
-173 -220 0
-175 -178 0
-175 -179 0
-175 -180 0
-176 -178 0
-176 -209 0
-176 -213 0
-176 -215 0
-176 -216 0
-177 -178 0
-177 -179 0
-177 -180 0
-177 -217 0
-177 -220 0
-177 -221 0
-177 -222 0
-179 -180 0
-179 -213 0
-179 -217 0
-179 -219 0
-179 -220 0
-181 -183 0
-181 -184 0
-181 -186 0
-181 -188 0
-182 -184 0
-182 -186 0
-182 -187 0
-182 -188 0
-182 -190 0
-182 -192 0
-183 -184 0
-183 -186 0
-183 -188 0
-183 -224 0
-183 -226 0
-183 -228 0
-183 -230 0
-185 -188 0
-185 -190 0
-185 -191 0
-185 -192 0
-185 -194 0
-185 -196 0
-186 -188 0
-186 -223 0
-186 -224 0
-186 -225 0
-186 -226 0
-187 -188 0
-187 -190 0
-187 -192 0
-187 -227 0
-187 -230 0
-187 -232 0
-187 -234 0
-189 -192 0
-189 -194 0
-189 -195 0
-189 -196 0
-189 -198 0
-189 -200 0
-190 -192 0
-190 -224 0
-190 -227 0
-190 -229 0
-190 -230 0
-191 -192 0
-191 -194 0
-191 -196 0
-191 -231 0
-191 -234 0
-191 -236 0
-191 -238 0
-193 -196 0
-193 -198 0
-193 -199 0
-193 -200 0
-193 -202 0
-193 -204 0
-194 -196 0
-194 -227 0
-194 -231 0
-194 -233 0
-194 -234 0
-195 -196 0
-195 -198 0
-195 -200 0
-195 -235 0
-195 -238 0
-195 -240 0
-195 -242 0
-197 -200 0
-197 -202 0
-197 -203 0
-197 -204 0
-197 -206 0
-197 -208 0
-198 -200 0
-198 -231 0
-198 -235 0
-198 -237 0
-198 -238 0
-199 -200 0
-199 -202 0
-199 -204 0
-199 -239 0
-199 -242 0
-199 -244 0
-199 -246 0
-201 -204 0
-201 -206 0
-201 -207 0
-201 -208 0
-201 -210 0
-201 -212 0
-202 -204 0
-202 -235 0
-202 -239 0
-202 -241 0
-202 -242 0
-203 -204 0
-203 -206 0
-203 -208 0
-203 -243 0
-203 -246 0
-203 -248 0
-203 -250 0
-205 -208 0
-205 -210 0
-205 -211 0
-205 -212 0
-205 -214 0
-205 -216 0
-206 -208 0
-206 -239 0
-206 -243 0
-206 -245 0
-206 -246 0
-207 -208 0
-207 -210 0
-207 -212 0
-207 -247 0
-207 -250 0
-207 -252 0
-207 -254 0
-209 -212 0
-209 -214 0
-209 -215 0
-209 -216 0
-209 -218 0
-209 -220 0
-210 -212 0
-210 -243 0
-210 -247 0
-210 -249 0
-210 -250 0
-211 -212 0
-211 -214 0
-211 -216 0
-211 -251 0
-211 -254 0
-211 -256 0
-211 -258 0
-213 -216 0
-213 -218 0
-213 -219 0
-213 -220 0
-213 -221 0
-213 -222 0
-214 -216 0
-214 -247 0
-214 -251 0
-214 -253 0
-214 -254 0
-215 -216 0
-215 -218 0
-215 -220 0
-215 -255 0
-215 -258 0
-215 -260 0
-215 -262 0
-217 -220 0
-217 -221 0
-217 -222 0
-218 -220 0
-218 -251 0
-218 -255 0
-218 -257 0
-218 -258 0
-219 -220 0
-219 -221 0
-219 -222 0
-219 -259 0
-219 -262 0
-219 -263 0
-219 -264 0
-221 -222 0
-221 -255 0
-221 -259 0
-221 -261 0
-221 -262 0
-223 -225 0
-223 -226 0
-223 -228 0
-223 -230 0
-224 -226 0
-224 -228 0
-224 -229 0
-224 -230 0
-224 -232 0
-224 -234 0
-225 -226 0
-225 -228 0
-225 -230 0
-225 -266 0
-225 -268 0
-225 -270 0
-225 -272 0
-227 -230 0
-227 -232 0
-227 -233 0
-227 -234 0
-227 -236 0
-227 -238 0
-228 -230 0
-228 -265 0
-228 -266 0
-228 -267 0
-228 -268 0
-229 -230 0
-229 -232 0
-229 -234 0
-229 -269 0
-229 -272 0
-229 -274 0
-229 -276 0
-231 -234 0
-231 -236 0
-231 -237 0
-231 -238 0
-231 -240 0
-231 -242 0
-232 -234 0
-232 -266 0
-232 -269 0
-232 -271 0
-232 -272 0
-233 -234 0
-233 -236 0
-233 -238 0
-233 -273 0
-233 -276 0
-233 -278 0
-233 -280 0
-235 -238 0
-235 -240 0
-235 -241 0
-235 -242 0
-235 -244 0
-235 -246 0
-236 -238 0
-236 -269 0
-236 -273 0
-236 -275 0
-236 -276 0
-237 -238 0
-237 -240 0
-237 -242 0
-237 -277 0
-237 -280 0
-237 -282 0
-237 -284 0
-239 -242 0
-239 -244 0
-239 -245 0
-239 -246 0
-239 -248 0
-239 -250 0
-240 -242 0
-240 -273 0
-240 -277 0
-240 -279 0
-240 -280 0
-241 -242 0
-241 -244 0
-241 -246 0
-241 -281 0
-241 -284 0
-241 -286 0
-241 -288 0
-243 -246 0
-243 -248 0
-243 -249 0
-243 -250 0
-243 -252 0
-243 -254 0
-244 -246 0
-244 -277 0
-244 -281 0
-244 -283 0
-244 -284 0
-245 -246 0
-245 -248 0
-245 -250 0
-245 -285 0
-245 -288 0
-245 -290 0
-245 -292 0
-247 -250 0
-247 -252 0
-247 -253 0
-247 -254 0
-247 -256 0
-247 -258 0
-248 -250 0
-248 -281 0
-248 -285 0
-248 -287 0
-248 -288 0
-249 -250 0
-249 -252 0
-249 -254 0
-249 -289 0
-249 -292 0
-249 -294 0
-249 -296 0
-251 -254 0
-251 -256 0
-251 -257 0
-251 -258 0
-251 -260 0
-251 -262 0
-252 -254 0
-252 -285 0
-252 -289 0
-252 -291 0
-252 -292 0
-253 -254 0
-253 -256 0
-253 -258 0
-253 -293 0
-253 -296 0
-253 -298 0
-253 -300 0
-255 -258 0
-255 -260 0
-255 -261 0
-255 -262 0
-255 -263 0
-255 -264 0
-256 -258 0
-256 -289 0
-256 -293 0
-256 -295 0
-256 -296 0
-257 -258 0
-257 -260 0
-257 -262 0
-257 -297 0
-257 -300 0
-257 -302 0
-257 -304 0
-259 -262 0
-259 -263 0
-259 -264 0
-260 -262 0
-260 -293 0
-260 -297 0
-260 -299 0
-260 -300 0
-261 -262 0
-261 -263 0
-261 -264 0
-261 -301 0
-261 -304 0
-261 -305 0
-261 -306 0
-263 -264 0
-263 -297 0
-263 -301 0
-263 -303 0
-263 -304 0
-265 -267 0
-265 -268 0
-265 -270 0
-265 -272 0
-266 -268 0
-266 -270 0
-266 -271 0
-266 -272 0
-266 -274 0
-266 -276 0
-267 -268 0
-267 -270 0
-267 -272 0
-267 -308 0
-267 -310 0
-267 -312 0
-267 -314 0
-269 -272 0
-269 -274 0
-269 -275 0
-269 -276 0
-269 -278 0
-269 -280 0
-270 -272 0
-270 -307 0
-270 -308 0
-270 -309 0
-270 -310 0
-271 -272 0
-271 -274 0
-271 -276 0
-271 -311 0
-271 -314 0
-271 -316 0
-271 -318 0
-273 -276 0
-273 -278 0
-273 -279 0
-273 -280 0
-273 -282 0
-273 -284 0
-274 -276 0
-274 -308 0
-274 -311 0
-274 -313 0
-274 -314 0
-275 -276 0
-275 -278 0
-275 -280 0
-275 -315 0
-275 -318 0
-275 -320 0
-275 -322 0
-277 -280 0
-277 -282 0
-277 -283 0
-277 -284 0
-277 -286 0
-277 -288 0
-278 -280 0
-278 -311 0
-278 -315 0
-278 -317 0
-278 -318 0
-279 -280 0
-279 -282 0
-279 -284 0
-279 -319 0
-279 -322 0
-279 -324 0
-279 -326 0
-281 -284 0
-281 -286 0
-281 -287 0
-281 -288 0
-281 -290 0
-281 -292 0
-282 -284 0
-282 -315 0
-282 -319 0
-282 -321 0
-282 -322 0
-283 -284 0
-283 -286 0
-283 -288 0
-283 -323 0
-283 -326 0
-283 -328 0
-283 -330 0
-285 -288 0
-285 -290 0
-285 -291 0
-285 -292 0
-285 -294 0
-285 -296 0
-286 -288 0
-286 -319 0
-286 -323 0
-286 -325 0
-286 -326 0
-287 -288 0
-287 -290 0
-287 -292 0
-287 -327 0
-287 -330 0
-287 -332 0
-287 -334 0
-289 -292 0
-289 -294 0
-289 -295 0
-289 -296 0
-289 -298 0
-289 -300 0
-290 -292 0
-290 -323 0
-290 -327 0
-290 -329 0
-290 -330 0
-291 -292 0
-291 -294 0
-291 -296 0
-291 -331 0
-291 -334 0
-291 -336 0
-291 -338 0
-293 -296 0
-293 -298 0
-293 -299 0
-293 -300 0
-293 -302 0
-293 -304 0
-294 -296 0
-294 -327 0
-294 -331 0
-294 -333 0
-294 -334 0
-295 -296 0
-295 -298 0
-295 -300 0
-295 -335 0
-295 -338 0
-295 -340 0
-295 -342 0
-297 -300 0
-297 -302 0
-297 -303 0
-297 -304 0
-297 -305 0
-297 -306 0
-298 -300 0
-298 -331 0
-298 -335 0
-298 -337 0
-298 -338 0
-299 -300 0
-299 -302 0
-299 -304 0
-299 -339 0
-299 -342 0
-299 -344 0
-299 -346 0
-301 -304 0
-301 -305 0
-301 -306 0
-302 -304 0
-302 -335 0
-302 -339 0
-302 -341 0
-302 -342 0
-303 -304 0
-303 -305 0
-303 -306 0
-303 -343 0
-303 -346 0
-303 -347 0
-303 -348 0
-305 -306 0
-305 -339 0
-305 -343 0
-305 -345 0
-305 -346 0
-307 -309 0
-307 -310 0
-307 -312 0
-307 -314 0
-308 -310 0
-308 -312 0
-308 -313 0
-308 -314 0
-308 -316 0
-308 -318 0
-309 -310 0
-309 -312 0
-309 -314 0
-309 -350 0
-309 -351 0
-309 -353 0
-309 -355 0
-311 -314 0
-311 -316 0
-311 -317 0
-311 -318 0
-311 -320 0
-311 -322 0
-312 -314 0
-312 -349 0
-312 -350 0
-312 -351 0
-313 -314 0
-313 -316 0
-313 -318 0
-313 -352 0
-313 -355 0
-313 -357 0
-313 -359 0
-315 -318 0
-315 -320 0
-315 -321 0
-315 -322 0
-315 -324 0
-315 -326 0
-316 -318 0
-316 -350 0
-316 -352 0
-316 -354 0
-316 -355 0
-317 -318 0
-317 -320 0
-317 -322 0
-317 -356 0
-317 -359 0
-317 -361 0
-317 -363 0
-319 -322 0
-319 -324 0
-319 -325 0
-319 -326 0
-319 -328 0
-319 -330 0
-320 -322 0
-320 -352 0
-320 -356 0
-320 -358 0
-320 -359 0
-321 -322 0
-321 -324 0
-321 -326 0
-321 -360 0
-321 -363 0
-321 -365 0
-321 -367 0
-323 -326 0
-323 -328 0
-323 -329 0
-323 -330 0
-323 -332 0
-323 -334 0
-324 -326 0
-324 -356 0
-324 -360 0
-324 -362 0
-324 -363 0
-325 -326 0
-325 -328 0
-325 -330 0
-325 -364 0
-325 -367 0
-325 -369 0
-325 -371 0
-327 -330 0
-327 -332 0
-327 -333 0
-327 -334 0
-327 -336 0
-327 -338 0
-328 -330 0
-328 -360 0
-328 -364 0
-328 -366 0
-328 -367 0
-329 -330 0
-329 -332 0
-329 -334 0
-329 -368 0
-329 -371 0
-329 -373 0
-329 -375 0
-331 -334 0
-331 -336 0
-331 -337 0
-331 -338 0
-331 -340 0
-331 -342 0
-332 -334 0
-332 -364 0
-332 -368 0
-332 -370 0
-332 -371 0
-333 -334 0
-333 -336 0
-333 -338 0
-333 -372 0
-333 -375 0
-333 -377 0
-333 -379 0
-335 -338 0
-335 -340 0
-335 -341 0
-335 -342 0
-335 -344 0
-335 -346 0
-336 -338 0
-336 -368 0
-336 -372 0
-336 -374 0
-336 -375 0
-337 -338 0
-337 -340 0
-337 -342 0
-337 -376 0
-337 -379 0
-337 -381 0
-337 -383 0
-339 -342 0
-339 -344 0
-339 -345 0
-339 -346 0
-339 -347 0
-339 -348 0
-340 -342 0
-340 -372 0
-340 -376 0
-340 -378 0
-340 -379 0
-341 -342 0
-341 -344 0
-341 -346 0
-341 -380 0
-341 -383 0
-341 -385 0
-341 -387 0
-343 -346 0
-343 -347 0
-343 -348 0
-344 -346 0
-344 -376 0
-344 -380 0
-344 -382 0
-344 -383 0
-345 -346 0
-345 -347 0
-345 -348 0
-345 -384 0
-345 -387 0
-345 -388 0
-347 -348 0
-347 -380 0
-347 -384 0
-347 -386 0
-347 -387 0
-349 -351 0
-349 -353 0
-349 -355 0
-350 -351 0
-350 -353 0
-350 -354 0
-350 -355 0
-350 -357 0
-350 -359 0
-352 -355 0
-352 -357 0
-352 -358 0
-352 -359 0
-352 -361 0
-352 -363 0
-353 -355 0
-353 -389 0
-354 -355 0
-354 -357 0
-354 -359 0
-354 -390 0
-354 -393 0
-354 -395 0
-354 -397 0
-356 -359 0
-356 -361 0
-356 -362 0
-356 -363 0
-356 -365 0
-356 -367 0
-357 -359 0
-357 -390 0
-357 -392 0
-357 -393 0
-358 -359 0
-358 -361 0
-358 -363 0
-358 -394 0
-358 -397 0
-358 -399 0
-358 -401 0
-360 -363 0
-360 -365 0
-360 -366 0
-360 -367 0
-360 -369 0
-360 -371 0
-361 -363 0
-361 -390 0
-361 -394 0
-361 -396 0
-361 -397 0
-362 -363 0
-362 -365 0
-362 -367 0
-362 -398 0
-362 -401 0
-362 -403 0
-362 -405 0
-364 -367 0
-364 -369 0
-364 -370 0
-364 -371 0
-364 -373 0
-364 -375 0
-365 -367 0
-365 -394 0
-365 -398 0
-365 -400 0
-365 -401 0
-366 -367 0
-366 -369 0
-366 -371 0
-366 -402 0
-366 -405 0
-366 -407 0
-366 -409 0
-368 -371 0
-368 -373 0
-368 -374 0
-368 -375 0
-368 -377 0
-368 -379 0
-369 -371 0
-369 -398 0
-369 -402 0
-369 -404 0
-369 -405 0
-370 -371 0
-370 -373 0
-370 -375 0
-370 -406 0
-370 -409 0
-370 -411 0
-370 -413 0
-372 -375 0
-372 -377 0
-372 -378 0
-372 -379 0
-372 -381 0
-372 -383 0
-373 -375 0
-373 -402 0
-373 -406 0
-373 -408 0
-373 -409 0
-374 -375 0
-374 -377 0
-374 -379 0
-374 -410 0
-374 -413 0
-374 -415 0
-374 -417 0
-376 -379 0
-376 -381 0
-376 -382 0
-376 -383 0
-376 -385 0
-376 -387 0
-377 -379 0
-377 -406 0
-377 -410 0
-377 -412 0
-377 -413 0
-378 -379 0
-378 -381 0
-378 -383 0
-378 -414 0
-378 -417 0
-378 -419 0
-378 -421 0
-380 -383 0
-380 -385 0
-380 -386 0
-380 -387 0
-380 -388 0
-381 -383 0
-381 -410 0
-381 -414 0
-381 -416 0
-381 -417 0
-382 -383 0
-382 -385 0
-382 -387 0
-382 -418 0
-382 -421 0
-382 -423 0
-384 -387 0
-384 -388 0
-385 -387 0
-385 -414 0
-385 -418 0
-385 -420 0
-385 -421 0
-386 -387 0
-386 -388 0
-386 -422 0
-390 -393 0
-390 -395 0
-390 -396 0
-390 -397 0
-390 -399 0
-390 -401 0
-391 -393 0
-392 -393 0
-392 -395 0
-392 -397 0
-394 -397 0
-394 -399 0
-394 -400 0
-394 -401 0
-394 -403 0
-394 -405 0
-395 -397 0
-396 -397 0
-396 -399 0
-396 -401 0
-398 -401 0
-398 -403 0
-398 -404 0
-398 -405 0
-398 -407 0
-398 -409 0
-399 -401 0
-400 -401 0
-400 -403 0
-400 -405 0
-402 -405 0
-402 -407 0
-402 -408 0
-402 -409 0
-402 -411 0
-402 -413 0
-403 -405 0
-404 -405 0
-404 -407 0
-404 -409 0
-406 -409 0
-406 -411 0
-406 -412 0
-406 -413 0
-406 -415 0
-406 -417 0
-407 -409 0
-408 -409 0
-408 -411 0
-408 -413 0
-410 -413 0
-410 -415 0
-410 -416 0
-410 -417 0
-410 -419 0
-410 -421 0
-411 -413 0
-412 -413 0
-412 -415 0
-412 -417 0
-414 -417 0
-414 -419 0
-414 -420 0
-414 -421 0
-414 -423 0
-415 -417 0
-416 -417 0
-416 -419 0
-416 -421 0
-418 -421 0
-418 -423 0
-418 -424 0
-419 -421 0
-420 -421 0
-420 -423 0
-203 0
-248 0
-243 0
-250 0
