p cnf 208 3140
-1 -3 -13 0
-1 -3 -21 0
-1 -3 -40 0
-1 -3 -41 0
-1 -3 -42 0
-1 -3 -43 0
-1 -13 -21 0
-1 -13 -40 0
-1 -13 -41 0
-1 -13 -42 0
-1 -13 -43 0
-1 -21 -40 0
-1 -21 -41 0
-1 -21 -42 0
-1 -21 -43 0
-1 -40 -41 0
-1 -40 -42 0
-1 -40 -43 0
-1 -41 -42 0
-1 -41 -43 0
-1 -42 -43 0
-3 -13 -21 0
-3 -13 -40 0
-3 -13 -41 0
-3 -13 -42 0
-3 -13 -43 0
-3 -21 -40 0
-3 -21 -41 0
-3 -21 -42 0
-3 -21 -43 0
-3 -40 -41 0
-3 -40 -42 0
-3 -40 -43 0
-3 -41 -42 0
-3 -41 -43 0
-3 -42 -43 0
-13 -21 -40 0
-13 -21 -41 0
-13 -21 -42 0
-13 -21 -43 0
-13 -40 -41 0
-13 -40 -42 0
-13 -40 -43 0
-13 -41 -42 0
-13 -41 -43 0
-13 -42 -43 0
-21 -40 -41 0
-21 -40 -42 0
-21 -40 -43 0
-21 -41 -42 0
-21 -41 -43 0
-21 -42 -43 0
-40 -41 -42 0
-40 -41 -43 0
-40 -42 -43 0
-41 -42 -43 0
3 13 21 40 41 42 43 0
1 13 21 40 41 42 43 0
1 3 21 40 41 42 43 0
1 3 13 40 41 42 43 0
1 3 13 21 41 42 43 0
1 3 13 21 40 42 43 0
1 3 13 21 40 41 43 0
1 3 13 21 40 41 42 0
-2 -5 -14 0
-2 -5 -25 0
-2 -5 -44 0
-2 -5 -45 0
-2 -5 -46 0
-2 -5 -47 0
-2 -14 -25 0
-2 -14 -44 0
-2 -14 -45 0
-2 -14 -46 0
-2 -14 -47 0
-2 -25 -44 0
-2 -25 -45 0
-2 -25 -46 0
-2 -25 -47 0
-2 -44 -45 0
-2 -44 -46 0
-2 -44 -47 0
-2 -45 -46 0
-2 -45 -47 0
-2 -46 -47 0
-5 -14 -25 0
-5 -14 -44 0
-5 -14 -45 0
-5 -14 -46 0
-5 -14 -47 0
-5 -25 -44 0
-5 -25 -45 0
-5 -25 -46 0
-5 -25 -47 0
-5 -44 -45 0
-5 -44 -46 0
-5 -44 -47 0
-5 -45 -46 0
-5 -45 -47 0
-5 -46 -47 0
-14 -25 -44 0
-14 -25 -45 0
-14 -25 -46 0
-14 -25 -47 0
-14 -44 -45 0
-14 -44 -46 0
-14 -44 -47 0
-14 -45 -46 0
-14 -45 -47 0
-14 -46 -47 0
-25 -44 -45 0
-25 -44 -46 0
-25 -44 -47 0
-25 -45 -46 0
-25 -45 -47 0
-25 -46 -47 0
-44 -45 -46 0
-44 -45 -47 0
-44 -46 -47 0
-45 -46 -47 0
5 14 25 44 45 46 47 0
2 14 25 44 45 46 47 0
2 5 25 44 45 46 47 0
2 5 14 44 45 46 47 0
2 5 14 25 45 46 47 0
2 5 14 25 44 46 47 0
2 5 14 25 44 45 47 0
2 5 14 25 44 45 46 0
-4 -7 -16 0
-4 -7 -29 0
-4 -7 -48 0
-4 -7 -49 0
-4 -7 -50 0
-4 -7 -51 0
-4 -16 -29 0
-4 -16 -48 0
-4 -16 -49 0
-4 -16 -50 0
-4 -16 -51 0
-4 -29 -48 0
-4 -29 -49 0
-4 -29 -50 0
-4 -29 -51 0
-4 -48 -49 0
-4 -48 -50 0
-4 -48 -51 0
-4 -49 -50 0
-4 -49 -51 0
-4 -50 -51 0
-7 -16 -29 0
-7 -16 -48 0
-7 -16 -49 0
-7 -16 -50 0
-7 -16 -51 0
-7 -29 -48 0
-7 -29 -49 0
-7 -29 -50 0
-7 -29 -51 0
-7 -48 -49 0
-7 -48 -50 0
-7 -48 -51 0
-7 -49 -50 0
-7 -49 -51 0
-7 -50 -51 0
-16 -29 -48 0
-16 -29 -49 0
-16 -29 -50 0
-16 -29 -51 0
-16 -48 -49 0
-16 -48 -50 0
-16 -48 -51 0
-16 -49 -50 0
-16 -49 -51 0
-16 -50 -51 0
-29 -48 -49 0
-29 -48 -50 0
-29 -48 -51 0
-29 -49 -50 0
-29 -49 -51 0
-29 -50 -51 0
-48 -49 -50 0
-48 -49 -51 0
-48 -50 -51 0
-49 -50 -51 0
7 16 29 48 49 50 51 0
4 16 29 48 49 50 51 0
4 7 29 48 49 50 51 0
4 7 16 48 49 50 51 0
4 7 16 29 49 50 51 0
4 7 16 29 48 50 51 0
4 7 16 29 48 49 51 0
4 7 16 29 48 49 50 0
-6 -9 -18 0
-6 -9 -32 0
-6 -9 -52 0
-6 -9 -53 0
-6 -9 -54 0
-6 -9 -55 0
-6 -18 -32 0
-6 -18 -52 0
-6 -18 -53 0
-6 -18 -54 0
-6 -18 -55 0
-6 -32 -52 0
-6 -32 -53 0
-6 -32 -54 0
-6 -32 -55 0
-6 -52 -53 0
-6 -52 -54 0
-6 -52 -55 0
-6 -53 -54 0
-6 -53 -55 0
-6 -54 -55 0
-9 -18 -32 0
-9 -18 -52 0
-9 -18 -53 0
-9 -18 -54 0
-9 -18 -55 0
-9 -32 -52 0
-9 -32 -53 0
-9 -32 -54 0
-9 -32 -55 0
-9 -52 -53 0
-9 -52 -54 0
-9 -52 -55 0
-9 -53 -54 0
-9 -53 -55 0
-9 -54 -55 0
-18 -32 -52 0
-18 -32 -53 0
-18 -32 -54 0
-18 -32 -55 0
-18 -52 -53 0
-18 -52 -54 0
-18 -52 -55 0
-18 -53 -54 0
-18 -53 -55 0
-18 -54 -55 0
-32 -52 -53 0
-32 -52 -54 0
-32 -52 -55 0
-32 -53 -54 0
-32 -53 -55 0
-32 -54 -55 0
-52 -53 -54 0
-52 -53 -55 0
-52 -54 -55 0
-53 -54 -55 0
9 18 32 52 53 54 55 0
6 18 32 52 53 54 55 0
6 9 32 52 53 54 55 0
6 9 18 52 53 54 55 0
6 9 18 32 53 54 55 0
6 9 18 32 52 54 55 0
6 9 18 32 52 53 55 0
6 9 18 32 52 53 54 0
-8 -11 -22 0
-8 -11 -34 0
-8 -11 -56 0
-8 -11 -57 0
-8 -11 -58 0
-8 -11 -59 0
-8 -22 -34 0
-8 -22 -56 0
-8 -22 -57 0
-8 -22 -58 0
-8 -22 -59 0
-8 -34 -56 0
-8 -34 -57 0
-8 -34 -58 0
-8 -34 -59 0
-8 -56 -57 0
-8 -56 -58 0
-8 -56 -59 0
-8 -57 -58 0
-8 -57 -59 0
-8 -58 -59 0
-11 -22 -34 0
-11 -22 -56 0
-11 -22 -57 0
-11 -22 -58 0
-11 -22 -59 0
-11 -34 -56 0
-11 -34 -57 0
-11 -34 -58 0
-11 -34 -59 0
-11 -56 -57 0
-11 -56 -58 0
-11 -56 -59 0
-11 -57 -58 0
-11 -57 -59 0
-11 -58 -59 0
-22 -34 -56 0
-22 -34 -57 0
-22 -34 -58 0
-22 -34 -59 0
-22 -56 -57 0
-22 -56 -58 0
-22 -56 -59 0
-22 -57 -58 0
-22 -57 -59 0
-22 -58 -59 0
-34 -56 -57 0
-34 -56 -58 0
-34 -56 -59 0
-34 -57 -58 0
-34 -57 -59 0
-34 -58 -59 0
-56 -57 -58 0
-56 -57 -59 0
-56 -58 -59 0
-57 -58 -59 0
11 22 34 56 57 58 59 0
8 22 34 56 57 58 59 0
8 11 34 56 57 58 59 0
8 11 22 56 57 58 59 0
8 11 22 34 57 58 59 0
8 11 22 34 56 58 59 0
8 11 22 34 56 57 59 0
8 11 22 34 56 57 58 0
-10 -12 -26 0
-10 -12 -36 0
-10 -12 -60 0
-10 -12 -61 0
-10 -12 -62 0
-10 -12 -63 0
-10 -26 -36 0
-10 -26 -60 0
-10 -26 -61 0
-10 -26 -62 0
-10 -26 -63 0
-10 -36 -60 0
-10 -36 -61 0
-10 -36 -62 0
-10 -36 -63 0
-10 -60 -61 0
-10 -60 -62 0
-10 -60 -63 0
-10 -61 -62 0
-10 -61 -63 0
-10 -62 -63 0
-12 -26 -36 0
-12 -26 -60 0
-12 -26 -61 0
-12 -26 -62 0
-12 -26 -63 0
-12 -36 -60 0
-12 -36 -61 0
-12 -36 -62 0
-12 -36 -63 0
-12 -60 -61 0
-12 -60 -62 0
-12 -60 -63 0
-12 -61 -62 0
-12 -61 -63 0
-12 -62 -63 0
-26 -36 -60 0
-26 -36 -61 0
-26 -36 -62 0
-26 -36 -63 0
-26 -60 -61 0
-26 -60 -62 0
-26 -60 -63 0
-26 -61 -62 0
-26 -61 -63 0
-26 -62 -63 0
-36 -60 -61 0
-36 -60 -62 0
-36 -60 -63 0
-36 -61 -62 0
-36 -61 -63 0
-36 -62 -63 0
-60 -61 -62 0
-60 -61 -63 0
-60 -62 -63 0
-61 -62 -63 0
12 26 36 60 61 62 63 0
10 26 36 60 61 62 63 0
10 12 36 60 61 62 63 0
10 12 26 60 61 62 63 0
10 12 26 36 61 62 63 0
10 12 26 36 60 62 63 0
10 12 26 36 60 61 63 0
10 12 26 36 60 61 62 0
-15 -19 -37 0
-15 -19 -48 0
-15 -19 -70 0
-15 -19 -71 0
-15 -19 -72 0
-15 -19 -73 0
-15 -37 -48 0
-15 -37 -70 0
-15 -37 -71 0
-15 -37 -72 0
-15 -37 -73 0
-15 -48 -70 0
-15 -48 -71 0
-15 -48 -72 0
-15 -48 -73 0
-15 -70 -71 0
-15 -70 -72 0
-15 -70 -73 0
-15 -71 -72 0
-15 -71 -73 0
-15 -72 -73 0
-19 -37 -48 0
-19 -37 -70 0
-19 -37 -71 0
-19 -37 -72 0
-19 -37 -73 0
-19 -48 -70 0
-19 -48 -71 0
-19 -48 -72 0
-19 -48 -73 0
-19 -70 -71 0
-19 -70 -72 0
-19 -70 -73 0
-19 -71 -72 0
-19 -71 -73 0
-19 -72 -73 0
-37 -48 -70 0
-37 -48 -71 0
-37 -48 -72 0
-37 -48 -73 0
-37 -70 -71 0
-37 -70 -72 0
-37 -70 -73 0
-37 -71 -72 0
-37 -71 -73 0
-37 -72 -73 0
-48 -70 -71 0
-48 -70 -72 0
-48 -70 -73 0
-48 -71 -72 0
-48 -71 -73 0
-48 -72 -73 0
-70 -71 -72 0
-70 -71 -73 0
-70 -72 -73 0
-71 -72 -73 0
19 37 48 70 71 72 73 0
15 37 48 70 71 72 73 0
15 19 48 70 71 72 73 0
15 19 37 70 71 72 73 0
15 19 37 48 71 72 73 0
15 19 37 48 70 72 73 0
15 19 37 48 70 71 73 0
15 19 37 48 70 71 72 0
-17 -23 -38 0
-17 -23 -52 0
-17 -23 -74 0
-17 -23 -75 0
-17 -23 -76 0
-17 -23 -77 0
-17 -38 -52 0
-17 -38 -74 0
-17 -38 -75 0
-17 -38 -76 0
-17 -38 -77 0
-17 -52 -74 0
-17 -52 -75 0
-17 -52 -76 0
-17 -52 -77 0
-17 -74 -75 0
-17 -74 -76 0
-17 -74 -77 0
-17 -75 -76 0
-17 -75 -77 0
-17 -76 -77 0
-23 -38 -52 0
-23 -38 -74 0
-23 -38 -75 0
-23 -38 -76 0
-23 -38 -77 0
-23 -52 -74 0
-23 -52 -75 0
-23 -52 -76 0
-23 -52 -77 0
-23 -74 -75 0
-23 -74 -76 0
-23 -74 -77 0
-23 -75 -76 0
-23 -75 -77 0
-23 -76 -77 0
-38 -52 -74 0
-38 -52 -75 0
-38 -52 -76 0
-38 -52 -77 0
-38 -74 -75 0
-38 -74 -76 0
-38 -74 -77 0
-38 -75 -76 0
-38 -75 -77 0
-38 -76 -77 0
-52 -74 -75 0
-52 -74 -76 0
-52 -74 -77 0
-52 -75 -76 0
-52 -75 -77 0
-52 -76 -77 0
-74 -75 -76 0
-74 -75 -77 0
-74 -76 -77 0
-75 -76 -77 0
23 38 52 74 75 76 77 0
17 38 52 74 75 76 77 0
17 23 52 74 75 76 77 0
17 23 38 74 75 76 77 0
17 23 38 52 75 76 77 0
17 23 38 52 74 76 77 0
17 23 38 52 74 75 77 0
17 23 38 52 74 75 76 0
-18 -19 -20 0
-20 -27 -41 0
-20 -27 -56 0
-20 -27 -78 0
-20 -27 -79 0
-20 -27 -80 0
-20 -27 -81 0
-20 -41 -56 0
-20 -41 -78 0
-20 -41 -79 0
-20 -41 -80 0
-20 -41 -81 0
-20 -56 -78 0
-20 -56 -79 0
-20 -56 -80 0
-20 -56 -81 0
-20 -78 -79 0
-20 -78 -80 0
-20 -78 -81 0
-20 -79 -80 0
-20 -79 -81 0
-20 -80 -81 0
-27 -41 -56 0
-27 -41 -78 0
-27 -41 -79 0
-27 -41 -80 0
-27 -41 -81 0
-27 -56 -78 0
-27 -56 -79 0
-27 -56 -80 0
-27 -56 -81 0
-27 -78 -79 0
-27 -78 -80 0
-27 -78 -81 0
-27 -79 -80 0
-27 -79 -81 0
-27 -80 -81 0
-41 -56 -78 0
-41 -56 -79 0
-41 -56 -80 0
-41 -56 -81 0
-41 -78 -79 0
-41 -78 -80 0
-41 -78 -81 0
-41 -79 -80 0
-41 -79 -81 0
-41 -80 -81 0
-56 -78 -79 0
-56 -78 -80 0
-56 -78 -81 0
-56 -79 -80 0
-56 -79 -81 0
-56 -80 -81 0
-78 -79 -80 0
-78 -79 -81 0
-78 -80 -81 0
-79 -80 -81 0
27 41 56 78 79 80 81 0
20 41 56 78 79 80 81 0
20 27 56 78 79 80 81 0
20 27 41 78 79 80 81 0
20 27 41 56 79 80 81 0
20 27 41 56 78 80 81 0
20 27 41 56 78 79 81 0
20 27 41 56 78 79 80 0
-21 -22 -23 0
-21 -22 -24 0
-21 -23 -24 0
-22 -23 -24 0
-24 -30 -45 0
-24 -30 -60 0
-24 -30 -82 0
-24 -30 -83 0
-24 -30 -84 0
-24 -30 -85 0
-24 -45 -60 0
-24 -45 -82 0
-24 -45 -83 0
-24 -45 -84 0
-24 -45 -85 0
-24 -60 -82 0
-24 -60 -83 0
-24 -60 -84 0
-24 -60 -85 0
-24 -82 -83 0
-24 -82 -84 0
-24 -82 -85 0
-24 -83 -84 0
-24 -83 -85 0
-24 -84 -85 0
-30 -45 -60 0
-30 -45 -82 0
-30 -45 -83 0
-30 -45 -84 0
-30 -45 -85 0
-30 -60 -82 0
-30 -60 -83 0
-30 -60 -84 0
-30 -60 -85 0
-30 -82 -83 0
-30 -82 -84 0
-30 -82 -85 0
-30 -83 -84 0
-30 -83 -85 0
-30 -84 -85 0
-45 -60 -82 0
-45 -60 -83 0
-45 -60 -84 0
-45 -60 -85 0
-45 -82 -83 0
-45 -82 -84 0
-45 -82 -85 0
-45 -83 -84 0
-45 -83 -85 0
-45 -84 -85 0
-60 -82 -83 0
-60 -82 -84 0
-60 -82 -85 0
-60 -83 -84 0
-60 -83 -85 0
-60 -84 -85 0
-82 -83 -84 0
-82 -83 -85 0
-82 -84 -85 0
-83 -84 -85 0
30 45 60 82 83 84 85 0
24 45 60 82 83 84 85 0
24 30 60 82 83 84 85 0
24 30 45 82 83 84 85 0
24 30 45 60 83 84 85 0
24 30 45 60 82 84 85 0
24 30 45 60 82 83 85 0
24 30 45 60 82 83 84 0
-25 -26 -27 0
-25 -26 -28 0
-25 -27 -28 0
-26 -27 -28 0
-28 -33 -49 0
-28 -33 -64 0
-28 -33 -86 0
-28 -33 -87 0
-28 -33 -88 0
-28 -33 -89 0
-28 -49 -64 0
-28 -49 -86 0
-28 -49 -87 0
-28 -49 -88 0
-28 -49 -89 0
-28 -64 -86 0
-28 -64 -87 0
-28 -64 -88 0
-28 -64 -89 0
-28 -86 -87 0
-28 -86 -88 0
-28 -86 -89 0
-28 -87 -88 0
-28 -87 -89 0
-28 -88 -89 0
-33 -49 -64 0
-33 -49 -86 0
-33 -49 -87 0
-33 -49 -88 0
-33 -49 -89 0
-33 -64 -86 0
-33 -64 -87 0
-33 -64 -88 0
-33 -64 -89 0
-33 -86 -87 0
-33 -86 -88 0
-33 -86 -89 0
-33 -87 -88 0
-33 -87 -89 0
-33 -88 -89 0
-49 -64 -86 0
-49 -64 -87 0
-49 -64 -88 0
-49 -64 -89 0
-49 -86 -87 0
-49 -86 -88 0
-49 -86 -89 0
-49 -87 -88 0
-49 -87 -89 0
-49 -88 -89 0
-64 -86 -87 0
-64 -86 -88 0
-64 -86 -89 0
-64 -87 -88 0
-64 -87 -89 0
-64 -88 -89 0
-86 -87 -88 0
-86 -87 -89 0
-86 -88 -89 0
-87 -88 -89 0
33 49 64 86 87 88 89 0
28 49 64 86 87 88 89 0
28 33 64 86 87 88 89 0
28 33 49 86 87 88 89 0
28 33 49 64 87 88 89 0
28 33 49 64 86 88 89 0
28 33 49 64 86 87 89 0
28 33 49 64 86 87 88 0
-29 -30 -31 0
-31 -35 -53 0
-31 -35 -66 0
-31 -35 -90 0
-31 -35 -91 0
-31 -35 -92 0
-31 -35 -93 0
-31 -53 -66 0
-31 -53 -90 0
-31 -53 -91 0
-31 -53 -92 0
-31 -53 -93 0
-31 -66 -90 0
-31 -66 -91 0
-31 -66 -92 0
-31 -66 -93 0
-31 -90 -91 0
-31 -90 -92 0
-31 -90 -93 0
-31 -91 -92 0
-31 -91 -93 0
-31 -92 -93 0
-35 -53 -66 0
-35 -53 -90 0
-35 -53 -91 0
-35 -53 -92 0
-35 -53 -93 0
-35 -66 -90 0
-35 -66 -91 0
-35 -66 -92 0
-35 -66 -93 0
-35 -90 -91 0
-35 -90 -92 0
-35 -90 -93 0
-35 -91 -92 0
-35 -91 -93 0
-35 -92 -93 0
-53 -66 -90 0
-53 -66 -91 0
-53 -66 -92 0
-53 -66 -93 0
-53 -90 -91 0
-53 -90 -92 0
-53 -90 -93 0
-53 -91 -92 0
-53 -91 -93 0
-53 -92 -93 0
-66 -90 -91 0
-66 -90 -92 0
-66 -90 -93 0
-66 -91 -92 0
-66 -91 -93 0
-66 -92 -93 0
-90 -91 -92 0
-90 -91 -93 0
-90 -92 -93 0
-91 -92 -93 0
35 53 66 90 91 92 93 0
31 53 66 90 91 92 93 0
31 35 66 90 91 92 93 0
31 35 53 90 91 92 93 0
31 35 53 66 91 92 93 0
31 35 53 66 90 92 93 0
31 35 53 66 90 91 93 0
31 35 53 66 90 91 92 0
-39 -46 -67 0
-39 -46 -78 0
-39 -46 -100 0
-39 -46 -101 0
-39 -46 -102 0
-39 -46 -103 0
-39 -67 -78 0
-39 -67 -100 0
-39 -67 -101 0
-39 -67 -102 0
-39 -67 -103 0
-39 -78 -100 0
-39 -78 -101 0
-39 -78 -102 0
-39 -78 -103 0
-39 -100 -101 0
-39 -100 -102 0
-39 -100 -103 0
-39 -101 -102 0
-39 -101 -103 0
-39 -102 -103 0
-46 -67 -78 0
-46 -67 -100 0
-46 -67 -101 0
-46 -67 -102 0
-46 -67 -103 0
-46 -78 -100 0
-46 -78 -101 0
-46 -78 -102 0
-46 -78 -103 0
-46 -100 -101 0
-46 -100 -102 0
-46 -100 -103 0
-46 -101 -102 0
-46 -101 -103 0
-46 -102 -103 0
-67 -78 -100 0
-67 -78 -101 0
-67 -78 -102 0
-67 -78 -103 0
-67 -100 -101 0
-67 -100 -102 0
-67 -100 -103 0
-67 -101 -102 0
-67 -101 -103 0
-67 -102 -103 0
-78 -100 -101 0
-78 -100 -102 0
-78 -100 -103 0
-78 -101 -102 0
-78 -101 -103 0
-78 -102 -103 0
-100 -101 -102 0
-100 -101 -103 0
-100 -102 -103 0
-101 -102 -103 0
46 67 78 100 101 102 103 0
39 67 78 100 101 102 103 0
39 46 78 100 101 102 103 0
39 46 67 100 101 102 103 0
39 46 67 78 101 102 103 0
39 46 67 78 100 102 103 0
39 46 67 78 100 101 103 0
39 46 67 78 100 101 102 0
-42 -74 -98 0
-42 -74 -99 0
-42 -98 -99 0
-74 -98 -99 0
-43 -50 -68 0
-43 -50 -82 0
-43 -50 -104 0
-43 -50 -105 0
-43 -50 -106 0
-43 -50 -107 0
-43 -68 -82 0
-43 -68 -104 0
-43 -68 -105 0
-43 -68 -106 0
-43 -68 -107 0
-43 -82 -104 0
-43 -82 -105 0
-43 -82 -106 0
-43 -82 -107 0
-43 -104 -105 0
-43 -104 -106 0
-43 -104 -107 0
-43 -105 -106 0
-43 -105 -107 0
-43 -106 -107 0
-50 -68 -82 0
-50 -68 -104 0
-50 -68 -105 0
-50 -68 -106 0
-50 -68 -107 0
-50 -82 -104 0
-50 -82 -105 0
-50 -82 -106 0
-50 -82 -107 0
-50 -104 -105 0
-50 -104 -106 0
-50 -104 -107 0
-50 -105 -106 0
-50 -105 -107 0
-50 -106 -107 0
-68 -82 -104 0
-68 -82 -105 0
-68 -82 -106 0
-68 -82 -107 0
-68 -104 -105 0
-68 -104 -106 0
-68 -104 -107 0
-68 -105 -106 0
-68 -105 -107 0
-68 -106 -107 0
-82 -104 -105 0
-82 -104 -106 0
-82 -104 -107 0
-82 -105 -106 0
-82 -105 -107 0
-82 -106 -107 0
-104 -105 -106 0
-104 -105 -107 0
-104 -106 -107 0
-105 -106 -107 0
50 68 82 104 105 106 107 0
43 68 82 104 105 106 107 0
43 50 82 104 105 106 107 0
43 50 68 104 105 106 107 0
43 50 68 82 105 106 107 0
43 50 68 82 104 106 107 0
43 50 68 82 104 105 107 0
43 50 68 82 104 105 106 0
-44 -68 -69 0
-47 -54 -71 0
-47 -54 -86 0
-47 -54 -108 0
-47 -54 -109 0
-47 -54 -110 0
-47 -54 -111 0
-47 -71 -86 0
-47 -71 -108 0
-47 -71 -109 0
-47 -71 -110 0
-47 -71 -111 0
-47 -86 -108 0
-47 -86 -109 0
-47 -86 -110 0
-47 -86 -111 0
-47 -108 -109 0
-47 -108 -110 0
-47 -108 -111 0
-47 -109 -110 0
-47 -109 -111 0
-47 -110 -111 0
-54 -71 -86 0
-54 -71 -108 0
-54 -71 -109 0
-54 -71 -110 0
-54 -71 -111 0
-54 -86 -108 0
-54 -86 -109 0
-54 -86 -110 0
-54 -86 -111 0
-54 -108 -109 0
-54 -108 -110 0
-54 -108 -111 0
-54 -109 -110 0
-54 -109 -111 0
-54 -110 -111 0
-71 -86 -108 0
-71 -86 -109 0
-71 -86 -110 0
-71 -86 -111 0
-71 -108 -109 0
-71 -108 -110 0
-71 -108 -111 0
-71 -109 -110 0
-71 -109 -111 0
-71 -110 -111 0
-86 -108 -109 0
-86 -108 -110 0
-86 -108 -111 0
-86 -109 -110 0
-86 -109 -111 0
-86 -110 -111 0
-108 -109 -110 0
-108 -109 -111 0
-108 -110 -111 0
-109 -110 -111 0
54 71 86 108 109 110 111 0
47 71 86 108 109 110 111 0
47 54 86 108 109 110 111 0
47 54 71 108 109 110 111 0
47 54 71 86 109 110 111 0
47 54 71 86 108 110 111 0
47 54 71 86 108 109 111 0
47 54 71 86 108 109 110 0
-51 -58 -75 0
-51 -58 -90 0
-51 -58 -112 0
-51 -58 -113 0
-51 -58 -114 0
-51 -58 -115 0
-51 -75 -90 0
-51 -75 -112 0
-51 -75 -113 0
-51 -75 -114 0
-51 -75 -115 0
-51 -90 -112 0
-51 -90 -113 0
-51 -90 -114 0
-51 -90 -115 0
-51 -112 -113 0
-51 -112 -114 0
-51 -112 -115 0
-51 -113 -114 0
-51 -113 -115 0
-51 -114 -115 0
-58 -75 -90 0
-58 -75 -112 0
-58 -75 -113 0
-58 -75 -114 0
-58 -75 -115 0
-58 -90 -112 0
-58 -90 -113 0
-58 -90 -114 0
-58 -90 -115 0
-58 -112 -113 0
-58 -112 -114 0
-58 -112 -115 0
-58 -113 -114 0
-58 -113 -115 0
-58 -114 -115 0
-75 -90 -112 0
-75 -90 -113 0
-75 -90 -114 0
-75 -90 -115 0
-75 -112 -113 0
-75 -112 -114 0
-75 -112 -115 0
-75 -113 -114 0
-75 -113 -115 0
-75 -114 -115 0
-90 -112 -113 0
-90 -112 -114 0
-90 -112 -115 0
-90 -113 -114 0
-90 -113 -115 0
-90 -114 -115 0
-112 -113 -114 0
-112 -113 -115 0
-112 -114 -115 0
-113 -114 -115 0
58 75 90 112 113 114 115 0
51 75 90 112 113 114 115 0
51 58 90 112 113 114 115 0
51 58 75 112 113 114 115 0
51 58 75 90 113 114 115 0
51 58 75 90 112 114 115 0
51 58 75 90 112 113 115 0
51 58 75 90 112 113 114 0
-55 -62 -79 0
-55 -62 -94 0
-55 -62 -116 0
-55 -62 -117 0
-55 -62 -118 0
-55 -62 -119 0
-55 -79 -94 0
-55 -79 -116 0
-55 -79 -117 0
-55 -79 -118 0
-55 -79 -119 0
-55 -94 -116 0
-55 -94 -117 0
-55 -94 -118 0
-55 -94 -119 0
-55 -116 -117 0
-55 -116 -118 0
-55 -116 -119 0
-55 -117 -118 0
-55 -117 -119 0
-55 -118 -119 0
-62 -79 -94 0
-62 -79 -116 0
-62 -79 -117 0
-62 -79 -118 0
-62 -79 -119 0
-62 -94 -116 0
-62 -94 -117 0
-62 -94 -118 0
-62 -94 -119 0
-62 -116 -117 0
-62 -116 -118 0
-62 -116 -119 0
-62 -117 -118 0
-62 -117 -119 0
-62 -118 -119 0
-79 -94 -116 0
-79 -94 -117 0
-79 -94 -118 0
-79 -94 -119 0
-79 -116 -117 0
-79 -116 -118 0
-79 -116 -119 0
-79 -117 -118 0
-79 -117 -119 0
-79 -118 -119 0
-94 -116 -117 0
-94 -116 -118 0
-94 -116 -119 0
-94 -117 -118 0
-94 -117 -119 0
-94 -118 -119 0
-116 -117 -118 0
-116 -117 -119 0
-116 -118 -119 0
-117 -118 -119 0
62 79 94 116 117 118 119 0
55 79 94 116 117 118 119 0
55 62 94 116 117 118 119 0
55 62 79 116 117 118 119 0
55 62 79 94 117 118 119 0
55 62 79 94 116 118 119 0
55 62 79 94 116 117 119 0
55 62 79 94 116 117 118 0
-57 -94 -95 0
-59 -65 -83 0
-59 -65 -96 0
-59 -65 -120 0
-59 -65 -121 0
-59 -65 -122 0
-59 -65 -123 0
-59 -83 -96 0
-59 -83 -120 0
-59 -83 -121 0
-59 -83 -122 0
-59 -83 -123 0
-59 -96 -120 0
-59 -96 -121 0
-59 -96 -122 0
-59 -96 -123 0
-59 -120 -121 0
-59 -120 -122 0
-59 -120 -123 0
-59 -121 -122 0
-59 -121 -123 0
-59 -122 -123 0
-65 -83 -96 0
-65 -83 -120 0
-65 -83 -121 0
-65 -83 -122 0
-65 -83 -123 0
-65 -96 -120 0
-65 -96 -121 0
-65 -96 -122 0
-65 -96 -123 0
-65 -120 -121 0
-65 -120 -122 0
-65 -120 -123 0
-65 -121 -122 0
-65 -121 -123 0
-65 -122 -123 0
-83 -96 -120 0
-83 -96 -121 0
-83 -96 -122 0
-83 -96 -123 0
-83 -120 -121 0
-83 -120 -122 0
-83 -120 -123 0
-83 -121 -122 0
-83 -121 -123 0
-83 -122 -123 0
-96 -120 -121 0
-96 -120 -122 0
-96 -120 -123 0
-96 -121 -122 0
-96 -121 -123 0
-96 -122 -123 0
-120 -121 -122 0
-120 -121 -123 0
-120 -122 -123 0
-121 -122 -123 0
65 83 96 120 121 122 123 0
59 83 96 120 121 122 123 0
59 65 96 120 121 122 123 0
59 65 83 120 121 122 123 0
59 65 83 96 121 122 123 0
59 65 83 96 120 122 123 0
59 65 83 96 120 121 123 0
59 65 83 96 120 121 122 0
-63 -87 -124 0
-63 -87 -125 0
-63 -124 -125 0
-87 -124 -125 0
-69 -76 -97 0
-69 -76 -108 0
-69 -76 -130 0
-69 -76 -131 0
-69 -76 -132 0
-69 -76 -133 0
-69 -97 -108 0
-69 -97 -130 0
-69 -97 -131 0
-69 -97 -132 0
-69 -97 -133 0
-69 -108 -130 0
-69 -108 -131 0
-69 -108 -132 0
-69 -108 -133 0
-69 -130 -131 0
-69 -130 -132 0
-69 -130 -133 0
-69 -131 -132 0
-69 -131 -133 0
-69 -132 -133 0
-76 -97 -108 0
-76 -97 -130 0
-76 -97 -131 0
-76 -97 -132 0
-76 -97 -133 0
-76 -108 -130 0
-76 -108 -131 0
-76 -108 -132 0
-76 -108 -133 0
-76 -130 -131 0
-76 -130 -132 0
-76 -130 -133 0
-76 -131 -132 0
-76 -131 -133 0
-76 -132 -133 0
-97 -108 -130 0
-97 -108 -131 0
-97 -108 -132 0
-97 -108 -133 0
-97 -130 -131 0
-97 -130 -132 0
-97 -130 -133 0
-97 -131 -132 0
-97 -131 -133 0
-97 -132 -133 0
-108 -130 -131 0
-108 -130 -132 0
-108 -130 -133 0
-108 -131 -132 0
-108 -131 -133 0
-108 -132 -133 0
-130 -131 -132 0
-130 -131 -133 0
-130 -132 -133 0
-131 -132 -133 0
76 97 108 130 131 132 133 0
69 97 108 130 131 132 133 0
69 76 108 130 131 132 133 0
69 76 97 130 131 132 133 0
69 76 97 108 131 132 133 0
69 76 97 108 130 132 133 0
69 76 97 108 130 131 133 0
69 76 97 108 130 131 132 0
-72 -104 -128 0
-72 -104 -129 0
-72 -128 -129 0
-104 -128 -129 0
-73 -80 -98 0
-73 -80 -112 0
-73 -80 -134 0
-73 -80 -135 0
-73 -80 -136 0
-73 -80 -137 0
-73 -98 -112 0
-73 -98 -134 0
-73 -98 -135 0
-73 -98 -136 0
-73 -98 -137 0
-73 -112 -134 0
-73 -112 -135 0
-73 -112 -136 0
-73 -112 -137 0
-73 -134 -135 0
-73 -134 -136 0
-73 -134 -137 0
-73 -135 -136 0
-73 -135 -137 0
-73 -136 -137 0
-80 -98 -112 0
-80 -98 -134 0
-80 -98 -135 0
-80 -98 -136 0
-80 -98 -137 0
-80 -112 -134 0
-80 -112 -135 0
-80 -112 -136 0
-80 -112 -137 0
-80 -134 -135 0
-80 -134 -136 0
-80 -134 -137 0
-80 -135 -136 0
-80 -135 -137 0
-80 -136 -137 0
-98 -112 -134 0
-98 -112 -135 0
-98 -112 -136 0
-98 -112 -137 0
-98 -134 -135 0
-98 -134 -136 0
-98 -134 -137 0
-98 -135 -136 0
-98 -135 -137 0
-98 -136 -137 0
-112 -134 -135 0
-112 -134 -136 0
-112 -134 -137 0
-112 -135 -136 0
-112 -135 -137 0
-112 -136 -137 0
-134 -135 -136 0
-134 -135 -137 0
-134 -136 -137 0
-135 -136 -137 0
80 98 112 134 135 136 137 0
73 98 112 134 135 136 137 0
73 80 112 134 135 136 137 0
73 80 98 134 135 136 137 0
73 80 98 112 135 136 137 0
73 80 98 112 134 136 137 0
73 80 98 112 134 135 137 0
73 80 98 112 134 135 136 0
-77 -84 -101 0
-77 -84 -116 0
-77 -84 -138 0
-77 -84 -139 0
-77 -84 -140 0
-77 -84 -141 0
-77 -101 -116 0
-77 -101 -138 0
-77 -101 -139 0
-77 -101 -140 0
-77 -101 -141 0
-77 -116 -138 0
-77 -116 -139 0
-77 -116 -140 0
-77 -116 -141 0
-77 -138 -139 0
-77 -138 -140 0
-77 -138 -141 0
-77 -139 -140 0
-77 -139 -141 0
-77 -140 -141 0
-84 -101 -116 0
-84 -101 -138 0
-84 -101 -139 0
-84 -101 -140 0
-84 -101 -141 0
-84 -116 -138 0
-84 -116 -139 0
-84 -116 -140 0
-84 -116 -141 0
-84 -138 -139 0
-84 -138 -140 0
-84 -138 -141 0
-84 -139 -140 0
-84 -139 -141 0
-84 -140 -141 0
-101 -116 -138 0
-101 -116 -139 0
-101 -116 -140 0
-101 -116 -141 0
-101 -138 -139 0
-101 -138 -140 0
-101 -138 -141 0
-101 -139 -140 0
-101 -139 -141 0
-101 -140 -141 0
-116 -138 -139 0
-116 -138 -140 0
-116 -138 -141 0
-116 -139 -140 0
-116 -139 -141 0
-116 -140 -141 0
-138 -139 -140 0
-138 -139 -141 0
-138 -140 -141 0
-139 -140 -141 0
84 101 116 138 139 140 141 0
77 101 116 138 139 140 141 0
77 84 116 138 139 140 141 0
77 84 101 138 139 140 141 0
77 84 101 116 139 140 141 0
77 84 101 116 138 140 141 0
77 84 101 116 138 139 141 0
77 84 101 116 138 139 140 0
-81 -88 -105 0
-81 -88 -120 0
-81 -88 -142 0
-81 -88 -143 0
-81 -88 -144 0
-81 -88 -145 0
-81 -105 -120 0
-81 -105 -142 0
-81 -105 -143 0
-81 -105 -144 0
-81 -105 -145 0
-81 -120 -142 0
-81 -120 -143 0
-81 -120 -144 0
-81 -120 -145 0
-81 -142 -143 0
-81 -142 -144 0
-81 -142 -145 0
-81 -143 -144 0
-81 -143 -145 0
-81 -144 -145 0
-88 -105 -120 0
-88 -105 -142 0
-88 -105 -143 0
-88 -105 -144 0
-88 -105 -145 0
-88 -120 -142 0
-88 -120 -143 0
-88 -120 -144 0
-88 -120 -145 0
-88 -142 -143 0
-88 -142 -144 0
-88 -142 -145 0
-88 -143 -144 0
-88 -143 -145 0
-88 -144 -145 0
-105 -120 -142 0
-105 -120 -143 0
-105 -120 -144 0
-105 -120 -145 0
-105 -142 -143 0
-105 -142 -144 0
-105 -142 -145 0
-105 -143 -144 0
-105 -143 -145 0
-105 -144 -145 0
-120 -142 -143 0
-120 -142 -144 0
-120 -142 -145 0
-120 -143 -144 0
-120 -143 -145 0
-120 -144 -145 0
-142 -143 -144 0
-142 -143 -145 0
-142 -144 -145 0
-143 -144 -145 0
88 105 120 142 143 144 145 0
81 105 120 142 143 144 145 0
81 88 120 142 143 144 145 0
81 88 105 142 143 144 145 0
81 88 105 120 143 144 145 0
81 88 105 120 142 144 145 0
81 88 105 120 142 143 145 0
81 88 105 120 142 143 144 0
-85 -92 -109 0
-85 -92 -124 0
-85 -92 -146 0
-85 -92 -147 0
-85 -92 -148 0
-85 -92 -149 0
-85 -109 -124 0
-85 -109 -146 0
-85 -109 -147 0
-85 -109 -148 0
-85 -109 -149 0
-85 -124 -146 0
-85 -124 -147 0
-85 -124 -148 0
-85 -124 -149 0
-85 -146 -147 0
-85 -146 -148 0
-85 -146 -149 0
-85 -147 -148 0
-85 -147 -149 0
-85 -148 -149 0
-92 -109 -124 0
-92 -109 -146 0
-92 -109 -147 0
-92 -109 -148 0
-92 -109 -149 0
-92 -124 -146 0
-92 -124 -147 0
-92 -124 -148 0
-92 -124 -149 0
-92 -146 -147 0
-92 -146 -148 0
-92 -146 -149 0
-92 -147 -148 0
-92 -147 -149 0
-92 -148 -149 0
-109 -124 -146 0
-109 -124 -147 0
-109 -124 -148 0
-109 -124 -149 0
-109 -146 -147 0
-109 -146 -148 0
-109 -146 -149 0
-109 -147 -148 0
-109 -147 -149 0
-109 -148 -149 0
-124 -146 -147 0
-124 -146 -148 0
-124 -146 -149 0
-124 -147 -148 0
-124 -147 -149 0
-124 -148 -149 0
-146 -147 -148 0
-146 -147 -149 0
-146 -148 -149 0
-147 -148 -149 0
92 109 124 146 147 148 149 0
85 109 124 146 147 148 149 0
85 92 124 146 147 148 149 0
85 92 109 146 147 148 149 0
85 92 109 124 147 148 149 0
85 92 109 124 146 148 149 0
85 92 109 124 146 147 149 0
85 92 109 124 146 147 148 0
-89 -95 -113 0
-89 -95 -126 0
-89 -95 -150 0
-89 -95 -151 0
-89 -95 -152 0
-89 -95 -153 0
-89 -113 -126 0
-89 -113 -150 0
-89 -113 -151 0
-89 -113 -152 0
-89 -113 -153 0
-89 -126 -150 0
-89 -126 -151 0
-89 -126 -152 0
-89 -126 -153 0
-89 -150 -151 0
-89 -150 -152 0
-89 -150 -153 0
-89 -151 -152 0
-89 -151 -153 0
-89 -152 -153 0
-95 -113 -126 0
-95 -113 -150 0
-95 -113 -151 0
-95 -113 -152 0
-95 -113 -153 0
-95 -126 -150 0
-95 -126 -151 0
-95 -126 -152 0
-95 -126 -153 0
-95 -150 -151 0
-95 -150 -152 0
-95 -150 -153 0
-95 -151 -152 0
-95 -151 -153 0
-95 -152 -153 0
-113 -126 -150 0
-113 -126 -151 0
-113 -126 -152 0
-113 -126 -153 0
-113 -150 -151 0
-113 -150 -152 0
-113 -150 -153 0
-113 -151 -152 0
-113 -151 -153 0
-113 -152 -153 0
-126 -150 -151 0
-126 -150 -152 0
-126 -150 -153 0
-126 -151 -152 0
-126 -151 -153 0
-126 -152 -153 0
-150 -151 -152 0
-150 -151 -153 0
-150 -152 -153 0
-151 -152 -153 0
95 113 126 150 151 152 153 0
89 113 126 150 151 152 153 0
89 95 126 150 151 152 153 0
89 95 113 150 151 152 153 0
89 95 113 126 151 152 153 0
89 95 113 126 150 152 153 0
89 95 113 126 150 151 153 0
89 95 113 126 150 151 152 0
-93 -117 -154 0
-93 -117 -155 0
-93 -154 -155 0
-117 -154 -155 0
-99 -106 -127 0
-99 -106 -138 0
-99 -106 -159 0
-99 -106 -160 0
-99 -106 -161 0
-99 -106 -162 0
-99 -127 -138 0
-99 -127 -159 0
-99 -127 -160 0
-99 -127 -161 0
-99 -127 -162 0
-99 -138 -159 0
-99 -138 -160 0
-99 -138 -161 0
-99 -138 -162 0
-99 -159 -160 0
-99 -159 -161 0
-99 -159 -162 0
-99 -160 -161 0
-99 -160 -162 0
-99 -161 -162 0
-106 -127 -138 0
-106 -127 -159 0
-106 -127 -160 0
-106 -127 -161 0
-106 -127 -162 0
-106 -138 -159 0
-106 -138 -160 0
-106 -138 -161 0
-106 -138 -162 0
-106 -159 -160 0
-106 -159 -161 0
-106 -159 -162 0
-106 -160 -161 0
-106 -160 -162 0
-106 -161 -162 0
-127 -138 -159 0
-127 -138 -160 0
-127 -138 -161 0
-127 -138 -162 0
-127 -159 -160 0
-127 -159 -161 0
-127 -159 -162 0
-127 -160 -161 0
-127 -160 -162 0
-127 -161 -162 0
-138 -159 -160 0
-138 -159 -161 0
-138 -159 -162 0
-138 -160 -161 0
-138 -160 -162 0
-138 -161 -162 0
-159 -160 -161 0
-159 -160 -162 0
-159 -161 -162 0
-160 -161 -162 0
106 127 138 159 160 161 162 0
99 127 138 159 160 161 162 0
99 106 138 159 160 161 162 0
99 106 127 159 160 161 162 0
99 106 127 138 160 161 162 0
99 106 127 138 159 161 162 0
99 106 127 138 159 160 162 0
99 106 127 138 159 160 161 0
-102 -134 -158 0
-103 -110 -128 0
-103 -110 -142 0
-103 -110 -163 0
-103 -110 -164 0
-103 -110 -165 0
-103 -110 -166 0
-103 -128 -142 0
-103 -128 -163 0
-103 -128 -164 0
-103 -128 -165 0
-103 -128 -166 0
-103 -142 -163 0
-103 -142 -164 0
-103 -142 -165 0
-103 -142 -166 0
-103 -163 -164 0
-103 -163 -165 0
-103 -163 -166 0
-103 -164 -165 0
-103 -164 -166 0
-103 -165 -166 0
-110 -128 -142 0
-110 -128 -163 0
-110 -128 -164 0
-110 -128 -165 0
-110 -128 -166 0
-110 -142 -163 0
-110 -142 -164 0
-110 -142 -165 0
-110 -142 -166 0
-110 -163 -164 0
-110 -163 -165 0
-110 -163 -166 0
-110 -164 -165 0
-110 -164 -166 0
-110 -165 -166 0
-128 -142 -163 0
-128 -142 -164 0
-128 -142 -165 0
-128 -142 -166 0
-128 -163 -164 0
-128 -163 -165 0
-128 -163 -166 0
-128 -164 -165 0
-128 -164 -166 0
-128 -165 -166 0
-142 -163 -164 0
-142 -163 -165 0
-142 -163 -166 0
-142 -164 -165 0
-142 -164 -166 0
-142 -165 -166 0
-163 -164 -165 0
-163 -164 -166 0
-163 -165 -166 0
-164 -165 -166 0
110 128 142 163 164 165 166 0
103 128 142 163 164 165 166 0
103 110 142 163 164 165 166 0
103 110 128 163 164 165 166 0
103 110 128 142 164 165 166 0
103 110 128 142 163 165 166 0
103 110 128 142 163 164 166 0
103 110 128 142 163 164 165 0
-107 -114 -131 0
-107 -114 -146 0
-107 -114 -167 0
-107 -114 -168 0
-107 -114 -169 0
-107 -114 -170 0
-107 -131 -146 0
-107 -131 -167 0
-107 -131 -168 0
-107 -131 -169 0
-107 -131 -170 0
-107 -146 -167 0
-107 -146 -168 0
-107 -146 -169 0
-107 -146 -170 0
-107 -167 -168 0
-107 -167 -169 0
-107 -167 -170 0
-107 -168 -169 0
-107 -168 -170 0
-107 -169 -170 0
-114 -131 -146 0
-114 -131 -167 0
-114 -131 -168 0
-114 -131 -169 0
-114 -131 -170 0
-114 -146 -167 0
-114 -146 -168 0
-114 -146 -169 0
-114 -146 -170 0
-114 -167 -168 0
-114 -167 -169 0
-114 -167 -170 0
-114 -168 -169 0
-114 -168 -170 0
-114 -169 -170 0
-131 -146 -167 0
-131 -146 -168 0
-131 -146 -169 0
-131 -146 -170 0
-131 -167 -168 0
-131 -167 -169 0
-131 -167 -170 0
-131 -168 -169 0
-131 -168 -170 0
-131 -169 -170 0
-146 -167 -168 0
-146 -167 -169 0
-146 -167 -170 0
-146 -168 -169 0
-146 -168 -170 0
-146 -169 -170 0
-167 -168 -169 0
-167 -168 -170 0
-167 -169 -170 0
-168 -169 -170 0
114 131 146 167 168 169 170 0
107 131 146 167 168 169 170 0
107 114 146 167 168 169 170 0
107 114 131 167 168 169 170 0
107 114 131 146 168 169 170 0
107 114 131 146 167 169 170 0
107 114 131 146 167 168 170 0
107 114 131 146 167 168 169 0
-111 -118 -135 0
-111 -118 -150 0
-111 -118 -171 0
-111 -118 -172 0
-111 -118 -173 0
-111 -118 -174 0
-111 -135 -150 0
-111 -135 -171 0
-111 -135 -172 0
-111 -135 -173 0
-111 -135 -174 0
-111 -150 -171 0
-111 -150 -172 0
-111 -150 -173 0
-111 -150 -174 0
-111 -171 -172 0
-111 -171 -173 0
-111 -171 -174 0
-111 -172 -173 0
-111 -172 -174 0
-111 -173 -174 0
-118 -135 -150 0
-118 -135 -171 0
-118 -135 -172 0
-118 -135 -173 0
-118 -135 -174 0
-118 -150 -171 0
-118 -150 -172 0
-118 -150 -173 0
-118 -150 -174 0
-118 -171 -172 0
-118 -171 -173 0
-118 -171 -174 0
-118 -172 -173 0
-118 -172 -174 0
-118 -173 -174 0
-135 -150 -171 0
-135 -150 -172 0
-135 -150 -173 0
-135 -150 -174 0
-135 -171 -172 0
-135 -171 -173 0
-135 -171 -174 0
-135 -172 -173 0
-135 -172 -174 0
-135 -173 -174 0
-150 -171 -172 0
-150 -171 -173 0
-150 -171 -174 0
-150 -172 -173 0
-150 -172 -174 0
-150 -173 -174 0
-171 -172 -173 0
-171 -172 -174 0
-171 -173 -174 0
-172 -173 -174 0
118 135 150 171 172 173 174 0
111 135 150 171 172 173 174 0
111 118 150 171 172 173 174 0
111 118 135 171 172 173 174 0
111 118 135 150 172 173 174 0
111 118 135 150 171 173 174 0
111 118 135 150 171 172 174 0
111 118 135 150 171 172 173 0
-115 -122 -139 0
-115 -122 -154 0
-115 -122 -175 0
-115 -122 -176 0
-115 -122 -177 0
-115 -122 -178 0
-115 -139 -154 0
-115 -139 -175 0
-115 -139 -176 0
-115 -139 -177 0
-115 -139 -178 0
-115 -154 -175 0
-115 -154 -176 0
-115 -154 -177 0
-115 -154 -178 0
-115 -175 -176 0
-115 -175 -177 0
-115 -175 -178 0
-115 -176 -177 0
-115 -176 -178 0
-115 -177 -178 0
-122 -139 -154 0
-122 -139 -175 0
-122 -139 -176 0
-122 -139 -177 0
-122 -139 -178 0
-122 -154 -175 0
-122 -154 -176 0
-122 -154 -177 0
-122 -154 -178 0
-122 -175 -176 0
-122 -175 -177 0
-122 -175 -178 0
-122 -176 -177 0
-122 -176 -178 0
-122 -177 -178 0
-139 -154 -175 0
-139 -154 -176 0
-139 -154 -177 0
-139 -154 -178 0
-139 -175 -176 0
-139 -175 -177 0
-139 -175 -178 0
-139 -176 -177 0
-139 -176 -178 0
-139 -177 -178 0
-154 -175 -176 0
-154 -175 -177 0
-154 -175 -178 0
-154 -176 -177 0
-154 -176 -178 0
-154 -177 -178 0
-175 -176 -177 0
-175 -176 -178 0
-175 -177 -178 0
-176 -177 -178 0
122 139 154 175 176 177 178 0
115 139 154 175 176 177 178 0
115 122 154 175 176 177 178 0
115 122 139 175 176 177 178 0
115 122 139 154 176 177 178 0
115 122 139 154 175 177 178 0
115 122 139 154 175 176 178 0
115 122 139 154 175 176 177 0
-119 -125 -143 0
-119 -125 -156 0
-119 -125 -179 0
-119 -125 -180 0
-119 -125 -181 0
-119 -125 -182 0
-119 -143 -156 0
-119 -143 -179 0
-119 -143 -180 0
-119 -143 -181 0
-119 -143 -182 0
-119 -156 -179 0
-119 -156 -180 0
-119 -156 -181 0
-119 -156 -182 0
-119 -179 -180 0
-119 -179 -181 0
-119 -179 -182 0
-119 -180 -181 0
-119 -180 -182 0
-119 -181 -182 0
-125 -143 -156 0
-125 -143 -179 0
-125 -143 -180 0
-125 -143 -181 0
-125 -143 -182 0
-125 -156 -179 0
-125 -156 -180 0
-125 -156 -181 0
-125 -156 -182 0
-125 -179 -180 0
-125 -179 -181 0
-125 -179 -182 0
-125 -180 -181 0
-125 -180 -182 0
-125 -181 -182 0
-143 -156 -179 0
-143 -156 -180 0
-143 -156 -181 0
-143 -156 -182 0
-143 -179 -180 0
-143 -179 -181 0
-143 -179 -182 0
-143 -180 -181 0
-143 -180 -182 0
-143 -181 -182 0
-156 -179 -180 0
-156 -179 -181 0
-156 -179 -182 0
-156 -180 -181 0
-156 -180 -182 0
-156 -181 -182 0
-179 -180 -181 0
-179 -180 -182 0
-179 -181 -182 0
-180 -181 -182 0
125 143 156 179 180 181 182 0
119 143 156 179 180 181 182 0
119 125 156 179 180 181 182 0
119 125 143 179 180 181 182 0
119 125 143 156 180 181 182 0
119 125 143 156 179 181 182 0
119 125 143 156 179 180 182 0
119 125 143 156 179 180 181 0
-123 -147 -183 0
-129 -136 -157 0
-129 -136 -167 0
-129 -136 -185 0
-129 -136 -186 0
-129 -136 -187 0
-129 -136 -188 0
-129 -157 -167 0
-129 -157 -185 0
-129 -157 -186 0
-129 -157 -187 0
-129 -157 -188 0
-129 -167 -185 0
-129 -167 -186 0
-129 -167 -187 0
-129 -167 -188 0
-129 -185 -186 0
-129 -185 -187 0
-129 -185 -188 0
-129 -186 -187 0
-129 -186 -188 0
-129 -187 -188 0
-136 -157 -167 0
-136 -157 -185 0
-136 -157 -186 0
-136 -157 -187 0
-136 -157 -188 0
-136 -167 -185 0
-136 -167 -186 0
-136 -167 -187 0
-136 -167 -188 0
-136 -185 -186 0
-136 -185 -187 0
-136 -185 -188 0
-136 -186 -187 0
-136 -186 -188 0
-136 -187 -188 0
-157 -167 -185 0
-157 -167 -186 0
-157 -167 -187 0
-157 -167 -188 0
-157 -185 -186 0
-157 -185 -187 0
-157 -185 -188 0
-157 -186 -187 0
-157 -186 -188 0
-157 -187 -188 0
-167 -185 -186 0
-167 -185 -187 0
-167 -185 -188 0
-167 -186 -187 0
-167 -186 -188 0
-167 -187 -188 0
-185 -186 -187 0
-185 -186 -188 0
-185 -187 -188 0
-186 -187 -188 0
136 157 167 185 186 187 188 0
129 157 167 185 186 187 188 0
129 136 167 185 186 187 188 0
129 136 157 185 186 187 188 0
129 136 157 167 186 187 188 0
129 136 157 167 185 187 188 0
129 136 157 167 185 186 188 0
129 136 157 167 185 186 187 0
-133 -140 -158 0
-133 -140 -171 0
-133 -140 -189 0
-133 -140 -190 0
-133 -140 -191 0
-133 -140 -192 0
-133 -158 -171 0
-133 -158 -189 0
-133 -158 -190 0
-133 -158 -191 0
-133 -158 -192 0
-133 -171 -189 0
-133 -171 -190 0
-133 -171 -191 0
-133 -171 -192 0
-133 -189 -190 0
-133 -189 -191 0
-133 -189 -192 0
-133 -190 -191 0
-133 -190 -192 0
-133 -191 -192 0
-140 -158 -171 0
-140 -158 -189 0
-140 -158 -190 0
-140 -158 -191 0
-140 -158 -192 0
-140 -171 -189 0
-140 -171 -190 0
-140 -171 -191 0
-140 -171 -192 0
-140 -189 -190 0
-140 -189 -191 0
-140 -189 -192 0
-140 -190 -191 0
-140 -190 -192 0
-140 -191 -192 0
-158 -171 -189 0
-158 -171 -190 0
-158 -171 -191 0
-158 -171 -192 0
-158 -189 -190 0
-158 -189 -191 0
-158 -189 -192 0
-158 -190 -191 0
-158 -190 -192 0
-158 -191 -192 0
-171 -189 -190 0
-171 -189 -191 0
-171 -189 -192 0
-171 -190 -191 0
-171 -190 -192 0
-171 -191 -192 0
-189 -190 -191 0
-189 -190 -192 0
-189 -191 -192 0
-190 -191 -192 0
140 158 171 189 190 191 192 0
133 158 171 189 190 191 192 0
133 140 171 189 190 191 192 0
133 140 158 189 190 191 192 0
133 140 158 171 190 191 192 0
133 140 158 171 189 191 192 0
133 140 158 171 189 190 192 0
133 140 158 171 189 190 191 0
-137 -144 -160 0
-137 -144 -175 0
-137 -144 -193 0
-137 -144 -194 0
-137 -144 -195 0
-137 -144 -196 0
-137 -160 -175 0
-137 -160 -193 0
-137 -160 -194 0
-137 -160 -195 0
-137 -160 -196 0
-137 -175 -193 0
-137 -175 -194 0
-137 -175 -195 0
-137 -175 -196 0
-137 -193 -194 0
-137 -193 -195 0
-137 -193 -196 0
-137 -194 -195 0
-137 -194 -196 0
-137 -195 -196 0
-144 -160 -175 0
-144 -160 -193 0
-144 -160 -194 0
-144 -160 -195 0
-144 -160 -196 0
-144 -175 -193 0
-144 -175 -194 0
-144 -175 -195 0
-144 -175 -196 0
-144 -193 -194 0
-144 -193 -195 0
-144 -193 -196 0
-144 -194 -195 0
-144 -194 -196 0
-144 -195 -196 0
-160 -175 -193 0
-160 -175 -194 0
-160 -175 -195 0
-160 -175 -196 0
-160 -193 -194 0
-160 -193 -195 0
-160 -193 -196 0
-160 -194 -195 0
-160 -194 -196 0
-160 -195 -196 0
-175 -193 -194 0
-175 -193 -195 0
-175 -193 -196 0
-175 -194 -195 0
-175 -194 -196 0
-175 -195 -196 0
-193 -194 -195 0
-193 -194 -196 0
-193 -195 -196 0
-194 -195 -196 0
144 160 175 193 194 195 196 0
137 160 175 193 194 195 196 0
137 144 175 193 194 195 196 0
137 144 160 193 194 195 196 0
137 144 160 175 194 195 196 0
137 144 160 175 193 195 196 0
137 144 160 175 193 194 196 0
137 144 160 175 193 194 195 0
-141 -148 -164 0
-141 -148 -179 0
-141 -148 -197 0
-141 -148 -198 0
-141 -148 -199 0
-141 -148 -200 0
-141 -164 -179 0
-141 -164 -197 0
-141 -164 -198 0
-141 -164 -199 0
-141 -164 -200 0
-141 -179 -197 0
-141 -179 -198 0
-141 -179 -199 0
-141 -179 -200 0
-141 -197 -198 0
-141 -197 -199 0
-141 -197 -200 0
-141 -198 -199 0
-141 -198 -200 0
-141 -199 -200 0
-148 -164 -179 0
-148 -164 -197 0
-148 -164 -198 0
-148 -164 -199 0
-148 -164 -200 0
-148 -179 -197 0
-148 -179 -198 0
-148 -179 -199 0
-148 -179 -200 0
-148 -197 -198 0
-148 -197 -199 0
-148 -197 -200 0
-148 -198 -199 0
-148 -198 -200 0
-148 -199 -200 0
-164 -179 -197 0
-164 -179 -198 0
-164 -179 -199 0
-164 -179 -200 0
-164 -197 -198 0
-164 -197 -199 0
-164 -197 -200 0
-164 -198 -199 0
-164 -198 -200 0
-164 -199 -200 0
-179 -197 -198 0
-179 -197 -199 0
-179 -197 -200 0
-179 -198 -199 0
-179 -198 -200 0
-179 -199 -200 0
-197 -198 -199 0
-197 -198 -200 0
-197 -199 -200 0
-198 -199 -200 0
148 164 179 197 198 199 200 0
141 164 179 197 198 199 200 0
141 148 179 197 198 199 200 0
141 148 164 197 198 199 200 0
141 148 164 179 198 199 200 0
141 148 164 179 197 199 200 0
141 148 164 179 197 198 200 0
141 148 164 179 197 198 199 0
-145 -152 -168 0
-145 -152 -183 0
-145 -152 -201 0
-145 -152 -202 0
-145 -152 -203 0
-145 -152 -204 0
-145 -168 -183 0
-145 -168 -201 0
-145 -168 -202 0
-145 -168 -203 0
-145 -168 -204 0
-145 -183 -201 0
-145 -183 -202 0
-145 -183 -203 0
-145 -183 -204 0
-145 -201 -202 0
-145 -201 -203 0
-145 -201 -204 0
-145 -202 -203 0
-145 -202 -204 0
-145 -203 -204 0
-152 -168 -183 0
-152 -168 -201 0
-152 -168 -202 0
-152 -168 -203 0
-152 -168 -204 0
-152 -183 -201 0
-152 -183 -202 0
-152 -183 -203 0
-152 -183 -204 0
-152 -201 -202 0
-152 -201 -203 0
-152 -201 -204 0
-152 -202 -203 0
-152 -202 -204 0
-152 -203 -204 0
-168 -183 -201 0
-168 -183 -202 0
-168 -183 -203 0
-168 -183 -204 0
-168 -201 -202 0
-168 -201 -203 0
-168 -201 -204 0
-168 -202 -203 0
-168 -202 -204 0
-168 -203 -204 0
-183 -201 -202 0
-183 -201 -203 0
-183 -201 -204 0
-183 -202 -203 0
-183 -202 -204 0
-183 -203 -204 0
-201 -202 -203 0
-201 -202 -204 0
-201 -203 -204 0
-202 -203 -204 0
152 168 183 201 202 203 204 0
145 168 183 201 202 203 204 0
145 152 183 201 202 203 204 0
145 152 168 201 202 203 204 0
145 152 168 183 202 203 204 0
145 152 168 183 201 203 204 0
145 152 168 183 201 202 204 0
145 152 168 183 201 202 203 0
-149 -155 -172 0
-149 -155 -184 0
-149 -155 -205 0
-149 -155 -206 0
-149 -155 -207 0
-149 -155 -208 0
-149 -172 -184 0
-149 -172 -205 0
-149 -172 -206 0
-149 -172 -207 0
-149 -172 -208 0
-149 -184 -205 0
-149 -184 -206 0
-149 -184 -207 0
-149 -184 -208 0
-149 -205 -206 0
-149 -205 -207 0
-149 -205 -208 0
-149 -206 -207 0
-149 -206 -208 0
-149 -207 -208 0
-155 -172 -184 0
-155 -172 -205 0
-155 -172 -206 0
-155 -172 -207 0
-155 -172 -208 0
-155 -184 -205 0
-155 -184 -206 0
-155 -184 -207 0
-155 -184 -208 0
-155 -205 -206 0
-155 -205 -207 0
-155 -205 -208 0
-155 -206 -207 0
-155 -206 -208 0
-155 -207 -208 0
-172 -184 -205 0
-172 -184 -206 0
-172 -184 -207 0
-172 -184 -208 0
-172 -205 -206 0
-172 -205 -207 0
-172 -205 -208 0
-172 -206 -207 0
-172 -206 -208 0
-172 -207 -208 0
-184 -205 -206 0
-184 -205 -207 0
-184 -205 -208 0
-184 -206 -207 0
-184 -206 -208 0
-184 -207 -208 0
-205 -206 -207 0
-205 -206 -208 0
-205 -207 -208 0
-206 -207 -208 0
155 172 184 205 206 207 208 0
149 172 184 205 206 207 208 0
149 155 184 205 206 207 208 0
149 155 172 205 206 207 208 0
149 155 172 184 206 207 208 0
149 155 172 184 205 207 208 0
149 155 172 184 205 206 208 0
149 155 172 184 205 206 207 0
-162 -169 -197 0
-166 -173 -186 0
-166 -173 -201 0
-166 -186 -201 0
-173 -186 -201 0
-170 -177 -190 0
-170 -177 -205 0
-170 -190 -205 0
-177 -190 -205 0
-174 -181 -194 0
-1 -14 0
-2 -3 0
-2 -16 0
-2 -19 0
-2 -21 0
-3 -14 0
-3 -16 0
-3 -17 0
-4 -5 0
-4 -18 0
-4 -21 0
-4 -23 0
-4 -25 0
-5 -16 0
-5 -18 0
-5 -20 0
-5 -21 0
-6 -7 0
-6 -22 0
-6 -25 0
-6 -27 0
-6 -29 0
-7 -18 0
-7 -22 0
-7 -24 0
-7 -25 0
-8 -9 0
-8 -26 0
-8 -29 0
-8 -30 0
-8 -32 0
-9 -22 0
-9 -26 0
-9 -28 0
-9 -29 0
-10 -11 0
-10 -32 0
-10 -33 0
-10 -34 0
-11 -26 0
-11 -31 0
-11 -32 0
-12 -34 0
-13 -15 0
-14 -17 0
-14 -19 0
-14 -21 0
-15 -38 0
-15 -40 0
-15 -42 0
-15 -44 0
-16 -19 0
-16 -20 0
-16 -21 0
-16 -23 0
-16 -25 0
-17 -19 0
-17 -21 0
-17 -41 0
-17 -44 0
-17 -46 0
-17 -48 0
-18 -21 0
-18 -23 0
-18 -24 0
-18 -25 0
-18 -27 0
-18 -29 0
-19 -21 0
-19 -38 0
-19 -41 0
-19 -43 0
-19 -44 0
-20 -21 0
-20 -23 0
-20 -25 0
-20 -45 0
-20 -48 0
-20 -50 0
-20 -52 0
-22 -25 0
-22 -27 0
-22 -28 0
-22 -29 0
-22 -30 0
-22 -32 0
-23 -25 0
-23 -41 0
-23 -45 0
-23 -47 0
-23 -48 0
-24 -25 0
-24 -27 0
-24 -29 0
-24 -49 0
-24 -52 0
-24 -54 0
-24 -56 0
-26 -29 0
-26 -30 0
-26 -31 0
-26 -32 0
-26 -33 0
-26 -34 0
-27 -29 0
-27 -45 0
-27 -49 0
-27 -51 0
-27 -52 0
-28 -29 0
-28 -30 0
-28 -32 0
-28 -53 0
-28 -56 0
-28 -58 0
-28 -60 0
-30 -32 0
-30 -49 0
-30 -53 0
-30 -55 0
-30 -56 0
-31 -32 0
-31 -33 0
-31 -34 0
-31 -57 0
-31 -60 0
-31 -62 0
-31 -64 0
-33 -34 0
-33 -53 0
-33 -57 0
-33 -59 0
-33 -60 0
-35 -36 0
-35 -57 0
-35 -61 0
-35 -63 0
-35 -64 0
-37 -39 0
-37 -40 0
-37 -42 0
-37 -44 0
-38 -40 0
-38 -42 0
-38 -43 0
-38 -44 0
-38 -46 0
-38 -48 0
-39 -40 0
-39 -42 0
-39 -44 0
-39 -68 0
-39 -70 0
-39 -72 0
-39 -74 0
-41 -44 0
-41 -46 0
-41 -47 0
-41 -48 0
-41 -50 0
-41 -52 0
-42 -44 0
-42 -67 0
-42 -68 0
-42 -69 0
-42 -70 0
-43 -44 0
-43 -46 0
-43 -48 0
-43 -71 0
-43 -74 0
-43 -76 0
-43 -78 0
-45 -48 0
-45 -50 0
-45 -51 0
-45 -52 0
-45 -54 0
-45 -56 0
-46 -48 0
-46 -68 0
-46 -71 0
-46 -73 0
-46 -74 0
-47 -48 0
-47 -50 0
-47 -52 0
-47 -75 0
-47 -78 0
-47 -80 0
-47 -82 0
-49 -52 0
-49 -54 0
-49 -55 0
-49 -56 0
-49 -58 0
-49 -60 0
-50 -52 0
-50 -71 0
-50 -75 0
-50 -77 0
-50 -78 0
-51 -52 0
-51 -54 0
-51 -56 0
-51 -79 0
-51 -82 0
-51 -84 0
-51 -86 0
-53 -56 0
-53 -58 0
-53 -59 0
-53 -60 0
-53 -62 0
-53 -64 0
-54 -56 0
-54 -75 0
-54 -79 0
-54 -81 0
-54 -82 0
-55 -56 0
-55 -58 0
-55 -60 0
-55 -83 0
-55 -86 0
-55 -88 0
-55 -90 0
-57 -60 0
-57 -62 0
-57 -63 0
-57 -64 0
-57 -65 0
-57 -66 0
-58 -60 0
-58 -79 0
-58 -83 0
-58 -85 0
-58 -86 0
-59 -60 0
-59 -62 0
-59 -64 0
-59 -87 0
-59 -90 0
-59 -92 0
-59 -94 0
-61 -64 0
-61 -65 0
-61 -66 0
-62 -64 0
-62 -83 0
-62 -87 0
-62 -89 0
-62 -90 0
-63 -64 0
-63 -65 0
-63 -66 0
-63 -91 0
-63 -94 0
-63 -95 0
-63 -96 0
-65 -66 0
-65 -87 0
-65 -91 0
-65 -93 0
-65 -94 0
-67 -69 0
-67 -70 0
-67 -72 0
-67 -74 0
-68 -70 0
-68 -72 0
-68 -73 0
-68 -74 0
-68 -76 0
-68 -78 0
-69 -70 0
-69 -72 0
-69 -74 0
-69 -98 0
-69 -100 0
-69 -102 0
-69 -104 0
-71 -74 0
-71 -76 0
-71 -77 0
-71 -78 0
-71 -80 0
-71 -82 0
-72 -74 0
-72 -97 0
-72 -98 0
-72 -99 0
-72 -100 0
-73 -74 0
-73 -76 0
-73 -78 0
-73 -101 0
-73 -104 0
-73 -106 0
-73 -108 0
-75 -78 0
-75 -80 0
-75 -81 0
-75 -82 0
-75 -84 0
-75 -86 0
-76 -78 0
-76 -98 0
-76 -101 0
-76 -103 0
-76 -104 0
-77 -78 0
-77 -80 0
-77 -82 0
-77 -105 0
-77 -108 0
-77 -110 0
-77 -112 0
-79 -82 0
-79 -84 0
-79 -85 0
-79 -86 0
-79 -88 0
-79 -90 0
-80 -82 0
-80 -101 0
-80 -105 0
-80 -107 0
-80 -108 0
-81 -82 0
-81 -84 0
-81 -86 0
-81 -109 0
-81 -112 0
-81 -114 0
-81 -116 0
-83 -86 0
-83 -88 0
-83 -89 0
-83 -90 0
-83 -92 0
-83 -94 0
-84 -86 0
-84 -105 0
-84 -109 0
-84 -111 0
-84 -112 0
-85 -86 0
-85 -88 0
-85 -90 0
-85 -113 0
-85 -116 0
-85 -118 0
-85 -120 0
-87 -90 0
-87 -92 0
-87 -93 0
-87 -94 0
-87 -95 0
-87 -96 0
-88 -90 0
-88 -109 0
-88 -113 0
-88 -115 0
-88 -116 0
-89 -90 0
-89 -92 0
-89 -94 0
-89 -117 0
-89 -120 0
-89 -122 0
-89 -124 0
-91 -94 0
-91 -95 0
-91 -96 0
-92 -94 0
-92 -113 0
-92 -117 0
-92 -119 0
-92 -120 0
-93 -94 0
-93 -95 0
-93 -96 0
-93 -121 0
-93 -124 0
-93 -125 0
-93 -126 0
-95 -96 0
-95 -117 0
-95 -121 0
-95 -123 0
-95 -124 0
-97 -99 0
-97 -100 0
-97 -102 0
-97 -104 0
-98 -100 0
-98 -102 0
-98 -103 0
-98 -104 0
-98 -106 0
-98 -108 0
-99 -100 0
-99 -102 0
-99 -104 0
-99 -128 0
-99 -130 0
-99 -132 0
-99 -134 0
-101 -104 0
-101 -106 0
-101 -107 0
-101 -108 0
-101 -110 0
-101 -112 0
-102 -104 0
-102 -127 0
-102 -128 0
-102 -129 0
-102 -130 0
-103 -104 0
-103 -106 0
-103 -108 0
-103 -131 0
-103 -134 0
-103 -136 0
-103 -138 0
-105 -108 0
-105 -110 0
-105 -111 0
-105 -112 0
-105 -114 0
-105 -116 0
-106 -108 0
-106 -128 0
-106 -131 0
-106 -133 0
-106 -134 0
-107 -108 0
-107 -110 0
-107 -112 0
-107 -135 0
-107 -138 0
-107 -140 0
-107 -142 0
-109 -112 0
-109 -114 0
-109 -115 0
-109 -116 0
-109 -118 0
-109 -120 0
-110 -112 0
-110 -131 0
-110 -135 0
-110 -137 0
-110 -138 0
-111 -112 0
-111 -114 0
-111 -116 0
-111 -139 0
-111 -142 0
-111 -144 0
-111 -146 0
-113 -116 0
-113 -118 0
-113 -119 0
-113 -120 0
-113 -122 0
-113 -124 0
-114 -116 0
-114 -135 0
-114 -139 0
-114 -141 0
-114 -142 0
-115 -116 0
-115 -118 0
-115 -120 0
-115 -143 0
-115 -146 0
-115 -148 0
-115 -150 0
-117 -120 0
-117 -122 0
-117 -123 0
-117 -124 0
-117 -125 0
-117 -126 0
-118 -120 0
-118 -139 0
-118 -143 0
-118 -145 0
-118 -146 0
-119 -120 0
-119 -122 0
-119 -124 0
-119 -147 0
-119 -150 0
-119 -152 0
-119 -154 0
-121 -124 0
-121 -125 0
-121 -126 0
-122 -124 0
-122 -143 0
-122 -147 0
-122 -149 0
-122 -150 0
-123 -124 0
-123 -125 0
-123 -126 0
-123 -151 0
-123 -154 0
-123 -155 0
-123 -156 0
-125 -126 0
-125 -147 0
-125 -151 0
-125 -153 0
-125 -154 0
-127 -129 0
-127 -130 0
-127 -132 0
-127 -134 0
-128 -130 0
-128 -132 0
-128 -133 0
-128 -134 0
-128 -136 0
-128 -138 0
-129 -130 0
-129 -132 0
-129 -134 0
-129 -158 0
-129 -159 0
-129 -161 0
-129 -163 0
-131 -134 0
-131 -136 0
-131 -137 0
-131 -138 0
-131 -140 0
-131 -142 0
-132 -134 0
-132 -157 0
-132 -158 0
-132 -159 0
-133 -134 0
-133 -136 0
-133 -138 0
-133 -160 0
-133 -163 0
-133 -165 0
-133 -167 0
-135 -138 0
-135 -140 0
-135 -141 0
-135 -142 0
-135 -144 0
-135 -146 0
-136 -138 0
-136 -158 0
-136 -160 0
-136 -162 0
-136 -163 0
-137 -138 0
-137 -140 0
-137 -142 0
-137 -164 0
-137 -167 0
-137 -169 0
-137 -171 0
-139 -142 0
-139 -144 0
-139 -145 0
-139 -146 0
-139 -148 0
-139 -150 0
-140 -142 0
-140 -160 0
-140 -164 0
-140 -166 0
-140 -167 0
-141 -142 0
-141 -144 0
-141 -146 0
-141 -168 0
-141 -171 0
-141 -173 0
-141 -175 0
-143 -146 0
-143 -148 0
-143 -149 0
-143 -150 0
-143 -152 0
-143 -154 0
-144 -146 0
-144 -164 0
-144 -168 0
-144 -170 0
-144 -171 0
-145 -146 0
-145 -148 0
-145 -150 0
-145 -172 0
-145 -175 0
-145 -177 0
-145 -179 0
-147 -150 0
-147 -152 0
-147 -153 0
-147 -154 0
-147 -155 0
-147 -156 0
-148 -150 0
-148 -168 0
-148 -172 0
-148 -174 0
-148 -175 0
-149 -150 0
-149 -152 0
-149 -154 0
-149 -176 0
-149 -179 0
-149 -181 0
-149 -183 0
-151 -154 0
-151 -155 0
-151 -156 0
-152 -154 0
-152 -172 0
-152 -176 0
-152 -178 0
-152 -179 0
-153 -154 0
-153 -155 0
-153 -156 0
-153 -180 0
-153 -183 0
-153 -184 0
-155 -156 0
-155 -176 0
-155 -180 0
-155 -182 0
-155 -183 0
-157 -159 0
-157 -161 0
-157 -163 0
-158 -159 0
-158 -161 0
-158 -162 0
-158 -163 0
-158 -165 0
-158 -167 0
-160 -163 0
-160 -165 0
-160 -166 0
-160 -167 0
-160 -169 0
-160 -171 0
-161 -163 0
-161 -185 0
-162 -163 0
-162 -165 0
-162 -167 0
-162 -186 0
-162 -189 0
-162 -191 0
-162 -193 0
-164 -167 0
-164 -169 0
-164 -170 0
-164 -171 0
-164 -173 0
-164 -175 0
-165 -167 0
-165 -186 0
-165 -188 0
-165 -189 0
-166 -167 0
-166 -169 0
-166 -171 0
-166 -190 0
-166 -193 0
-166 -195 0
-166 -197 0
-168 -171 0
-168 -173 0
-168 -174 0
-168 -175 0
-168 -177 0
-168 -179 0
-169 -171 0
-169 -186 0
-169 -190 0
-169 -192 0
-169 -193 0
-170 -171 0
-170 -173 0
-170 -175 0
-170 -194 0
-170 -197 0
-170 -199 0
-170 -201 0
-172 -175 0
-172 -177 0
-172 -178 0
-172 -179 0
-172 -181 0
-172 -183 0
-173 -175 0
-173 -190 0
-173 -194 0
-173 -196 0
-173 -197 0
-174 -175 0
-174 -177 0
-174 -179 0
-174 -198 0
-174 -201 0
-174 -203 0
-174 -205 0
-176 -179 0
-176 -181 0
-176 -182 0
-176 -183 0
-176 -184 0
-177 -179 0
-177 -194 0
-177 -198 0
-177 -200 0
-177 -201 0
-178 -179 0
-178 -181 0
-178 -183 0
-178 -202 0
-178 -205 0
-178 -207 0
-180 -183 0
-180 -184 0
-181 -183 0
-181 -198 0
-181 -202 0
-181 -204 0
-181 -205 0
-182 -183 0
-182 -184 0
-182 -206 0
-186 -189 0
-186 -191 0
-186 -192 0
-186 -193 0
-186 -195 0
-186 -197 0
-187 -189 0
-188 -189 0
-188 -191 0
-188 -193 0
-190 -193 0
-190 -195 0
-190 -196 0
-190 -197 0
-190 -199 0
-190 -201 0
-191 -193 0
-192 -193 0
-192 -195 0
-192 -197 0
-194 -197 0
-194 -199 0
-194 -200 0
-194 -201 0
-194 -203 0
-194 -205 0
-195 -197 0
-196 -197 0
-196 -199 0
-196 -201 0
-198 -201 0
-198 -203 0
-198 -204 0
-198 -205 0
-198 -207 0
-199 -201 0
-200 -201 0
-200 -203 0
-200 -205 0
-202 -205 0
-202 -207 0
-202 -208 0
-203 -205 0
-204 -205 0
-204 -207 0
-139 0
-118 0
-146 0
-145 0
