p cnf 6356 17540
-1 -2 -3 0
-1 -2 -4 0
-1 -3 -4 0
-2 -3 -4 0
2 3 4 0
1 3 4 0
1 2 4 0
1 2 3 0
-5 -6 -7 0
-5 -6 -8 0
-5 -7 -8 0
-6 -7 -8 0
6 7 8 0
5 7 8 0
5 6 8 0
5 6 7 0
-9 -10 -11 0
-9 -10 -12 0
-9 -11 -12 0
-10 -11 -12 0
10 11 12 0
9 11 12 0
9 10 12 0
9 10 11 0
-13 -14 -15 0
-13 -14 -16 0
-13 -15 -16 0
-14 -15 -16 0
14 15 16 0
13 15 16 0
13 14 16 0
13 14 15 0
-17 -18 -19 0
-17 -18 -20 0
-17 -19 -20 0
-18 -19 -20 0
18 19 20 0
17 19 20 0
17 18 20 0
17 18 19 0
-21 -22 -23 0
-21 -22 -24 0
-21 -23 -24 0
-22 -23 -24 0
22 23 24 0
21 23 24 0
21 22 24 0
21 22 23 0
-25 -26 -27 0
-25 -26 -28 0
-25 -27 -28 0
-26 -27 -28 0
26 27 28 0
25 27 28 0
25 26 28 0
25 26 27 0
-29 -30 -31 0
-29 -30 -32 0
-29 -31 -32 0
-30 -31 -32 0
30 31 32 0
29 31 32 0
29 30 32 0
29 30 31 0
-33 -34 -35 0
-33 -34 -36 0
-33 -35 -36 0
-34 -35 -36 0
34 35 36 0
33 35 36 0
33 34 36 0
33 34 35 0
-37 -38 -39 0
-37 -38 -40 0
-37 -39 -40 0
-38 -39 -40 0
38 39 40 0
37 39 40 0
37 38 40 0
37 38 39 0
-10 -33 -41 0
-10 -33 -42 0
-10 -33 -43 0
-10 -33 -44 0
-10 -41 -42 0
-10 -41 -43 0
-10 -41 -44 0
-10 -42 -43 0
-10 -42 -44 0
-10 -43 -44 0
-33 -41 -42 0
-33 -41 -43 0
-33 -41 -44 0
-33 -42 -43 0
-33 -42 -44 0
-33 -43 -44 0
-41 -42 -43 0
-41 -42 -44 0
-41 -43 -44 0
-42 -43 -44 0
33 41 42 43 44 0
10 41 42 43 44 0
10 33 42 43 44 0
10 33 41 43 44 0
10 33 41 42 44 0
10 33 41 42 43 0
-14 -37 -45 0
-14 -37 -46 0
-14 -37 -47 0
-14 -37 -48 0
-14 -45 -46 0
-14 -45 -47 0
-14 -45 -48 0
-14 -46 -47 0
-14 -46 -48 0
-14 -47 -48 0
-37 -45 -46 0
-37 -45 -47 0
-37 -45 -48 0
-37 -46 -47 0
-37 -46 -48 0
-37 -47 -48 0
-45 -46 -47 0
-45 -46 -48 0
-45 -47 -48 0
-46 -47 -48 0
37 45 46 47 48 0
14 45 46 47 48 0
14 37 46 47 48 0
14 37 45 47 48 0
14 37 45 46 48 0
14 37 45 46 47 0
-1 -18 -49 0
-1 -18 -50 0
-1 -18 -51 0
-1 -18 -52 0
-1 -49 -50 0
-1 -49 -51 0
-1 -49 -52 0
-1 -50 -51 0
-1 -50 -52 0
-1 -51 -52 0
-18 -49 -50 0
-18 -49 -51 0
-18 -49 -52 0
-18 -50 -51 0
-18 -50 -52 0
-18 -51 -52 0
-49 -50 -51 0
-49 -50 -52 0
-49 -51 -52 0
-50 -51 -52 0
18 49 50 51 52 0
1 49 50 51 52 0
1 18 50 51 52 0
1 18 49 51 52 0
1 18 49 50 52 0
1 18 49 50 51 0
-5 -22 -53 0
-5 -22 -54 0
-5 -22 -55 0
-5 -22 -56 0
-5 -53 -54 0
-5 -53 -55 0
-5 -53 -56 0
-5 -54 -55 0
-5 -54 -56 0
-5 -55 -56 0
-22 -53 -54 0
-22 -53 -55 0
-22 -53 -56 0
-22 -54 -55 0
-22 -54 -56 0
-22 -55 -56 0
-53 -54 -55 0
-53 -54 -56 0
-53 -55 -56 0
-54 -55 -56 0
22 53 54 55 56 0
5 53 54 55 56 0
5 22 54 55 56 0
5 22 53 55 56 0
5 22 53 54 56 0
5 22 53 54 55 0
-9 -26 -57 0
-9 -26 -58 0
-9 -26 -59 0
-9 -26 -60 0
-9 -57 -58 0
-9 -57 -59 0
-9 -57 -60 0
-9 -58 -59 0
-9 -58 -60 0
-9 -59 -60 0
-26 -57 -58 0
-26 -57 -59 0
-26 -57 -60 0
-26 -58 -59 0
-26 -58 -60 0
-26 -59 -60 0
-57 -58 -59 0
-57 -58 -60 0
-57 -59 -60 0
-58 -59 -60 0
26 57 58 59 60 0
9 57 58 59 60 0
9 26 58 59 60 0
9 26 57 59 60 0
9 26 57 58 60 0
9 26 57 58 59 0
-13 -30 -61 0
-13 -30 -62 0
-13 -30 -63 0
-13 -30 -64 0
-13 -61 -62 0
-13 -61 -63 0
-13 -61 -64 0
-13 -62 -63 0
-13 -62 -64 0
-13 -63 -64 0
-30 -61 -62 0
-30 -61 -63 0
-30 -61 -64 0
-30 -62 -63 0
-30 -62 -64 0
-30 -63 -64 0
-61 -62 -63 0
-61 -62 -64 0
-61 -63 -64 0
-62 -63 -64 0
30 61 62 63 64 0
13 61 62 63 64 0
13 30 62 63 64 0
13 30 61 63 64 0
13 30 61 62 64 0
13 30 61 62 63 0
-17 -34 -65 0
-17 -34 -66 0
-17 -34 -67 0
-17 -34 -68 0
-17 -65 -66 0
-17 -65 -67 0
-17 -65 -68 0
-17 -66 -67 0
-17 -66 -68 0
-17 -67 -68 0
-34 -65 -66 0
-34 -65 -67 0
-34 -65 -68 0
-34 -66 -67 0
-34 -66 -68 0
-34 -67 -68 0
-65 -66 -67 0
-65 -66 -68 0
-65 -67 -68 0
-66 -67 -68 0
34 65 66 67 68 0
17 65 66 67 68 0
17 34 66 67 68 0
17 34 65 67 68 0
17 34 65 66 68 0
17 34 65 66 67 0
-21 -38 -69 0
-21 -38 -70 0
-21 -38 -71 0
-21 -38 -72 0
-21 -69 -70 0
-21 -69 -71 0
-21 -69 -72 0
-21 -70 -71 0
-21 -70 -72 0
-21 -71 -72 0
-38 -69 -70 0
-38 -69 -71 0
-38 -69 -72 0
-38 -70 -71 0
-38 -70 -72 0
-38 -71 -72 0
-69 -70 -71 0
-69 -70 -72 0
-69 -71 -72 0
-70 -71 -72 0
38 69 70 71 72 0
21 69 70 71 72 0
21 38 70 71 72 0
21 38 69 71 72 0
21 38 69 70 72 0
21 38 69 70 71 0
-2 -25 -73 0
-2 -25 -74 0
-2 -25 -75 0
-2 -25 -76 0
-2 -73 -74 0
-2 -73 -75 0
-2 -73 -76 0
-2 -74 -75 0
-2 -74 -76 0
-2 -75 -76 0
-25 -73 -74 0
-25 -73 -75 0
-25 -73 -76 0
-25 -74 -75 0
-25 -74 -76 0
-25 -75 -76 0
-73 -74 -75 0
-73 -74 -76 0
-73 -75 -76 0
-74 -75 -76 0
25 73 74 75 76 0
2 73 74 75 76 0
2 25 74 75 76 0
2 25 73 75 76 0
2 25 73 74 76 0
2 25 73 74 75 0
-6 -29 -77 0
-6 -29 -78 0
-6 -29 -79 0
-6 -29 -80 0
-6 -77 -78 0
-6 -77 -79 0
-6 -77 -80 0
-6 -78 -79 0
-6 -78 -80 0
-6 -79 -80 0
-29 -77 -78 0
-29 -77 -79 0
-29 -77 -80 0
-29 -78 -79 0
-29 -78 -80 0
-29 -79 -80 0
-77 -78 -79 0
-77 -78 -80 0
-77 -79 -80 0
-78 -79 -80 0
29 77 78 79 80 0
6 77 78 79 80 0
6 29 78 79 80 0
6 29 77 79 80 0
6 29 77 78 80 0
6 29 77 78 79 0
-8 -39 -50 0
-8 -39 -73 0
-8 -39 -81 0
-8 -39 -82 0
-8 -39 -83 0
-8 -39 -84 0
-8 -50 -73 0
-8 -50 -81 0
-8 -50 -82 0
-8 -50 -83 0
-8 -50 -84 0
-8 -73 -81 0
-8 -73 -82 0
-8 -73 -83 0
-8 -73 -84 0
-8 -81 -82 0
-8 -81 -83 0
-8 -81 -84 0
-8 -82 -83 0
-8 -82 -84 0
-8 -83 -84 0
-39 -50 -73 0
-39 -50 -81 0
-39 -50 -82 0
-39 -50 -83 0
-39 -50 -84 0
-39 -73 -81 0
-39 -73 -82 0
-39 -73 -83 0
-39 -73 -84 0
-39 -81 -82 0
-39 -81 -83 0
-39 -81 -84 0
-39 -82 -83 0
-39 -82 -84 0
-39 -83 -84 0
-50 -73 -81 0
-50 -73 -82 0
-50 -73 -83 0
-50 -73 -84 0
-50 -81 -82 0
-50 -81 -83 0
-50 -81 -84 0
-50 -82 -83 0
-50 -82 -84 0
-50 -83 -84 0
-73 -81 -82 0
-73 -81 -83 0
-73 -81 -84 0
-73 -82 -83 0
-73 -82 -84 0
-73 -83 -84 0
-81 -82 -83 0
-81 -82 -84 0
-81 -83 -84 0
-82 -83 -84 0
39 50 73 81 82 83 84 0
8 50 73 81 82 83 84 0
8 39 73 81 82 83 84 0
8 39 50 81 82 83 84 0
8 39 50 73 82 83 84 0
8 39 50 73 81 83 84 0
8 39 50 73 81 82 84 0
8 39 50 73 81 82 83 0
-3 -12 -54 0
-3 -12 -77 0
-3 -12 -85 0
-3 -12 -86 0
-3 -12 -87 0
-3 -12 -88 0
-3 -54 -77 0
-3 -54 -85 0
-3 -54 -86 0
-3 -54 -87 0
-3 -54 -88 0
-3 -77 -85 0
-3 -77 -86 0
-3 -77 -87 0
-3 -77 -88 0
-3 -85 -86 0
-3 -85 -87 0
-3 -85 -88 0
-3 -86 -87 0
-3 -86 -88 0
-3 -87 -88 0
-12 -54 -77 0
-12 -54 -85 0
-12 -54 -86 0
-12 -54 -87 0
-12 -54 -88 0
-12 -77 -85 0
-12 -77 -86 0
-12 -77 -87 0
-12 -77 -88 0
-12 -85 -86 0
-12 -85 -87 0
-12 -85 -88 0
-12 -86 -87 0
-12 -86 -88 0
-12 -87 -88 0
-54 -77 -85 0
-54 -77 -86 0
-54 -77 -87 0
-54 -77 -88 0
-54 -85 -86 0
-54 -85 -87 0
-54 -85 -88 0
-54 -86 -87 0
-54 -86 -88 0
-54 -87 -88 0
-77 -85 -86 0
-77 -85 -87 0
-77 -85 -88 0
-77 -86 -87 0
-77 -86 -88 0
-77 -87 -88 0
-85 -86 -87 0
-85 -86 -88 0
-85 -87 -88 0
-86 -87 -88 0
12 54 77 85 86 87 88 0
3 54 77 85 86 87 88 0
3 12 77 85 86 87 88 0
3 12 54 85 86 87 88 0
3 12 54 77 86 87 88 0
3 12 54 77 85 87 88 0
3 12 54 77 85 86 88 0
3 12 54 77 85 86 87 0
-7 -16 -41 0
-7 -16 -58 0
-7 -16 -89 0
-7 -16 -90 0
-7 -16 -91 0
-7 -16 -92 0
-7 -41 -58 0
-7 -41 -89 0
-7 -41 -90 0
-7 -41 -91 0
-7 -41 -92 0
-7 -58 -89 0
-7 -58 -90 0
-7 -58 -91 0
-7 -58 -92 0
-7 -89 -90 0
-7 -89 -91 0
-7 -89 -92 0
-7 -90 -91 0
-7 -90 -92 0
-7 -91 -92 0
-16 -41 -58 0
-16 -41 -89 0
-16 -41 -90 0
-16 -41 -91 0
-16 -41 -92 0
-16 -58 -89 0
-16 -58 -90 0
-16 -58 -91 0
-16 -58 -92 0
-16 -89 -90 0
-16 -89 -91 0
-16 -89 -92 0
-16 -90 -91 0
-16 -90 -92 0
-16 -91 -92 0
-41 -58 -89 0
-41 -58 -90 0
-41 -58 -91 0
-41 -58 -92 0
-41 -89 -90 0
-41 -89 -91 0
-41 -89 -92 0
-41 -90 -91 0
-41 -90 -92 0
-41 -91 -92 0
-58 -89 -90 0
-58 -89 -91 0
-58 -89 -92 0
-58 -90 -91 0
-58 -90 -92 0
-58 -91 -92 0
-89 -90 -91 0
-89 -90 -92 0
-89 -91 -92 0
-90 -91 -92 0
16 41 58 89 90 91 92 0
7 41 58 89 90 91 92 0
7 16 58 89 90 91 92 0
7 16 41 89 90 91 92 0
7 16 41 58 90 91 92 0
7 16 41 58 89 91 92 0
7 16 41 58 89 90 92 0
7 16 41 58 89 90 91 0
-11 -20 -45 0
-11 -20 -62 0
-11 -20 -93 0
-11 -20 -94 0
-11 -20 -95 0
-11 -20 -96 0
-11 -45 -62 0
-11 -45 -93 0
-11 -45 -94 0
-11 -45 -95 0
-11 -45 -96 0
-11 -62 -93 0
-11 -62 -94 0
-11 -62 -95 0
-11 -62 -96 0
-11 -93 -94 0
-11 -93 -95 0
-11 -93 -96 0
-11 -94 -95 0
-11 -94 -96 0
-11 -95 -96 0
-20 -45 -62 0
-20 -45 -93 0
-20 -45 -94 0
-20 -45 -95 0
-20 -45 -96 0
-20 -62 -93 0
-20 -62 -94 0
-20 -62 -95 0
-20 -62 -96 0
-20 -93 -94 0
-20 -93 -95 0
-20 -93 -96 0
-20 -94 -95 0
-20 -94 -96 0
-20 -95 -96 0
-45 -62 -93 0
-45 -62 -94 0
-45 -62 -95 0
-45 -62 -96 0
-45 -93 -94 0
-45 -93 -95 0
-45 -93 -96 0
-45 -94 -95 0
-45 -94 -96 0
-45 -95 -96 0
-62 -93 -94 0
-62 -93 -95 0
-62 -93 -96 0
-62 -94 -95 0
-62 -94 -96 0
-62 -95 -96 0
-93 -94 -95 0
-93 -94 -96 0
-93 -95 -96 0
-94 -95 -96 0
20 45 62 93 94 95 96 0
11 45 62 93 94 95 96 0
11 20 62 93 94 95 96 0
11 20 45 93 94 95 96 0
11 20 45 62 94 95 96 0
11 20 45 62 93 95 96 0
11 20 45 62 93 94 96 0
11 20 45 62 93 94 95 0
-15 -24 -49 0
-15 -24 -66 0
-15 -24 -97 0
-15 -24 -98 0
-15 -24 -99 0
-15 -24 -100 0
-15 -49 -66 0
-15 -49 -97 0
-15 -49 -98 0
-15 -49 -99 0
-15 -49 -100 0
-15 -66 -97 0
-15 -66 -98 0
-15 -66 -99 0
-15 -66 -100 0
-15 -97 -98 0
-15 -97 -99 0
-15 -97 -100 0
-15 -98 -99 0
-15 -98 -100 0
-15 -99 -100 0
-24 -49 -66 0
-24 -49 -97 0
-24 -49 -98 0
-24 -49 -99 0
-24 -49 -100 0
-24 -66 -97 0
-24 -66 -98 0
-24 -66 -99 0
-24 -66 -100 0
-24 -97 -98 0
-24 -97 -99 0
-24 -97 -100 0
-24 -98 -99 0
-24 -98 -100 0
-24 -99 -100 0
-49 -66 -97 0
-49 -66 -98 0
-49 -66 -99 0
-49 -66 -100 0
-49 -97 -98 0
-49 -97 -99 0
-49 -97 -100 0
-49 -98 -99 0
-49 -98 -100 0
-49 -99 -100 0
-66 -97 -98 0
-66 -97 -99 0
-66 -97 -100 0
-66 -98 -99 0
-66 -98 -100 0
-66 -99 -100 0
-97 -98 -99 0
-97 -98 -100 0
-97 -99 -100 0
-98 -99 -100 0
24 49 66 97 98 99 100 0
15 49 66 97 98 99 100 0
15 24 66 97 98 99 100 0
15 24 49 97 98 99 100 0
15 24 49 66 98 99 100 0
15 24 49 66 97 99 100 0
15 24 49 66 97 98 100 0
15 24 49 66 97 98 99 0
-19 -28 -53 0
-19 -28 -70 0
-19 -28 -101 0
-19 -28 -102 0
-19 -28 -103 0
-19 -28 -104 0
-19 -53 -70 0
-19 -53 -101 0
-19 -53 -102 0
-19 -53 -103 0
-19 -53 -104 0
-19 -70 -101 0
-19 -70 -102 0
-19 -70 -103 0
-19 -70 -104 0
-19 -101 -102 0
-19 -101 -103 0
-19 -101 -104 0
-19 -102 -103 0
-19 -102 -104 0
-19 -103 -104 0
-28 -53 -70 0
-28 -53 -101 0
-28 -53 -102 0
-28 -53 -103 0
-28 -53 -104 0
-28 -70 -101 0
-28 -70 -102 0
-28 -70 -103 0
-28 -70 -104 0
-28 -101 -102 0
-28 -101 -103 0
-28 -101 -104 0
-28 -102 -103 0
-28 -102 -104 0
-28 -103 -104 0
-53 -70 -101 0
-53 -70 -102 0
-53 -70 -103 0
-53 -70 -104 0
-53 -101 -102 0
-53 -101 -103 0
-53 -101 -104 0
-53 -102 -103 0
-53 -102 -104 0
-53 -103 -104 0
-70 -101 -102 0
-70 -101 -103 0
-70 -101 -104 0
-70 -102 -103 0
-70 -102 -104 0
-70 -103 -104 0
-101 -102 -103 0
-101 -102 -104 0
-101 -103 -104 0
-102 -103 -104 0
28 53 70 101 102 103 104 0
19 53 70 101 102 103 104 0
19 28 70 101 102 103 104 0
19 28 53 101 102 103 104 0
19 28 53 70 102 103 104 0
19 28 53 70 101 103 104 0
19 28 53 70 101 102 104 0
19 28 53 70 101 102 103 0
-23 -32 -57 0
-23 -32 -74 0
-23 -32 -105 0
-23 -32 -106 0
-23 -32 -107 0
-23 -32 -108 0
-23 -57 -74 0
-23 -57 -105 0
-23 -57 -106 0
-23 -57 -107 0
-23 -57 -108 0
-23 -74 -105 0
-23 -74 -106 0
-23 -74 -107 0
-23 -74 -108 0
-23 -105 -106 0
-23 -105 -107 0
-23 -105 -108 0
-23 -106 -107 0
-23 -106 -108 0
-23 -107 -108 0
-32 -57 -74 0
-32 -57 -105 0
-32 -57 -106 0
-32 -57 -107 0
-32 -57 -108 0
-32 -74 -105 0
-32 -74 -106 0
-32 -74 -107 0
-32 -74 -108 0
-32 -105 -106 0
-32 -105 -107 0
-32 -105 -108 0
-32 -106 -107 0
-32 -106 -108 0
-32 -107 -108 0
-57 -74 -105 0
-57 -74 -106 0
-57 -74 -107 0
-57 -74 -108 0
-57 -105 -106 0
-57 -105 -107 0
-57 -105 -108 0
-57 -106 -107 0
-57 -106 -108 0
-57 -107 -108 0
-74 -105 -106 0
-74 -105 -107 0
-74 -105 -108 0
-74 -106 -107 0
-74 -106 -108 0
-74 -107 -108 0
-105 -106 -107 0
-105 -106 -108 0
-105 -107 -108 0
-106 -107 -108 0
32 57 74 105 106 107 108 0
23 57 74 105 106 107 108 0
23 32 74 105 106 107 108 0
23 32 57 105 106 107 108 0
23 32 57 74 106 107 108 0
23 32 57 74 105 107 108 0
23 32 57 74 105 106 108 0
23 32 57 74 105 106 107 0
-27 -36 -61 0
-27 -36 -78 0
-27 -36 -109 0
-27 -36 -110 0
-27 -36 -111 0
-27 -36 -112 0
-27 -61 -78 0
-27 -61 -109 0
-27 -61 -110 0
-27 -61 -111 0
-27 -61 -112 0
-27 -78 -109 0
-27 -78 -110 0
-27 -78 -111 0
-27 -78 -112 0
-27 -109 -110 0
-27 -109 -111 0
-27 -109 -112 0
-27 -110 -111 0
-27 -110 -112 0
-27 -111 -112 0
-36 -61 -78 0
-36 -61 -109 0
-36 -61 -110 0
-36 -61 -111 0
-36 -61 -112 0
-36 -78 -109 0
-36 -78 -110 0
-36 -78 -111 0
-36 -78 -112 0
-36 -109 -110 0
-36 -109 -111 0
-36 -109 -112 0
-36 -110 -111 0
-36 -110 -112 0
-36 -111 -112 0
-61 -78 -109 0
-61 -78 -110 0
-61 -78 -111 0
-61 -78 -112 0
-61 -109 -110 0
-61 -109 -111 0
-61 -109 -112 0
-61 -110 -111 0
-61 -110 -112 0
-61 -111 -112 0
-78 -109 -110 0
-78 -109 -111 0
-78 -109 -112 0
-78 -110 -111 0
-78 -110 -112 0
-78 -111 -112 0
-109 -110 -111 0
-109 -110 -112 0
-109 -111 -112 0
-110 -111 -112 0
36 61 78 109 110 111 112 0
27 61 78 109 110 111 112 0
27 36 78 109 110 111 112 0
27 36 61 109 110 111 112 0
27 36 61 78 110 111 112 0
27 36 61 78 109 111 112 0
27 36 61 78 109 110 112 0
27 36 61 78 109 110 111 0
-31 -40 -42 0
-31 -40 -65 0
-31 -40 -113 0
-31 -40 -114 0
-31 -40 -115 0
-31 -40 -116 0
-31 -42 -65 0
-31 -42 -113 0
-31 -42 -114 0
-31 -42 -115 0
-31 -42 -116 0
-31 -65 -113 0
-31 -65 -114 0
-31 -65 -115 0
-31 -65 -116 0
-31 -113 -114 0
-31 -113 -115 0
-31 -113 -116 0
-31 -114 -115 0
-31 -114 -116 0
-31 -115 -116 0
-40 -42 -65 0
-40 -42 -113 0
-40 -42 -114 0
-40 -42 -115 0
-40 -42 -116 0
-40 -65 -113 0
-40 -65 -114 0
-40 -65 -115 0
-40 -65 -116 0
-40 -113 -114 0
-40 -113 -115 0
-40 -113 -116 0
-40 -114 -115 0
-40 -114 -116 0
-40 -115 -116 0
-42 -65 -113 0
-42 -65 -114 0
-42 -65 -115 0
-42 -65 -116 0
-42 -113 -114 0
-42 -113 -115 0
-42 -113 -116 0
-42 -114 -115 0
-42 -114 -116 0
-42 -115 -116 0
-65 -113 -114 0
-65 -113 -115 0
-65 -113 -116 0
-65 -114 -115 0
-65 -114 -116 0
-65 -115 -116 0
-113 -114 -115 0
-113 -114 -116 0
-113 -115 -116 0
-114 -115 -116 0
40 42 65 113 114 115 116 0
31 42 65 113 114 115 116 0
31 40 65 113 114 115 116 0
31 40 42 113 114 115 116 0
31 40 42 65 114 115 116 0
31 40 42 65 113 115 116 0
31 40 42 65 113 114 116 0
31 40 42 65 113 114 115 0
-4 -35 -46 0
-4 -35 -69 0
-4 -35 -117 0
-4 -35 -118 0
-4 -35 -119 0
-4 -35 -120 0
-4 -46 -69 0
-4 -46 -117 0
-4 -46 -118 0
-4 -46 -119 0
-4 -46 -120 0
-4 -69 -117 0
-4 -69 -118 0
-4 -69 -119 0
-4 -69 -120 0
-4 -117 -118 0
-4 -117 -119 0
-4 -117 -120 0
-4 -118 -119 0
-4 -118 -120 0
-4 -119 -120 0
-35 -46 -69 0
-35 -46 -117 0
-35 -46 -118 0
-35 -46 -119 0
-35 -46 -120 0
-35 -69 -117 0
-35 -69 -118 0
-35 -69 -119 0
-35 -69 -120 0
-35 -117 -118 0
-35 -117 -119 0
-35 -117 -120 0
-35 -118 -119 0
-35 -118 -120 0
-35 -119 -120 0
-46 -69 -117 0
-46 -69 -118 0
-46 -69 -119 0
-46 -69 -120 0
-46 -117 -118 0
-46 -117 -119 0
-46 -117 -120 0
-46 -118 -119 0
-46 -118 -120 0
-46 -119 -120 0
-69 -117 -118 0
-69 -117 -119 0
-69 -117 -120 0
-69 -118 -119 0
-69 -118 -120 0
-69 -119 -120 0
-117 -118 -119 0
-117 -118 -120 0
-117 -119 -120 0
-118 -119 -120 0
35 46 69 117 118 119 120 0
4 46 69 117 118 119 120 0
4 35 69 117 118 119 120 0
4 35 46 117 118 119 120 0
4 35 46 69 118 119 120 0
4 35 46 69 117 119 120 0
4 35 46 69 117 118 120 0
4 35 46 69 117 118 119 0
-48 -79 -90 0
-48 -79 -113 0
-48 -79 -121 0
-48 -79 -122 0
-48 -79 -123 0
-48 -79 -124 0
-48 -90 -113 0
-48 -90 -121 0
-48 -90 -122 0
-48 -90 -123 0
-48 -90 -124 0
-48 -113 -121 0
-48 -113 -122 0
-48 -113 -123 0
-48 -113 -124 0
-48 -121 -122 0
-48 -121 -123 0
-48 -121 -124 0
-48 -122 -123 0
-48 -122 -124 0
-48 -123 -124 0
-79 -90 -113 0
-79 -90 -121 0
-79 -90 -122 0
-79 -90 -123 0
-79 -90 -124 0
-79 -113 -121 0
-79 -113 -122 0
-79 -113 -123 0
-79 -113 -124 0
-79 -121 -122 0
-79 -121 -123 0
-79 -121 -124 0
-79 -122 -123 0
-79 -122 -124 0
-79 -123 -124 0
-90 -113 -121 0
-90 -113 -122 0
-90 -113 -123 0
-90 -113 -124 0
-90 -121 -122 0
-90 -121 -123 0
-90 -121 -124 0
-90 -122 -123 0
-90 -122 -124 0
-90 -123 -124 0
-113 -121 -122 0
-113 -121 -123 0
-113 -121 -124 0
-113 -122 -123 0
-113 -122 -124 0
-113 -123 -124 0
-121 -122 -123 0
-121 -122 -124 0
-121 -123 -124 0
-122 -123 -124 0
79 90 113 121 122 123 124 0
48 90 113 121 122 123 124 0
48 79 113 121 122 123 124 0
48 79 90 121 122 123 124 0
48 79 90 113 122 123 124 0
48 79 90 113 121 123 124 0
48 79 90 113 121 122 124 0
48 79 90 113 121 122 123 0
-43 -52 -94 0
-43 -52 -117 0
-43 -52 -125 0
-43 -52 -126 0
-43 -52 -127 0
-43 -52 -128 0
-43 -94 -117 0
-43 -94 -125 0
-43 -94 -126 0
-43 -94 -127 0
-43 -94 -128 0
-43 -117 -125 0
-43 -117 -126 0
-43 -117 -127 0
-43 -117 -128 0
-43 -125 -126 0
-43 -125 -127 0
-43 -125 -128 0
-43 -126 -127 0
-43 -126 -128 0
-43 -127 -128 0
-52 -94 -117 0
-52 -94 -125 0
-52 -94 -126 0
-52 -94 -127 0
-52 -94 -128 0
-52 -117 -125 0
-52 -117 -126 0
-52 -117 -127 0
-52 -117 -128 0
-52 -125 -126 0
-52 -125 -127 0
-52 -125 -128 0
-52 -126 -127 0
-52 -126 -128 0
-52 -127 -128 0
-94 -117 -125 0
-94 -117 -126 0
-94 -117 -127 0
-94 -117 -128 0
-94 -125 -126 0
-94 -125 -127 0
-94 -125 -128 0
-94 -126 -127 0
-94 -126 -128 0
-94 -127 -128 0
-117 -125 -126 0
-117 -125 -127 0
-117 -125 -128 0
-117 -126 -127 0
-117 -126 -128 0
-117 -127 -128 0
-125 -126 -127 0
-125 -126 -128 0
-125 -127 -128 0
-126 -127 -128 0
52 94 117 125 126 127 128 0
43 94 117 125 126 127 128 0
43 52 117 125 126 127 128 0
43 52 94 125 126 127 128 0
43 52 94 117 126 127 128 0
43 52 94 117 125 127 128 0
43 52 94 117 125 126 128 0
43 52 94 117 125 126 127 0
-47 -56 -81 0
-47 -56 -98 0
-47 -56 -129 0
-47 -56 -130 0
-47 -56 -131 0
-47 -56 -132 0
-47 -81 -98 0
-47 -81 -129 0
-47 -81 -130 0
-47 -81 -131 0
-47 -81 -132 0
-47 -98 -129 0
-47 -98 -130 0
-47 -98 -131 0
-47 -98 -132 0
-47 -129 -130 0
-47 -129 -131 0
-47 -129 -132 0
-47 -130 -131 0
-47 -130 -132 0
-47 -131 -132 0
-56 -81 -98 0
-56 -81 -129 0
-56 -81 -130 0
-56 -81 -131 0
-56 -81 -132 0
-56 -98 -129 0
-56 -98 -130 0
-56 -98 -131 0
-56 -98 -132 0
-56 -129 -130 0
-56 -129 -131 0
-56 -129 -132 0
-56 -130 -131 0
-56 -130 -132 0
-56 -131 -132 0
-81 -98 -129 0
-81 -98 -130 0
-81 -98 -131 0
-81 -98 -132 0
-81 -129 -130 0
-81 -129 -131 0
-81 -129 -132 0
-81 -130 -131 0
-81 -130 -132 0
-81 -131 -132 0
-98 -129 -130 0
-98 -129 -131 0
-98 -129 -132 0
-98 -130 -131 0
-98 -130 -132 0
-98 -131 -132 0
-129 -130 -131 0
-129 -130 -132 0
-129 -131 -132 0
-130 -131 -132 0
56 81 98 129 130 131 132 0
47 81 98 129 130 131 132 0
47 56 98 129 130 131 132 0
47 56 81 129 130 131 132 0
47 56 81 98 130 131 132 0
47 56 81 98 129 131 132 0
47 56 81 98 129 130 132 0
47 56 81 98 129 130 131 0
-51 -60 -85 0
-51 -60 -102 0
-51 -60 -133 0
-51 -60 -134 0
-51 -60 -135 0
-51 -60 -136 0
-51 -85 -102 0
-51 -85 -133 0
-51 -85 -134 0
-51 -85 -135 0
-51 -85 -136 0
-51 -102 -133 0
-51 -102 -134 0
-51 -102 -135 0
-51 -102 -136 0
-51 -133 -134 0
-51 -133 -135 0
-51 -133 -136 0
-51 -134 -135 0
-51 -134 -136 0
-51 -135 -136 0
-60 -85 -102 0
-60 -85 -133 0
-60 -85 -134 0
-60 -85 -135 0
-60 -85 -136 0
-60 -102 -133 0
-60 -102 -134 0
-60 -102 -135 0
-60 -102 -136 0
-60 -133 -134 0
-60 -133 -135 0
-60 -133 -136 0
-60 -134 -135 0
-60 -134 -136 0
-60 -135 -136 0
-85 -102 -133 0
-85 -102 -134 0
-85 -102 -135 0
-85 -102 -136 0
-85 -133 -134 0
-85 -133 -135 0
-85 -133 -136 0
-85 -134 -135 0
-85 -134 -136 0
-85 -135 -136 0
-102 -133 -134 0
-102 -133 -135 0
-102 -133 -136 0
-102 -134 -135 0
-102 -134 -136 0
-102 -135 -136 0
-133 -134 -135 0
-133 -134 -136 0
-133 -135 -136 0
-134 -135 -136 0
60 85 102 133 134 135 136 0
51 85 102 133 134 135 136 0
51 60 102 133 134 135 136 0
51 60 85 133 134 135 136 0
51 60 85 102 134 135 136 0
51 60 85 102 133 135 136 0
51 60 85 102 133 134 136 0
51 60 85 102 133 134 135 0
-55 -64 -89 0
-55 -64 -106 0
-55 -64 -137 0
-55 -64 -138 0
-55 -64 -139 0
-55 -64 -140 0
-55 -89 -106 0
-55 -89 -137 0
-55 -89 -138 0
-55 -89 -139 0
-55 -89 -140 0
-55 -106 -137 0
-55 -106 -138 0
-55 -106 -139 0
-55 -106 -140 0
-55 -137 -138 0
-55 -137 -139 0
-55 -137 -140 0
-55 -138 -139 0
-55 -138 -140 0
-55 -139 -140 0
-64 -89 -106 0
-64 -89 -137 0
-64 -89 -138 0
-64 -89 -139 0
-64 -89 -140 0
-64 -106 -137 0
-64 -106 -138 0
-64 -106 -139 0
-64 -106 -140 0
-64 -137 -138 0
-64 -137 -139 0
-64 -137 -140 0
-64 -138 -139 0
-64 -138 -140 0
-64 -139 -140 0
-89 -106 -137 0
-89 -106 -138 0
-89 -106 -139 0
-89 -106 -140 0
-89 -137 -138 0
-89 -137 -139 0
-89 -137 -140 0
-89 -138 -139 0
-89 -138 -140 0
-89 -139 -140 0
-106 -137 -138 0
-106 -137 -139 0
-106 -137 -140 0
-106 -138 -139 0
-106 -138 -140 0
-106 -139 -140 0
-137 -138 -139 0
-137 -138 -140 0
-137 -139 -140 0
-138 -139 -140 0
64 89 106 137 138 139 140 0
55 89 106 137 138 139 140 0
55 64 106 137 138 139 140 0
55 64 89 137 138 139 140 0
55 64 89 106 138 139 140 0
55 64 89 106 137 139 140 0
55 64 89 106 137 138 140 0
55 64 89 106 137 138 139 0
-59 -68 -93 0
-59 -68 -110 0
-59 -68 -141 0
-59 -68 -142 0
-59 -68 -143 0
-59 -68 -144 0
-59 -93 -110 0
-59 -93 -141 0
-59 -93 -142 0
-59 -93 -143 0
-59 -93 -144 0
-59 -110 -141 0
-59 -110 -142 0
-59 -110 -143 0
-59 -110 -144 0
-59 -141 -142 0
-59 -141 -143 0
-59 -141 -144 0
-59 -142 -143 0
-59 -142 -144 0
-59 -143 -144 0
-68 -93 -110 0
-68 -93 -141 0
-68 -93 -142 0
-68 -93 -143 0
-68 -93 -144 0
-68 -110 -141 0
-68 -110 -142 0
-68 -110 -143 0
-68 -110 -144 0
-68 -141 -142 0
-68 -141 -143 0
-68 -141 -144 0
-68 -142 -143 0
-68 -142 -144 0
-68 -143 -144 0
-93 -110 -141 0
-93 -110 -142 0
-93 -110 -143 0
-93 -110 -144 0
-93 -141 -142 0
-93 -141 -143 0
-93 -141 -144 0
-93 -142 -143 0
-93 -142 -144 0
-93 -143 -144 0
-110 -141 -142 0
-110 -141 -143 0
-110 -141 -144 0
-110 -142 -143 0
-110 -142 -144 0
-110 -143 -144 0
-141 -142 -143 0
-141 -142 -144 0
-141 -143 -144 0
-142 -143 -144 0
68 93 110 141 142 143 144 0
59 93 110 141 142 143 144 0
59 68 110 141 142 143 144 0
59 68 93 141 142 143 144 0
59 68 93 110 142 143 144 0
59 68 93 110 141 143 144 0
59 68 93 110 141 142 144 0
59 68 93 110 141 142 143 0
-63 -72 -97 0
-63 -72 -114 0
-63 -72 -145 0
-63 -72 -146 0
-63 -72 -147 0
-63 -72 -148 0
-63 -97 -114 0
-63 -97 -145 0
-63 -97 -146 0
-63 -97 -147 0
-63 -97 -148 0
-63 -114 -145 0
-63 -114 -146 0
-63 -114 -147 0
-63 -114 -148 0
-63 -145 -146 0
-63 -145 -147 0
-63 -145 -148 0
-63 -146 -147 0
-63 -146 -148 0
-63 -147 -148 0
-72 -97 -114 0
-72 -97 -145 0
-72 -97 -146 0
-72 -97 -147 0
-72 -97 -148 0
-72 -114 -145 0
-72 -114 -146 0
-72 -114 -147 0
-72 -114 -148 0
-72 -145 -146 0
-72 -145 -147 0
-72 -145 -148 0
-72 -146 -147 0
-72 -146 -148 0
-72 -147 -148 0
-97 -114 -145 0
-97 -114 -146 0
-97 -114 -147 0
-97 -114 -148 0
-97 -145 -146 0
-97 -145 -147 0
-97 -145 -148 0
-97 -146 -147 0
-97 -146 -148 0
-97 -147 -148 0
-114 -145 -146 0
-114 -145 -147 0
-114 -145 -148 0
-114 -146 -147 0
-114 -146 -148 0
-114 -147 -148 0
-145 -146 -147 0
-145 -146 -148 0
-145 -147 -148 0
-146 -147 -148 0
72 97 114 145 146 147 148 0
63 97 114 145 146 147 148 0
63 72 114 145 146 147 148 0
63 72 97 145 146 147 148 0
63 72 97 114 146 147 148 0
63 72 97 114 145 147 148 0
63 72 97 114 145 146 148 0
63 72 97 114 145 146 147 0
-67 -76 -101 0
-67 -76 -118 0
-67 -76 -149 0
-67 -76 -150 0
-67 -76 -151 0
-67 -76 -152 0
-67 -101 -118 0
-67 -101 -149 0
-67 -101 -150 0
-67 -101 -151 0
-67 -101 -152 0
-67 -118 -149 0
-67 -118 -150 0
-67 -118 -151 0
-67 -118 -152 0
-67 -149 -150 0
-67 -149 -151 0
-67 -149 -152 0
-67 -150 -151 0
-67 -150 -152 0
-67 -151 -152 0
-76 -101 -118 0
-76 -101 -149 0
-76 -101 -150 0
-76 -101 -151 0
-76 -101 -152 0
-76 -118 -149 0
-76 -118 -150 0
-76 -118 -151 0
-76 -118 -152 0
-76 -149 -150 0
-76 -149 -151 0
-76 -149 -152 0
-76 -150 -151 0
-76 -150 -152 0
-76 -151 -152 0
-101 -118 -149 0
-101 -118 -150 0
-101 -118 -151 0
-101 -118 -152 0
-101 -149 -150 0
-101 -149 -151 0
-101 -149 -152 0
-101 -150 -151 0
-101 -150 -152 0
-101 -151 -152 0
-118 -149 -150 0
-118 -149 -151 0
-118 -149 -152 0
-118 -150 -151 0
-118 -150 -152 0
-118 -151 -152 0
-149 -150 -151 0
-149 -150 -152 0
-149 -151 -152 0
-150 -151 -152 0
76 101 118 149 150 151 152 0
67 101 118 149 150 151 152 0
67 76 118 149 150 151 152 0
67 76 101 149 150 151 152 0
67 76 101 118 150 151 152 0
67 76 101 118 149 151 152 0
67 76 101 118 149 150 152 0
67 76 101 118 149 150 151 0
-71 -80 -82 0
-71 -80 -105 0
-71 -80 -153 0
-71 -80 -154 0
-71 -80 -155 0
-71 -80 -156 0
-71 -82 -105 0
-71 -82 -153 0
-71 -82 -154 0
-71 -82 -155 0
-71 -82 -156 0
-71 -105 -153 0
-71 -105 -154 0
-71 -105 -155 0
-71 -105 -156 0
-71 -153 -154 0
-71 -153 -155 0
-71 -153 -156 0
-71 -154 -155 0
-71 -154 -156 0
-71 -155 -156 0
-80 -82 -105 0
-80 -82 -153 0
-80 -82 -154 0
-80 -82 -155 0
-80 -82 -156 0
-80 -105 -153 0
-80 -105 -154 0
-80 -105 -155 0
-80 -105 -156 0
-80 -153 -154 0
-80 -153 -155 0
-80 -153 -156 0
-80 -154 -155 0
-80 -154 -156 0
-80 -155 -156 0
-82 -105 -153 0
-82 -105 -154 0
-82 -105 -155 0
-82 -105 -156 0
-82 -153 -154 0
-82 -153 -155 0
-82 -153 -156 0
-82 -154 -155 0
-82 -154 -156 0
-82 -155 -156 0
-105 -153 -154 0
-105 -153 -155 0
-105 -153 -156 0
-105 -154 -155 0
-105 -154 -156 0
-105 -155 -156 0
-153 -154 -155 0
-153 -154 -156 0
-153 -155 -156 0
-154 -155 -156 0
80 82 105 153 154 155 156 0
71 82 105 153 154 155 156 0
71 80 105 153 154 155 156 0
71 80 82 153 154 155 156 0
71 80 82 105 154 155 156 0
71 80 82 105 153 155 156 0
71 80 82 105 153 154 156 0
71 80 82 105 153 154 155 0
-44 -75 -86 0
-44 -75 -109 0
-44 -75 -157 0
-44 -75 -158 0
-44 -75 -159 0
-44 -75 -160 0
-44 -86 -109 0
-44 -86 -157 0
-44 -86 -158 0
-44 -86 -159 0
-44 -86 -160 0
-44 -109 -157 0
-44 -109 -158 0
-44 -109 -159 0
-44 -109 -160 0
-44 -157 -158 0
-44 -157 -159 0
-44 -157 -160 0
-44 -158 -159 0
-44 -158 -160 0
-44 -159 -160 0
-75 -86 -109 0
-75 -86 -157 0
-75 -86 -158 0
-75 -86 -159 0
-75 -86 -160 0
-75 -109 -157 0
-75 -109 -158 0
-75 -109 -159 0
-75 -109 -160 0
-75 -157 -158 0
-75 -157 -159 0
-75 -157 -160 0
-75 -158 -159 0
-75 -158 -160 0
-75 -159 -160 0
-86 -109 -157 0
-86 -109 -158 0
-86 -109 -159 0
-86 -109 -160 0
-86 -157 -158 0
-86 -157 -159 0
-86 -157 -160 0
-86 -158 -159 0
-86 -158 -160 0
-86 -159 -160 0
-109 -157 -158 0
-109 -157 -159 0
-109 -157 -160 0
-109 -158 -159 0
-109 -158 -160 0
-109 -159 -160 0
-157 -158 -159 0
-157 -158 -160 0
-157 -159 -160 0
-158 -159 -160 0
75 86 109 157 158 159 160 0
44 86 109 157 158 159 160 0
44 75 109 157 158 159 160 0
44 75 86 157 158 159 160 0
44 75 86 109 158 159 160 0
44 75 86 109 157 159 160 0
44 75 86 109 157 158 160 0
44 75 86 109 157 158 159 0
-88 -119 -130 0
-88 -119 -153 0
-88 -119 -161 0
-88 -119 -162 0
-88 -119 -163 0
-88 -119 -164 0
-88 -130 -153 0
-88 -130 -161 0
-88 -130 -162 0
-88 -130 -163 0
-88 -130 -164 0
-88 -153 -161 0
-88 -153 -162 0
-88 -153 -163 0
-88 -153 -164 0
-88 -161 -162 0
-88 -161 -163 0
-88 -161 -164 0
-88 -162 -163 0
-88 -162 -164 0
-88 -163 -164 0
-119 -130 -153 0
-119 -130 -161 0
-119 -130 -162 0
-119 -130 -163 0
-119 -130 -164 0
-119 -153 -161 0
-119 -153 -162 0
-119 -153 -163 0
-119 -153 -164 0
-119 -161 -162 0
-119 -161 -163 0
-119 -161 -164 0
-119 -162 -163 0
-119 -162 -164 0
-119 -163 -164 0
-130 -153 -161 0
-130 -153 -162 0
-130 -153 -163 0
-130 -153 -164 0
-130 -161 -162 0
-130 -161 -163 0
-130 -161 -164 0
-130 -162 -163 0
-130 -162 -164 0
-130 -163 -164 0
-153 -161 -162 0
-153 -161 -163 0
-153 -161 -164 0
-153 -162 -163 0
-153 -162 -164 0
-153 -163 -164 0
-161 -162 -163 0
-161 -162 -164 0
-161 -163 -164 0
-162 -163 -164 0
119 130 153 161 162 163 164 0
88 130 153 161 162 163 164 0
88 119 153 161 162 163 164 0
88 119 130 161 162 163 164 0
88 119 130 153 162 163 164 0
88 119 130 153 161 163 164 0
88 119 130 153 161 162 164 0
88 119 130 153 161 162 163 0
-83 -92 -134 0
-83 -92 -157 0
-83 -92 -165 0
-83 -92 -166 0
-83 -92 -167 0
-83 -92 -168 0
-83 -134 -157 0
-83 -134 -165 0
-83 -134 -166 0
-83 -134 -167 0
-83 -134 -168 0
-83 -157 -165 0
-83 -157 -166 0
-83 -157 -167 0
-83 -157 -168 0
-83 -165 -166 0
-83 -165 -167 0
-83 -165 -168 0
-83 -166 -167 0
-83 -166 -168 0
-83 -167 -168 0
-92 -134 -157 0
-92 -134 -165 0
-92 -134 -166 0
-92 -134 -167 0
-92 -134 -168 0
-92 -157 -165 0
-92 -157 -166 0
-92 -157 -167 0
-92 -157 -168 0
-92 -165 -166 0
-92 -165 -167 0
-92 -165 -168 0
-92 -166 -167 0
-92 -166 -168 0
-92 -167 -168 0
-134 -157 -165 0
-134 -157 -166 0
-134 -157 -167 0
-134 -157 -168 0
-134 -165 -166 0
-134 -165 -167 0
-134 -165 -168 0
-134 -166 -167 0
-134 -166 -168 0
-134 -167 -168 0
-157 -165 -166 0
-157 -165 -167 0
-157 -165 -168 0
-157 -166 -167 0
-157 -166 -168 0
-157 -167 -168 0
-165 -166 -167 0
-165 -166 -168 0
-165 -167 -168 0
-166 -167 -168 0
92 134 157 165 166 167 168 0
83 134 157 165 166 167 168 0
83 92 157 165 166 167 168 0
83 92 134 165 166 167 168 0
83 92 134 157 166 167 168 0
83 92 134 157 165 167 168 0
83 92 134 157 165 166 168 0
83 92 134 157 165 166 167 0
-87 -96 -121 0
-87 -96 -138 0
-87 -96 -169 0
-87 -96 -170 0
-87 -96 -171 0
-87 -96 -172 0
-87 -121 -138 0
-87 -121 -169 0
-87 -121 -170 0
-87 -121 -171 0
-87 -121 -172 0
-87 -138 -169 0
-87 -138 -170 0
-87 -138 -171 0
-87 -138 -172 0
-87 -169 -170 0
-87 -169 -171 0
-87 -169 -172 0
-87 -170 -171 0
-87 -170 -172 0
-87 -171 -172 0
-96 -121 -138 0
-96 -121 -169 0
-96 -121 -170 0
-96 -121 -171 0
-96 -121 -172 0
-96 -138 -169 0
-96 -138 -170 0
-96 -138 -171 0
-96 -138 -172 0
-96 -169 -170 0
-96 -169 -171 0
-96 -169 -172 0
-96 -170 -171 0
-96 -170 -172 0
-96 -171 -172 0
-121 -138 -169 0
-121 -138 -170 0
-121 -138 -171 0
-121 -138 -172 0
-121 -169 -170 0
-121 -169 -171 0
-121 -169 -172 0
-121 -170 -171 0
-121 -170 -172 0
-121 -171 -172 0
-138 -169 -170 0
-138 -169 -171 0
-138 -169 -172 0
-138 -170 -171 0
-138 -170 -172 0
-138 -171 -172 0
-169 -170 -171 0
-169 -170 -172 0
-169 -171 -172 0
-170 -171 -172 0
96 121 138 169 170 171 172 0
87 121 138 169 170 171 172 0
87 96 138 169 170 171 172 0
87 96 121 169 170 171 172 0
87 96 121 138 170 171 172 0
87 96 121 138 169 171 172 0
87 96 121 138 169 170 172 0
87 96 121 138 169 170 171 0
-91 -100 -125 0
-91 -100 -142 0
-91 -100 -173 0
-91 -100 -174 0
-91 -100 -175 0
-91 -100 -176 0
-91 -125 -142 0
-91 -125 -173 0
-91 -125 -174 0
-91 -125 -175 0
-91 -125 -176 0
-91 -142 -173 0
-91 -142 -174 0
-91 -142 -175 0
-91 -142 -176 0
-91 -173 -174 0
-91 -173 -175 0
-91 -173 -176 0
-91 -174 -175 0
-91 -174 -176 0
-91 -175 -176 0
-100 -125 -142 0
-100 -125 -173 0
-100 -125 -174 0
-100 -125 -175 0
-100 -125 -176 0
-100 -142 -173 0
-100 -142 -174 0
-100 -142 -175 0
-100 -142 -176 0
-100 -173 -174 0
-100 -173 -175 0
-100 -173 -176 0
-100 -174 -175 0
-100 -174 -176 0
-100 -175 -176 0
-125 -142 -173 0
-125 -142 -174 0
-125 -142 -175 0
-125 -142 -176 0
-125 -173 -174 0
-125 -173 -175 0
-125 -173 -176 0
-125 -174 -175 0
-125 -174 -176 0
-125 -175 -176 0
-142 -173 -174 0
-142 -173 -175 0
-142 -173 -176 0
-142 -174 -175 0
-142 -174 -176 0
-142 -175 -176 0
-173 -174 -175 0
-173 -174 -176 0
-173 -175 -176 0
-174 -175 -176 0
100 125 142 173 174 175 176 0
91 125 142 173 174 175 176 0
91 100 142 173 174 175 176 0
91 100 125 173 174 175 176 0
91 100 125 142 174 175 176 0
91 100 125 142 173 175 176 0
91 100 125 142 173 174 176 0
91 100 125 142 173 174 175 0
-95 -104 -129 0
-95 -104 -146 0
-95 -104 -177 0
-95 -104 -178 0
-95 -104 -179 0
-95 -104 -180 0
-95 -129 -146 0
-95 -129 -177 0
-95 -129 -178 0
-95 -129 -179 0
-95 -129 -180 0
-95 -146 -177 0
-95 -146 -178 0
-95 -146 -179 0
-95 -146 -180 0
-95 -177 -178 0
-95 -177 -179 0
-95 -177 -180 0
-95 -178 -179 0
-95 -178 -180 0
-95 -179 -180 0
-104 -129 -146 0
-104 -129 -177 0
-104 -129 -178 0
-104 -129 -179 0
-104 -129 -180 0
-104 -146 -177 0
-104 -146 -178 0
-104 -146 -179 0
-104 -146 -180 0
-104 -177 -178 0
-104 -177 -179 0
-104 -177 -180 0
-104 -178 -179 0
-104 -178 -180 0
-104 -179 -180 0
-129 -146 -177 0
-129 -146 -178 0
-129 -146 -179 0
-129 -146 -180 0
-129 -177 -178 0
-129 -177 -179 0
-129 -177 -180 0
-129 -178 -179 0
-129 -178 -180 0
-129 -179 -180 0
-146 -177 -178 0
-146 -177 -179 0
-146 -177 -180 0
-146 -178 -179 0
-146 -178 -180 0
-146 -179 -180 0
-177 -178 -179 0
-177 -178 -180 0
-177 -179 -180 0
-178 -179 -180 0
104 129 146 177 178 179 180 0
95 129 146 177 178 179 180 0
95 104 146 177 178 179 180 0
95 104 129 177 178 179 180 0
95 104 129 146 178 179 180 0
95 104 129 146 177 179 180 0
95 104 129 146 177 178 180 0
95 104 129 146 177 178 179 0
-99 -108 -133 0
-99 -108 -150 0
-99 -108 -181 0
-99 -108 -182 0
-99 -108 -183 0
-99 -108 -184 0
-99 -133 -150 0
-99 -133 -181 0
-99 -133 -182 0
-99 -133 -183 0
-99 -133 -184 0
-99 -150 -181 0
-99 -150 -182 0
-99 -150 -183 0
-99 -150 -184 0
-99 -181 -182 0
-99 -181 -183 0
-99 -181 -184 0
-99 -182 -183 0
-99 -182 -184 0
-99 -183 -184 0
-108 -133 -150 0
-108 -133 -181 0
-108 -133 -182 0
-108 -133 -183 0
-108 -133 -184 0
-108 -150 -181 0
-108 -150 -182 0
-108 -150 -183 0
-108 -150 -184 0
-108 -181 -182 0
-108 -181 -183 0
-108 -181 -184 0
-108 -182 -183 0
-108 -182 -184 0
-108 -183 -184 0
-133 -150 -181 0
-133 -150 -182 0
-133 -150 -183 0
-133 -150 -184 0
-133 -181 -182 0
-133 -181 -183 0
-133 -181 -184 0
-133 -182 -183 0
-133 -182 -184 0
-133 -183 -184 0
-150 -181 -182 0
-150 -181 -183 0
-150 -181 -184 0
-150 -182 -183 0
-150 -182 -184 0
-150 -183 -184 0
-181 -182 -183 0
-181 -182 -184 0
-181 -183 -184 0
-182 -183 -184 0
108 133 150 181 182 183 184 0
99 133 150 181 182 183 184 0
99 108 150 181 182 183 184 0
99 108 133 181 182 183 184 0
99 108 133 150 182 183 184 0
99 108 133 150 181 183 184 0
99 108 133 150 181 182 184 0
99 108 133 150 181 182 183 0
-103 -112 -137 0
-103 -112 -154 0
-103 -112 -185 0
-103 -112 -186 0
-103 -112 -187 0
-103 -112 -188 0
-103 -137 -154 0
-103 -137 -185 0
-103 -137 -186 0
-103 -137 -187 0
-103 -137 -188 0
-103 -154 -185 0
-103 -154 -186 0
-103 -154 -187 0
-103 -154 -188 0
-103 -185 -186 0
-103 -185 -187 0
-103 -185 -188 0
-103 -186 -187 0
-103 -186 -188 0
-103 -187 -188 0
-112 -137 -154 0
-112 -137 -185 0
-112 -137 -186 0
-112 -137 -187 0
-112 -137 -188 0
-112 -154 -185 0
-112 -154 -186 0
-112 -154 -187 0
-112 -154 -188 0
-112 -185 -186 0
-112 -185 -187 0
-112 -185 -188 0
-112 -186 -187 0
-112 -186 -188 0
-112 -187 -188 0
-137 -154 -185 0
-137 -154 -186 0
-137 -154 -187 0
-137 -154 -188 0
-137 -185 -186 0
-137 -185 -187 0
-137 -185 -188 0
-137 -186 -187 0
-137 -186 -188 0
-137 -187 -188 0
-154 -185 -186 0
-154 -185 -187 0
-154 -185 -188 0
-154 -186 -187 0
-154 -186 -188 0
-154 -187 -188 0
-185 -186 -187 0
-185 -186 -188 0
-185 -187 -188 0
-186 -187 -188 0
112 137 154 185 186 187 188 0
103 137 154 185 186 187 188 0
103 112 154 185 186 187 188 0
103 112 137 185 186 187 188 0
103 112 137 154 186 187 188 0
103 112 137 154 185 187 188 0
103 112 137 154 185 186 188 0
103 112 137 154 185 186 187 0
-107 -116 -141 0
-107 -116 -158 0
-107 -116 -189 0
-107 -116 -190 0
-107 -116 -191 0
-107 -116 -192 0
-107 -141 -158 0
-107 -141 -189 0
-107 -141 -190 0
-107 -141 -191 0
-107 -141 -192 0
-107 -158 -189 0
-107 -158 -190 0
-107 -158 -191 0
-107 -158 -192 0
-107 -189 -190 0
-107 -189 -191 0
-107 -189 -192 0
-107 -190 -191 0
-107 -190 -192 0
-107 -191 -192 0
-116 -141 -158 0
-116 -141 -189 0
-116 -141 -190 0
-116 -141 -191 0
-116 -141 -192 0
-116 -158 -189 0
-116 -158 -190 0
-116 -158 -191 0
-116 -158 -192 0
-116 -189 -190 0
-116 -189 -191 0
-116 -189 -192 0
-116 -190 -191 0
-116 -190 -192 0
-116 -191 -192 0
-141 -158 -189 0
-141 -158 -190 0
-141 -158 -191 0
-141 -158 -192 0
-141 -189 -190 0
-141 -189 -191 0
-141 -189 -192 0
-141 -190 -191 0
-141 -190 -192 0
-141 -191 -192 0
-158 -189 -190 0
-158 -189 -191 0
-158 -189 -192 0
-158 -190 -191 0
-158 -190 -192 0
-158 -191 -192 0
-189 -190 -191 0
-189 -190 -192 0
-189 -191 -192 0
-190 -191 -192 0
116 141 158 189 190 191 192 0
107 141 158 189 190 191 192 0
107 116 158 189 190 191 192 0
107 116 141 189 190 191 192 0
107 116 141 158 190 191 192 0
107 116 141 158 189 191 192 0
107 116 141 158 189 190 192 0
107 116 141 158 189 190 191 0
-111 -120 -122 0
-111 -120 -145 0
-111 -120 -193 0
-111 -120 -194 0
-111 -120 -195 0
-111 -120 -196 0
-111 -122 -145 0
-111 -122 -193 0
-111 -122 -194 0
-111 -122 -195 0
-111 -122 -196 0
-111 -145 -193 0
-111 -145 -194 0
-111 -145 -195 0
-111 -145 -196 0
-111 -193 -194 0
-111 -193 -195 0
-111 -193 -196 0
-111 -194 -195 0
-111 -194 -196 0
-111 -195 -196 0
-120 -122 -145 0
-120 -122 -193 0
-120 -122 -194 0
-120 -122 -195 0
-120 -122 -196 0
-120 -145 -193 0
-120 -145 -194 0
-120 -145 -195 0
-120 -145 -196 0
-120 -193 -194 0
-120 -193 -195 0
-120 -193 -196 0
-120 -194 -195 0
-120 -194 -196 0
-120 -195 -196 0
-122 -145 -193 0
-122 -145 -194 0
-122 -145 -195 0
-122 -145 -196 0
-122 -193 -194 0
-122 -193 -195 0
-122 -193 -196 0
-122 -194 -195 0
-122 -194 -196 0
-122 -195 -196 0
-145 -193 -194 0
-145 -193 -195 0
-145 -193 -196 0
-145 -194 -195 0
-145 -194 -196 0
-145 -195 -196 0
-193 -194 -195 0
-193 -194 -196 0
-193 -195 -196 0
-194 -195 -196 0
120 122 145 193 194 195 196 0
111 122 145 193 194 195 196 0
111 120 145 193 194 195 196 0
111 120 122 193 194 195 196 0
111 120 122 145 194 195 196 0
111 120 122 145 193 195 196 0
111 120 122 145 193 194 196 0
111 120 122 145 193 194 195 0
-84 -115 -126 0
-84 -115 -149 0
-84 -115 -197 0
-84 -115 -198 0
-84 -115 -199 0
-84 -115 -200 0
-84 -126 -149 0
-84 -126 -197 0
-84 -126 -198 0
-84 -126 -199 0
-84 -126 -200 0
-84 -149 -197 0
-84 -149 -198 0
-84 -149 -199 0
-84 -149 -200 0
-84 -197 -198 0
-84 -197 -199 0
-84 -197 -200 0
-84 -198 -199 0
-84 -198 -200 0
-84 -199 -200 0
-115 -126 -149 0
-115 -126 -197 0
-115 -126 -198 0
-115 -126 -199 0
-115 -126 -200 0
-115 -149 -197 0
-115 -149 -198 0
-115 -149 -199 0
-115 -149 -200 0
-115 -197 -198 0
-115 -197 -199 0
-115 -197 -200 0
-115 -198 -199 0
-115 -198 -200 0
-115 -199 -200 0
-126 -149 -197 0
-126 -149 -198 0
-126 -149 -199 0
-126 -149 -200 0
-126 -197 -198 0
-126 -197 -199 0
-126 -197 -200 0
-126 -198 -199 0
-126 -198 -200 0
-126 -199 -200 0
-149 -197 -198 0
-149 -197 -199 0
-149 -197 -200 0
-149 -198 -199 0
-149 -198 -200 0
-149 -199 -200 0
-197 -198 -199 0
-197 -198 -200 0
-197 -199 -200 0
-198 -199 -200 0
115 126 149 197 198 199 200 0
84 126 149 197 198 199 200 0
84 115 149 197 198 199 200 0
84 115 126 197 198 199 200 0
84 115 126 149 198 199 200 0
84 115 126 149 197 199 200 0
84 115 126 149 197 198 200 0
84 115 126 149 197 198 199 0
-128 -159 -170 0
-128 -159 -193 0
-128 -159 -201 0
-128 -159 -202 0
-128 -159 -203 0
-128 -159 -204 0
-128 -170 -193 0
-128 -170 -201 0
-128 -170 -202 0
-128 -170 -203 0
-128 -170 -204 0
-128 -193 -201 0
-128 -193 -202 0
-128 -193 -203 0
-128 -193 -204 0
-128 -201 -202 0
-128 -201 -203 0
-128 -201 -204 0
-128 -202 -203 0
-128 -202 -204 0
-128 -203 -204 0
-159 -170 -193 0
-159 -170 -201 0
-159 -170 -202 0
-159 -170 -203 0
-159 -170 -204 0
-159 -193 -201 0
-159 -193 -202 0
-159 -193 -203 0
-159 -193 -204 0
-159 -201 -202 0
-159 -201 -203 0
-159 -201 -204 0
-159 -202 -203 0
-159 -202 -204 0
-159 -203 -204 0
-170 -193 -201 0
-170 -193 -202 0
-170 -193 -203 0
-170 -193 -204 0
-170 -201 -202 0
-170 -201 -203 0
-170 -201 -204 0
-170 -202 -203 0
-170 -202 -204 0
-170 -203 -204 0
-193 -201 -202 0
-193 -201 -203 0
-193 -201 -204 0
-193 -202 -203 0
-193 -202 -204 0
-193 -203 -204 0
-201 -202 -203 0
-201 -202 -204 0
-201 -203 -204 0
-202 -203 -204 0
159 170 193 201 202 203 204 0
128 170 193 201 202 203 204 0
128 159 193 201 202 203 204 0
128 159 170 201 202 203 204 0
128 159 170 193 202 203 204 0
128 159 170 193 201 203 204 0
128 159 170 193 201 202 204 0
128 159 170 193 201 202 203 0
-123 -132 -174 0
-123 -132 -197 0
-123 -132 -205 0
-123 -132 -206 0
-123 -132 -207 0
-123 -132 -208 0
-123 -174 -197 0
-123 -174 -205 0
-123 -174 -206 0
-123 -174 -207 0
-123 -174 -208 0
-123 -197 -205 0
-123 -197 -206 0
-123 -197 -207 0
-123 -197 -208 0
-123 -205 -206 0
-123 -205 -207 0
-123 -205 -208 0
-123 -206 -207 0
-123 -206 -208 0
-123 -207 -208 0
-132 -174 -197 0
-132 -174 -205 0
-132 -174 -206 0
-132 -174 -207 0
-132 -174 -208 0
-132 -197 -205 0
-132 -197 -206 0
-132 -197 -207 0
-132 -197 -208 0
-132 -205 -206 0
-132 -205 -207 0
-132 -205 -208 0
-132 -206 -207 0
-132 -206 -208 0
-132 -207 -208 0
-174 -197 -205 0
-174 -197 -206 0
-174 -197 -207 0
-174 -197 -208 0
-174 -205 -206 0
-174 -205 -207 0
-174 -205 -208 0
-174 -206 -207 0
-174 -206 -208 0
-174 -207 -208 0
-197 -205 -206 0
-197 -205 -207 0
-197 -205 -208 0
-197 -206 -207 0
-197 -206 -208 0
-197 -207 -208 0
-205 -206 -207 0
-205 -206 -208 0
-205 -207 -208 0
-206 -207 -208 0
132 174 197 205 206 207 208 0
123 174 197 205 206 207 208 0
123 132 197 205 206 207 208 0
123 132 174 205 206 207 208 0
123 132 174 197 206 207 208 0
123 132 174 197 205 207 208 0
123 132 174 197 205 206 208 0
123 132 174 197 205 206 207 0
-127 -136 -161 0
-127 -136 -178 0
-127 -136 -209 0
-127 -136 -210 0
-127 -136 -211 0
-127 -136 -212 0
-127 -161 -178 0
-127 -161 -209 0
-127 -161 -210 0
-127 -161 -211 0
-127 -161 -212 0
-127 -178 -209 0
-127 -178 -210 0
-127 -178 -211 0
-127 -178 -212 0
-127 -209 -210 0
-127 -209 -211 0
-127 -209 -212 0
-127 -210 -211 0
-127 -210 -212 0
-127 -211 -212 0
-136 -161 -178 0
-136 -161 -209 0
-136 -161 -210 0
-136 -161 -211 0
-136 -161 -212 0
-136 -178 -209 0
-136 -178 -210 0
-136 -178 -211 0
-136 -178 -212 0
-136 -209 -210 0
-136 -209 -211 0
-136 -209 -212 0
-136 -210 -211 0
-136 -210 -212 0
-136 -211 -212 0
-161 -178 -209 0
-161 -178 -210 0
-161 -178 -211 0
-161 -178 -212 0
-161 -209 -210 0
-161 -209 -211 0
-161 -209 -212 0
-161 -210 -211 0
-161 -210 -212 0
-161 -211 -212 0
-178 -209 -210 0
-178 -209 -211 0
-178 -209 -212 0
-178 -210 -211 0
-178 -210 -212 0
-178 -211 -212 0
-209 -210 -211 0
-209 -210 -212 0
-209 -211 -212 0
-210 -211 -212 0
136 161 178 209 210 211 212 0
127 161 178 209 210 211 212 0
127 136 178 209 210 211 212 0
127 136 161 209 210 211 212 0
127 136 161 178 210 211 212 0
127 136 161 178 209 211 212 0
127 136 161 178 209 210 212 0
127 136 161 178 209 210 211 0
-131 -140 -165 0
-131 -140 -182 0
-131 -140 -213 0
-131 -140 -214 0
-131 -140 -215 0
-131 -140 -216 0
-131 -165 -182 0
-131 -165 -213 0
-131 -165 -214 0
-131 -165 -215 0
-131 -165 -216 0
-131 -182 -213 0
-131 -182 -214 0
-131 -182 -215 0
-131 -182 -216 0
-131 -213 -214 0
-131 -213 -215 0
-131 -213 -216 0
-131 -214 -215 0
-131 -214 -216 0
-131 -215 -216 0
-140 -165 -182 0
-140 -165 -213 0
-140 -165 -214 0
-140 -165 -215 0
-140 -165 -216 0
-140 -182 -213 0
-140 -182 -214 0
-140 -182 -215 0
-140 -182 -216 0
-140 -213 -214 0
-140 -213 -215 0
-140 -213 -216 0
-140 -214 -215 0
-140 -214 -216 0
-140 -215 -216 0
-165 -182 -213 0
-165 -182 -214 0
-165 -182 -215 0
-165 -182 -216 0
-165 -213 -214 0
-165 -213 -215 0
-165 -213 -216 0
-165 -214 -215 0
-165 -214 -216 0
-165 -215 -216 0
-182 -213 -214 0
-182 -213 -215 0
-182 -213 -216 0
-182 -214 -215 0
-182 -214 -216 0
-182 -215 -216 0
-213 -214 -215 0
-213 -214 -216 0
-213 -215 -216 0
-214 -215 -216 0
140 165 182 213 214 215 216 0
131 165 182 213 214 215 216 0
131 140 182 213 214 215 216 0
131 140 165 213 214 215 216 0
131 140 165 182 214 215 216 0
131 140 165 182 213 215 216 0
131 140 165 182 213 214 216 0
131 140 165 182 213 214 215 0
-135 -144 -169 0
-135 -144 -186 0
-135 -144 -217 0
-135 -144 -218 0
-135 -144 -219 0
-135 -144 -220 0
-135 -169 -186 0
-135 -169 -217 0
-135 -169 -218 0
-135 -169 -219 0
-135 -169 -220 0
-135 -186 -217 0
-135 -186 -218 0
-135 -186 -219 0
-135 -186 -220 0
-135 -217 -218 0
-135 -217 -219 0
-135 -217 -220 0
-135 -218 -219 0
-135 -218 -220 0
-135 -219 -220 0
-144 -169 -186 0
-144 -169 -217 0
-144 -169 -218 0
-144 -169 -219 0
-144 -169 -220 0
-144 -186 -217 0
-144 -186 -218 0
-144 -186 -219 0
-144 -186 -220 0
-144 -217 -218 0
-144 -217 -219 0
-144 -217 -220 0
-144 -218 -219 0
-144 -218 -220 0
-144 -219 -220 0
-169 -186 -217 0
-169 -186 -218 0
-169 -186 -219 0
-169 -186 -220 0
-169 -217 -218 0
-169 -217 -219 0
-169 -217 -220 0
-169 -218 -219 0
-169 -218 -220 0
-169 -219 -220 0
-186 -217 -218 0
-186 -217 -219 0
-186 -217 -220 0
-186 -218 -219 0
-186 -218 -220 0
-186 -219 -220 0
-217 -218 -219 0
-217 -218 -220 0
-217 -219 -220 0
-218 -219 -220 0
144 169 186 217 218 219 220 0
135 169 186 217 218 219 220 0
135 144 186 217 218 219 220 0
135 144 169 217 218 219 220 0
135 144 169 186 218 219 220 0
135 144 169 186 217 219 220 0
135 144 169 186 217 218 220 0
135 144 169 186 217 218 219 0
-139 -148 -173 0
-139 -148 -190 0
-139 -148 -221 0
-139 -148 -222 0
-139 -148 -223 0
-139 -148 -224 0
-139 -173 -190 0
-139 -173 -221 0
-139 -173 -222 0
-139 -173 -223 0
-139 -173 -224 0
-139 -190 -221 0
-139 -190 -222 0
-139 -190 -223 0
-139 -190 -224 0
-139 -221 -222 0
-139 -221 -223 0
-139 -221 -224 0
-139 -222 -223 0
-139 -222 -224 0
-139 -223 -224 0
-148 -173 -190 0
-148 -173 -221 0
-148 -173 -222 0
-148 -173 -223 0
-148 -173 -224 0
-148 -190 -221 0
-148 -190 -222 0
-148 -190 -223 0
-148 -190 -224 0
-148 -221 -222 0
-148 -221 -223 0
-148 -221 -224 0
-148 -222 -223 0
-148 -222 -224 0
-148 -223 -224 0
-173 -190 -221 0
-173 -190 -222 0
-173 -190 -223 0
-173 -190 -224 0
-173 -221 -222 0
-173 -221 -223 0
-173 -221 -224 0
-173 -222 -223 0
-173 -222 -224 0
-173 -223 -224 0
-190 -221 -222 0
-190 -221 -223 0
-190 -221 -224 0
-190 -222 -223 0
-190 -222 -224 0
-190 -223 -224 0
-221 -222 -223 0
-221 -222 -224 0
-221 -223 -224 0
-222 -223 -224 0
148 173 190 221 222 223 224 0
139 173 190 221 222 223 224 0
139 148 190 221 222 223 224 0
139 148 173 221 222 223 224 0
139 148 173 190 222 223 224 0
139 148 173 190 221 223 224 0
139 148 173 190 221 222 224 0
139 148 173 190 221 222 223 0
-143 -152 -177 0
-143 -152 -194 0
-143 -152 -225 0
-143 -152 -226 0
-143 -152 -227 0
-143 -152 -228 0
-143 -177 -194 0
-143 -177 -225 0
-143 -177 -226 0
-143 -177 -227 0
-143 -177 -228 0
-143 -194 -225 0
-143 -194 -226 0
-143 -194 -227 0
-143 -194 -228 0
-143 -225 -226 0
-143 -225 -227 0
-143 -225 -228 0
-143 -226 -227 0
-143 -226 -228 0
-143 -227 -228 0
-152 -177 -194 0
-152 -177 -225 0
-152 -177 -226 0
-152 -177 -227 0
-152 -177 -228 0
-152 -194 -225 0
-152 -194 -226 0
-152 -194 -227 0
-152 -194 -228 0
-152 -225 -226 0
-152 -225 -227 0
-152 -225 -228 0
-152 -226 -227 0
-152 -226 -228 0
-152 -227 -228 0
-177 -194 -225 0
-177 -194 -226 0
-177 -194 -227 0
-177 -194 -228 0
-177 -225 -226 0
-177 -225 -227 0
-177 -225 -228 0
-177 -226 -227 0
-177 -226 -228 0
-177 -227 -228 0
-194 -225 -226 0
-194 -225 -227 0
-194 -225 -228 0
-194 -226 -227 0
-194 -226 -228 0
-194 -227 -228 0
-225 -226 -227 0
-225 -226 -228 0
-225 -227 -228 0
-226 -227 -228 0
152 177 194 225 226 227 228 0
143 177 194 225 226 227 228 0
143 152 194 225 226 227 228 0
143 152 177 225 226 227 228 0
143 152 177 194 226 227 228 0
143 152 177 194 225 227 228 0
143 152 177 194 225 226 228 0
143 152 177 194 225 226 227 0
-147 -156 -181 0
-147 -156 -198 0
-147 -156 -229 0
-147 -156 -230 0
-147 -156 -231 0
-147 -156 -232 0
-147 -181 -198 0
-147 -181 -229 0
-147 -181 -230 0
-147 -181 -231 0
-147 -181 -232 0
-147 -198 -229 0
-147 -198 -230 0
-147 -198 -231 0
-147 -198 -232 0
-147 -229 -230 0
-147 -229 -231 0
-147 -229 -232 0
-147 -230 -231 0
-147 -230 -232 0
-147 -231 -232 0
-156 -181 -198 0
-156 -181 -229 0
-156 -181 -230 0
-156 -181 -231 0
-156 -181 -232 0
-156 -198 -229 0
-156 -198 -230 0
-156 -198 -231 0
-156 -198 -232 0
-156 -229 -230 0
-156 -229 -231 0
-156 -229 -232 0
-156 -230 -231 0
-156 -230 -232 0
-156 -231 -232 0
-181 -198 -229 0
-181 -198 -230 0
-181 -198 -231 0
-181 -198 -232 0
-181 -229 -230 0
-181 -229 -231 0
-181 -229 -232 0
-181 -230 -231 0
-181 -230 -232 0
-181 -231 -232 0
-198 -229 -230 0
-198 -229 -231 0
-198 -229 -232 0
-198 -230 -231 0
-198 -230 -232 0
-198 -231 -232 0
-229 -230 -231 0
-229 -230 -232 0
-229 -231 -232 0
-230 -231 -232 0
156 181 198 229 230 231 232 0
147 181 198 229 230 231 232 0
147 156 198 229 230 231 232 0
147 156 181 229 230 231 232 0
147 156 181 198 230 231 232 0
147 156 181 198 229 231 232 0
147 156 181 198 229 230 232 0
147 156 181 198 229 230 231 0
-151 -160 -162 0
-151 -160 -185 0
-151 -160 -233 0
-151 -160 -234 0
-151 -160 -235 0
-151 -160 -236 0
-151 -162 -185 0
-151 -162 -233 0
-151 -162 -234 0
-151 -162 -235 0
-151 -162 -236 0
-151 -185 -233 0
-151 -185 -234 0
-151 -185 -235 0
-151 -185 -236 0
-151 -233 -234 0
-151 -233 -235 0
-151 -233 -236 0
-151 -234 -235 0
-151 -234 -236 0
-151 -235 -236 0
-160 -162 -185 0
-160 -162 -233 0
-160 -162 -234 0
-160 -162 -235 0
-160 -162 -236 0
-160 -185 -233 0
-160 -185 -234 0
-160 -185 -235 0
-160 -185 -236 0
-160 -233 -234 0
-160 -233 -235 0
-160 -233 -236 0
-160 -234 -235 0
-160 -234 -236 0
-160 -235 -236 0
-162 -185 -233 0
-162 -185 -234 0
-162 -185 -235 0
-162 -185 -236 0
-162 -233 -234 0
-162 -233 -235 0
-162 -233 -236 0
-162 -234 -235 0
-162 -234 -236 0
-162 -235 -236 0
-185 -233 -234 0
-185 -233 -235 0
-185 -233 -236 0
-185 -234 -235 0
-185 -234 -236 0
-185 -235 -236 0
-233 -234 -235 0
-233 -234 -236 0
-233 -235 -236 0
-234 -235 -236 0
160 162 185 233 234 235 236 0
151 162 185 233 234 235 236 0
151 160 185 233 234 235 236 0
151 160 162 233 234 235 236 0
151 160 162 185 234 235 236 0
151 160 162 185 233 235 236 0
151 160 162 185 233 234 236 0
151 160 162 185 233 234 235 0
-124 -155 -166 0
-124 -155 -189 0
-124 -155 -237 0
-124 -155 -238 0
-124 -155 -239 0
-124 -155 -240 0
-124 -166 -189 0
-124 -166 -237 0
-124 -166 -238 0
-124 -166 -239 0
-124 -166 -240 0
-124 -189 -237 0
-124 -189 -238 0
-124 -189 -239 0
-124 -189 -240 0
-124 -237 -238 0
-124 -237 -239 0
-124 -237 -240 0
-124 -238 -239 0
-124 -238 -240 0
-124 -239 -240 0
-155 -166 -189 0
-155 -166 -237 0
-155 -166 -238 0
-155 -166 -239 0
-155 -166 -240 0
-155 -189 -237 0
-155 -189 -238 0
-155 -189 -239 0
-155 -189 -240 0
-155 -237 -238 0
-155 -237 -239 0
-155 -237 -240 0
-155 -238 -239 0
-155 -238 -240 0
-155 -239 -240 0
-166 -189 -237 0
-166 -189 -238 0
-166 -189 -239 0
-166 -189 -240 0
-166 -237 -238 0
-166 -237 -239 0
-166 -237 -240 0
-166 -238 -239 0
-166 -238 -240 0
-166 -239 -240 0
-189 -237 -238 0
-189 -237 -239 0
-189 -237 -240 0
-189 -238 -239 0
-189 -238 -240 0
-189 -239 -240 0
-237 -238 -239 0
-237 -238 -240 0
-237 -239 -240 0
-238 -239 -240 0
155 166 189 237 238 239 240 0
124 166 189 237 238 239 240 0
124 155 189 237 238 239 240 0
124 155 166 237 238 239 240 0
124 155 166 189 238 239 240 0
124 155 166 189 237 239 240 0
124 155 166 189 237 238 240 0
124 155 166 189 237 238 239 0
-168 -199 -210 0
-168 -199 -233 0
-168 -199 -241 0
-168 -199 -242 0
-168 -199 -243 0
-168 -199 -244 0
-168 -210 -233 0
-168 -210 -241 0
-168 -210 -242 0
-168 -210 -243 0
-168 -210 -244 0
-168 -233 -241 0
-168 -233 -242 0
-168 -233 -243 0
-168 -233 -244 0
-168 -241 -242 0
-168 -241 -243 0
-168 -241 -244 0
-168 -242 -243 0
-168 -242 -244 0
-168 -243 -244 0
-199 -210 -233 0
-199 -210 -241 0
-199 -210 -242 0
-199 -210 -243 0
-199 -210 -244 0
-199 -233 -241 0
-199 -233 -242 0
-199 -233 -243 0
-199 -233 -244 0
-199 -241 -242 0
-199 -241 -243 0
-199 -241 -244 0
-199 -242 -243 0
-199 -242 -244 0
-199 -243 -244 0
-210 -233 -241 0
-210 -233 -242 0
-210 -233 -243 0
-210 -233 -244 0
-210 -241 -242 0
-210 -241 -243 0
-210 -241 -244 0
-210 -242 -243 0
-210 -242 -244 0
-210 -243 -244 0
-233 -241 -242 0
-233 -241 -243 0
-233 -241 -244 0
-233 -242 -243 0
-233 -242 -244 0
-233 -243 -244 0
-241 -242 -243 0
-241 -242 -244 0
-241 -243 -244 0
-242 -243 -244 0
199 210 233 241 242 243 244 0
168 210 233 241 242 243 244 0
168 199 233 241 242 243 244 0
168 199 210 241 242 243 244 0
168 199 210 233 242 243 244 0
168 199 210 233 241 243 244 0
168 199 210 233 241 242 244 0
168 199 210 233 241 242 243 0
-163 -172 -214 0
-163 -172 -237 0
-163 -172 -245 0
-163 -172 -246 0
-163 -172 -247 0
-163 -172 -248 0
-163 -214 -237 0
-163 -214 -245 0
-163 -214 -246 0
-163 -214 -247 0
-163 -214 -248 0
-163 -237 -245 0
-163 -237 -246 0
-163 -237 -247 0
-163 -237 -248 0
-163 -245 -246 0
-163 -245 -247 0
-163 -245 -248 0
-163 -246 -247 0
-163 -246 -248 0
-163 -247 -248 0
-172 -214 -237 0
-172 -214 -245 0
-172 -214 -246 0
-172 -214 -247 0
-172 -214 -248 0
-172 -237 -245 0
-172 -237 -246 0
-172 -237 -247 0
-172 -237 -248 0
-172 -245 -246 0
-172 -245 -247 0
-172 -245 -248 0
-172 -246 -247 0
-172 -246 -248 0
-172 -247 -248 0
-214 -237 -245 0
-214 -237 -246 0
-214 -237 -247 0
-214 -237 -248 0
-214 -245 -246 0
-214 -245 -247 0
-214 -245 -248 0
-214 -246 -247 0
-214 -246 -248 0
-214 -247 -248 0
-237 -245 -246 0
-237 -245 -247 0
-237 -245 -248 0
-237 -246 -247 0
-237 -246 -248 0
-237 -247 -248 0
-245 -246 -247 0
-245 -246 -248 0
-245 -247 -248 0
-246 -247 -248 0
172 214 237 245 246 247 248 0
163 214 237 245 246 247 248 0
163 172 237 245 246 247 248 0
163 172 214 245 246 247 248 0
163 172 214 237 246 247 248 0
163 172 214 237 245 247 248 0
163 172 214 237 245 246 248 0
163 172 214 237 245 246 247 0
-167 -176 -201 0
-167 -176 -218 0
-167 -176 -249 0
-167 -176 -250 0
-167 -176 -251 0
-167 -176 -252 0
-167 -201 -218 0
-167 -201 -249 0
-167 -201 -250 0
-167 -201 -251 0
-167 -201 -252 0
-167 -218 -249 0
-167 -218 -250 0
-167 -218 -251 0
-167 -218 -252 0
-167 -249 -250 0
-167 -249 -251 0
-167 -249 -252 0
-167 -250 -251 0
-167 -250 -252 0
-167 -251 -252 0
-176 -201 -218 0
-176 -201 -249 0
-176 -201 -250 0
-176 -201 -251 0
-176 -201 -252 0
-176 -218 -249 0
-176 -218 -250 0
-176 -218 -251 0
-176 -218 -252 0
-176 -249 -250 0
-176 -249 -251 0
-176 -249 -252 0
-176 -250 -251 0
-176 -250 -252 0
-176 -251 -252 0
-201 -218 -249 0
-201 -218 -250 0
-201 -218 -251 0
-201 -218 -252 0
-201 -249 -250 0
-201 -249 -251 0
-201 -249 -252 0
-201 -250 -251 0
-201 -250 -252 0
-201 -251 -252 0
-218 -249 -250 0
-218 -249 -251 0
-218 -249 -252 0
-218 -250 -251 0
-218 -250 -252 0
-218 -251 -252 0
-249 -250 -251 0
-249 -250 -252 0
-249 -251 -252 0
-250 -251 -252 0
176 201 218 249 250 251 252 0
167 201 218 249 250 251 252 0
167 176 218 249 250 251 252 0
167 176 201 249 250 251 252 0
167 176 201 218 250 251 252 0
167 176 201 218 249 251 252 0
167 176 201 218 249 250 252 0
167 176 201 218 249 250 251 0
-171 -180 -205 0
-171 -180 -222 0
-171 -180 -253 0
-171 -180 -254 0
-171 -180 -255 0
-171 -180 -256 0
-171 -205 -222 0
-171 -205 -253 0
-171 -205 -254 0
-171 -205 -255 0
-171 -205 -256 0
-171 -222 -253 0
-171 -222 -254 0
-171 -222 -255 0
-171 -222 -256 0
-171 -253 -254 0
-171 -253 -255 0
-171 -253 -256 0
-171 -254 -255 0
-171 -254 -256 0
-171 -255 -256 0
-180 -205 -222 0
-180 -205 -253 0
-180 -205 -254 0
-180 -205 -255 0
-180 -205 -256 0
-180 -222 -253 0
-180 -222 -254 0
-180 -222 -255 0
-180 -222 -256 0
-180 -253 -254 0
-180 -253 -255 0
-180 -253 -256 0
-180 -254 -255 0
-180 -254 -256 0
-180 -255 -256 0
-205 -222 -253 0
-205 -222 -254 0
-205 -222 -255 0
-205 -222 -256 0
-205 -253 -254 0
-205 -253 -255 0
-205 -253 -256 0
-205 -254 -255 0
-205 -254 -256 0
-205 -255 -256 0
-222 -253 -254 0
-222 -253 -255 0
-222 -253 -256 0
-222 -254 -255 0
-222 -254 -256 0
-222 -255 -256 0
-253 -254 -255 0
-253 -254 -256 0
-253 -255 -256 0
-254 -255 -256 0
180 205 222 253 254 255 256 0
171 205 222 253 254 255 256 0
171 180 222 253 254 255 256 0
171 180 205 253 254 255 256 0
171 180 205 222 254 255 256 0
171 180 205 222 253 255 256 0
171 180 205 222 253 254 256 0
171 180 205 222 253 254 255 0
-175 -184 -209 0
-175 -184 -226 0
-175 -184 -257 0
-175 -184 -258 0
-175 -184 -259 0
-175 -184 -260 0
-175 -209 -226 0
-175 -209 -257 0
-175 -209 -258 0
-175 -209 -259 0
-175 -209 -260 0
-175 -226 -257 0
-175 -226 -258 0
-175 -226 -259 0
-175 -226 -260 0
-175 -257 -258 0
-175 -257 -259 0
-175 -257 -260 0
-175 -258 -259 0
-175 -258 -260 0
-175 -259 -260 0
-184 -209 -226 0
-184 -209 -257 0
-184 -209 -258 0
-184 -209 -259 0
-184 -209 -260 0
-184 -226 -257 0
-184 -226 -258 0
-184 -226 -259 0
-184 -226 -260 0
-184 -257 -258 0
-184 -257 -259 0
-184 -257 -260 0
-184 -258 -259 0
-184 -258 -260 0
-184 -259 -260 0
-209 -226 -257 0
-209 -226 -258 0
-209 -226 -259 0
-209 -226 -260 0
-209 -257 -258 0
-209 -257 -259 0
-209 -257 -260 0
-209 -258 -259 0
-209 -258 -260 0
-209 -259 -260 0
-226 -257 -258 0
-226 -257 -259 0
-226 -257 -260 0
-226 -258 -259 0
-226 -258 -260 0
-226 -259 -260 0
-257 -258 -259 0
-257 -258 -260 0
-257 -259 -260 0
-258 -259 -260 0
184 209 226 257 258 259 260 0
175 209 226 257 258 259 260 0
175 184 226 257 258 259 260 0
175 184 209 257 258 259 260 0
175 184 209 226 258 259 260 0
175 184 209 226 257 259 260 0
175 184 209 226 257 258 260 0
175 184 209 226 257 258 259 0
-179 -188 -213 0
-179 -188 -230 0
-179 -188 -261 0
-179 -188 -262 0
-179 -188 -263 0
-179 -188 -264 0
-179 -213 -230 0
-179 -213 -261 0
-179 -213 -262 0
-179 -213 -263 0
-179 -213 -264 0
-179 -230 -261 0
-179 -230 -262 0
-179 -230 -263 0
-179 -230 -264 0
-179 -261 -262 0
-179 -261 -263 0
-179 -261 -264 0
-179 -262 -263 0
-179 -262 -264 0
-179 -263 -264 0
-188 -213 -230 0
-188 -213 -261 0
-188 -213 -262 0
-188 -213 -263 0
-188 -213 -264 0
-188 -230 -261 0
-188 -230 -262 0
-188 -230 -263 0
-188 -230 -264 0
-188 -261 -262 0
-188 -261 -263 0
-188 -261 -264 0
-188 -262 -263 0
-188 -262 -264 0
-188 -263 -264 0
-213 -230 -261 0
-213 -230 -262 0
-213 -230 -263 0
-213 -230 -264 0
-213 -261 -262 0
-213 -261 -263 0
-213 -261 -264 0
-213 -262 -263 0
-213 -262 -264 0
-213 -263 -264 0
-230 -261 -262 0
-230 -261 -263 0
-230 -261 -264 0
-230 -262 -263 0
-230 -262 -264 0
-230 -263 -264 0
-261 -262 -263 0
-261 -262 -264 0
-261 -263 -264 0
-262 -263 -264 0
188 213 230 261 262 263 264 0
179 213 230 261 262 263 264 0
179 188 230 261 262 263 264 0
179 188 213 261 262 263 264 0
179 188 213 230 262 263 264 0
179 188 213 230 261 263 264 0
179 188 213 230 261 262 264 0
179 188 213 230 261 262 263 0
-183 -192 -217 0
-183 -192 -234 0
-183 -192 -265 0
-183 -192 -266 0
-183 -192 -267 0
-183 -192 -268 0
-183 -217 -234 0
-183 -217 -265 0
-183 -217 -266 0
-183 -217 -267 0
-183 -217 -268 0
-183 -234 -265 0
-183 -234 -266 0
-183 -234 -267 0
-183 -234 -268 0
-183 -265 -266 0
-183 -265 -267 0
-183 -265 -268 0
-183 -266 -267 0
-183 -266 -268 0
-183 -267 -268 0
-192 -217 -234 0
-192 -217 -265 0
-192 -217 -266 0
-192 -217 -267 0
-192 -217 -268 0
-192 -234 -265 0
-192 -234 -266 0
-192 -234 -267 0
-192 -234 -268 0
-192 -265 -266 0
-192 -265 -267 0
-192 -265 -268 0
-192 -266 -267 0
-192 -266 -268 0
-192 -267 -268 0
-217 -234 -265 0
-217 -234 -266 0
-217 -234 -267 0
-217 -234 -268 0
-217 -265 -266 0
-217 -265 -267 0
-217 -265 -268 0
-217 -266 -267 0
-217 -266 -268 0
-217 -267 -268 0
-234 -265 -266 0
-234 -265 -267 0
-234 -265 -268 0
-234 -266 -267 0
-234 -266 -268 0
-234 -267 -268 0
-265 -266 -267 0
-265 -266 -268 0
-265 -267 -268 0
-266 -267 -268 0
192 217 234 265 266 267 268 0
183 217 234 265 266 267 268 0
183 192 234 265 266 267 268 0
183 192 217 265 266 267 268 0
183 192 217 234 266 267 268 0
183 192 217 234 265 267 268 0
183 192 217 234 265 266 268 0
183 192 217 234 265 266 267 0
-187 -196 -221 0
-187 -196 -238 0
-187 -196 -269 0
-187 -196 -270 0
-187 -196 -271 0
-187 -196 -272 0
-187 -221 -238 0
-187 -221 -269 0
-187 -221 -270 0
-187 -221 -271 0
-187 -221 -272 0
-187 -238 -269 0
-187 -238 -270 0
-187 -238 -271 0
-187 -238 -272 0
-187 -269 -270 0
-187 -269 -271 0
-187 -269 -272 0
-187 -270 -271 0
-187 -270 -272 0
-187 -271 -272 0
-196 -221 -238 0
-196 -221 -269 0
-196 -221 -270 0
-196 -221 -271 0
-196 -221 -272 0
-196 -238 -269 0
-196 -238 -270 0
-196 -238 -271 0
-196 -238 -272 0
-196 -269 -270 0
-196 -269 -271 0
-196 -269 -272 0
-196 -270 -271 0
-196 -270 -272 0
-196 -271 -272 0
-221 -238 -269 0
-221 -238 -270 0
-221 -238 -271 0
-221 -238 -272 0
-221 -269 -270 0
-221 -269 -271 0
-221 -269 -272 0
-221 -270 -271 0
-221 -270 -272 0
-221 -271 -272 0
-238 -269 -270 0
-238 -269 -271 0
-238 -269 -272 0
-238 -270 -271 0
-238 -270 -272 0
-238 -271 -272 0
-269 -270 -271 0
-269 -270 -272 0
-269 -271 -272 0
-270 -271 -272 0
196 221 238 269 270 271 272 0
187 221 238 269 270 271 272 0
187 196 238 269 270 271 272 0
187 196 221 269 270 271 272 0
187 196 221 238 270 271 272 0
187 196 221 238 269 271 272 0
187 196 221 238 269 270 272 0
187 196 221 238 269 270 271 0
-191 -200 -202 0
-191 -200 -225 0
-191 -200 -273 0
-191 -200 -274 0
-191 -200 -275 0
-191 -200 -276 0
-191 -202 -225 0
-191 -202 -273 0
-191 -202 -274 0
-191 -202 -275 0
-191 -202 -276 0
-191 -225 -273 0
-191 -225 -274 0
-191 -225 -275 0
-191 -225 -276 0
-191 -273 -274 0
-191 -273 -275 0
-191 -273 -276 0
-191 -274 -275 0
-191 -274 -276 0
-191 -275 -276 0
-200 -202 -225 0
-200 -202 -273 0
-200 -202 -274 0
-200 -202 -275 0
-200 -202 -276 0
-200 -225 -273 0
-200 -225 -274 0
-200 -225 -275 0
-200 -225 -276 0
-200 -273 -274 0
-200 -273 -275 0
-200 -273 -276 0
-200 -274 -275 0
-200 -274 -276 0
-200 -275 -276 0
-202 -225 -273 0
-202 -225 -274 0
-202 -225 -275 0
-202 -225 -276 0
-202 -273 -274 0
-202 -273 -275 0
-202 -273 -276 0
-202 -274 -275 0
-202 -274 -276 0
-202 -275 -276 0
-225 -273 -274 0
-225 -273 -275 0
-225 -273 -276 0
-225 -274 -275 0
-225 -274 -276 0
-225 -275 -276 0
-273 -274 -275 0
-273 -274 -276 0
-273 -275 -276 0
-274 -275 -276 0
200 202 225 273 274 275 276 0
191 202 225 273 274 275 276 0
191 200 225 273 274 275 276 0
191 200 202 273 274 275 276 0
191 200 202 225 274 275 276 0
191 200 202 225 273 275 276 0
191 200 202 225 273 274 276 0
191 200 202 225 273 274 275 0
-164 -195 -206 0
-164 -195 -229 0
-164 -195 -277 0
-164 -195 -278 0
-164 -195 -279 0
-164 -195 -280 0
-164 -206 -229 0
-164 -206 -277 0
-164 -206 -278 0
-164 -206 -279 0
-164 -206 -280 0
-164 -229 -277 0
-164 -229 -278 0
-164 -229 -279 0
-164 -229 -280 0
-164 -277 -278 0
-164 -277 -279 0
-164 -277 -280 0
-164 -278 -279 0
-164 -278 -280 0
-164 -279 -280 0
-195 -206 -229 0
-195 -206 -277 0
-195 -206 -278 0
-195 -206 -279 0
-195 -206 -280 0
-195 -229 -277 0
-195 -229 -278 0
-195 -229 -279 0
-195 -229 -280 0
-195 -277 -278 0
-195 -277 -279 0
-195 -277 -280 0
-195 -278 -279 0
-195 -278 -280 0
-195 -279 -280 0
-206 -229 -277 0
-206 -229 -278 0
-206 -229 -279 0
-206 -229 -280 0
-206 -277 -278 0
-206 -277 -279 0
-206 -277 -280 0
-206 -278 -279 0
-206 -278 -280 0
-206 -279 -280 0
-229 -277 -278 0
-229 -277 -279 0
-229 -277 -280 0
-229 -278 -279 0
-229 -278 -280 0
-229 -279 -280 0
-277 -278 -279 0
-277 -278 -280 0
-277 -279 -280 0
-278 -279 -280 0
195 206 229 277 278 279 280 0
164 206 229 277 278 279 280 0
164 195 229 277 278 279 280 0
164 195 206 277 278 279 280 0
164 195 206 229 278 279 280 0
164 195 206 229 277 279 280 0
164 195 206 229 277 278 280 0
164 195 206 229 277 278 279 0
-208 -239 -250 0
-208 -239 -273 0
-208 -250 -273 0
-239 -250 -273 0
-203 -212 -254 0
-203 -212 -277 0
-203 -254 -277 0
-212 -254 -277 0
-207 -216 -241 0
-207 -216 -258 0
-207 -241 -258 0
-216 -241 -258 0
-211 -220 -245 0
-211 -220 -262 0
-211 -245 -262 0
-220 -245 -262 0
-215 -224 -249 0
-215 -224 -266 0
-215 -249 -266 0
-224 -249 -266 0
-219 -228 -253 0
-219 -228 -270 0
-219 -253 -270 0
-228 -253 -270 0
-223 -232 -257 0
-223 -232 -274 0
-223 -257 -274 0
-232 -257 -274 0
-227 -236 -261 0
-227 -236 -278 0
-227 -261 -278 0
-236 -261 -278 0
-231 -240 -242 0
-231 -240 -265 0
-231 -242 -265 0
-240 -242 -265 0
-204 -235 -246 0
-204 -235 -269 0
-204 -246 -269 0
-235 -246 -269 0
-1 -6 281 0
-1 -7 282 0
-1 -8 283 0
-1 -10 284 0
-1 -12 285 0
-1 -14 286 0
-2 -29 287 0
-2 -33 288 0
-2 -35 289 0
-2 -37 290 0
-2 -39 291 0
-2 -40 292 0
-3 -6 293 0
-3 -8 294 0
-3 -10 295 0
-3 -37 296 0
-3 -41 297 0
-3 -46 298 0
-3 -48 299 0
-3 -50 300 0
-4 -6 301 0
-4 -33 302 0
-4 -37 303 0
-4 -39 304 0
-4 -42 305 0
-4 -73 306 0
-4 -77 307 0
-4 -79 308 0
-5 -10 309 0
-5 -11 310 0
-5 -12 311 0
-5 -14 312 0
-5 -16 313 0
-5 -18 314 0
-6 -33 315 0
-6 -37 316 0
-6 -39 317 0
-7 -10 318 0
-7 -12 319 0
-7 -14 320 0
-7 -45 321 0
-7 -50 322 0
-7 -52 323 0
-7 -54 324 0
-8 -10 325 0
-8 -37 326 0
-8 -41 327 0
-8 -43 328 0
-8 -46 329 0
-8 -77 330 0
-9 -14 331 0
-9 -15 332 0
-9 -16 333 0
-9 -18 334 0
-9 -20 335 0
-9 -22 336 0
-10 -37 337 0
-11 -14 338 0
-11 -16 339 0
-11 -18 340 0
-11 -49 341 0
-11 -54 342 0
-11 -56 343 0
-11 -58 344 0
-12 -14 345 0
-12 -41 346 0
-12 -45 347 0
-12 -47 348 0
-12 -50 349 0
-13 -18 350 0
-13 -19 351 0
-13 -20 352 0
-13 -22 353 0
-13 -24 354 0
-13 -26 355 0
-15 -18 356 0
-15 -20 357 0
-15 -22 358 0
-15 -53 359 0
-15 -58 360 0
-15 -60 361 0
-15 -62 362 0
-16 -18 363 0
-16 -45 364 0
-16 -49 365 0
-16 -51 366 0
-16 -54 367 0
-17 -22 368 0
-17 -23 369 0
-17 -24 370 0
-17 -26 371 0
-17 -28 372 0
-17 -30 373 0
-19 -22 374 0
-19 -24 375 0
-19 -26 376 0
-19 -57 377 0
-19 -62 378 0
-19 -64 379 0
-19 -66 380 0
-20 -22 381 0
-20 -49 382 0
-20 -53 383 0
-20 -55 384 0
-20 -58 385 0
-21 -26 386 0
-21 -27 387 0
-21 -28 388 0
-21 -30 389 0
-21 -32 390 0
-21 -34 391 0
-23 -26 392 0
-23 -28 393 0
-23 -30 394 0
-23 -61 395 0
-23 -66 396 0
-23 -68 397 0
-23 -70 398 0
-24 -26 399 0
-24 -53 400 0
-24 -57 401 0
-24 -59 402 0
-24 -62 403 0
-25 -30 404 0
-25 -31 405 0
-25 -32 406 0
-25 -34 407 0
-25 -36 408 0
-25 -38 409 0
-27 -30 410 0
-27 -32 411 0
-27 -34 412 0
-27 -65 413 0
-27 -70 414 0
-27 -72 415 0
-27 -74 416 0
-28 -30 417 0
-28 -57 418 0
-28 -61 419 0
-28 -63 420 0
-28 -66 421 0
-29 -34 422 0
-29 -35 423 0
-29 -36 424 0
-29 -38 425 0
-29 -40 426 0
-31 -34 427 0
-31 -36 428 0
-31 -38 429 0
-31 -69 430 0
-31 -74 431 0
-31 -76 432 0
-31 -78 433 0
-32 -34 434 0
-32 -61 435 0
-32 -65 436 0
-32 -67 437 0
-32 -70 438 0
-33 -38 439 0
-33 -39 440 0
-33 -40 441 0
-35 -38 442 0
-35 -40 443 0
-35 -42 444 0
-35 -73 445 0
-35 -78 446 0
-35 -80 447 0
-36 -38 448 0
-36 -65 449 0
-36 -69 450 0
-36 -71 451 0
-36 -74 452 0
-39 -42 453 0
-39 -44 454 0
-39 -46 455 0
-39 -77 456 0
-40 -69 457 0
-40 -73 458 0
-40 -75 459 0
-40 -78 460 0
-41 -46 461 0
-41 -47 462 0
-41 -48 463 0
-41 -50 464 0
-41 -52 465 0
-41 -54 466 0
-42 -69 467 0
-42 -73 468 0
-42 -75 469 0
-42 -77 470 0
-42 -79 471 0
-42 -80 472 0
-43 -46 473 0
-43 -48 474 0
-43 -50 475 0
-43 -77 476 0
-43 -81 0
-43 -86 0
-43 -88 0
-43 -90 0
-44 -46 477 0
-44 -73 478 0
-44 -77 479 0
-44 -79 480 0
-44 -82 0
-44 -113 0
-44 -117 0
-44 -119 0
-45 -50 481 0
-45 -51 482 0
-45 -52 483 0
-45 -54 484 0
-45 -56 485 0
-45 -58 486 0
-46 -73 487 0
-46 -77 488 0
-46 -79 489 0
-47 -50 490 0
-47 -52 491 0
-47 -54 492 0
-47 -85 0
-47 -90 0
-47 -92 0
-47 -94 0
-48 -50 493 0
-48 -77 494 0
-48 -81 0
-48 -83 0
-48 -86 0
-48 -117 0
-49 -54 495 0
-49 -55 496 0
-49 -56 497 0
-49 -58 498 0
-49 -60 499 0
-49 -62 500 0
-50 -77 501 0
-51 -54 502 0
-51 -56 503 0
-51 -58 504 0
-51 -89 0
-51 -94 0
-51 -96 0
-51 -98 0
-52 -54 505 0
-52 -81 0
-52 -85 0
-52 -87 0
-52 -90 0
-53 -58 506 0
-53 -59 507 0
-53 -60 508 0
-53 -62 509 0
-53 -64 510 0
-53 -66 511 0
-55 -58 512 0
-55 -60 513 0
-55 -62 514 0
-55 -93 0
-55 -98 0
-55 -100 0
-55 -102 0
-56 -58 515 0
-56 -85 0
-56 -89 0
-56 -91 0
-56 -94 0
-57 -62 516 0
-57 -63 517 0
-57 -64 518 0
-57 -66 519 0
-57 -68 520 0
-57 -70 521 0
-59 -62 522 0
-59 -64 523 0
-59 -66 524 0
-59 -97 0
-59 -102 0
-59 -104 0
-59 -106 0
-60 -62 525 0
-60 -89 0
-60 -93 0
-60 -95 0
-60 -98 0
-61 -66 526 0
-61 -67 527 0
-61 -68 528 0
-61 -70 529 0
-61 -72 530 0
-61 -74 531 0
-63 -66 532 0
-63 -68 533 0
-63 -70 534 0
-63 -101 0
-63 -106 0
-63 -108 0
-63 -110 0
-64 -66 535 0
-64 -93 0
-64 -97 0
-64 -99 0
-64 -102 0
-65 -70 536 0
-65 -71 537 0
-65 -72 538 0
-65 -74 539 0
-65 -76 540 0
-65 -78 541 0
-67 -70 542 0
-67 -72 543 0
-67 -74 544 0
-67 -105 0
-67 -110 0
-67 -112 0
-67 -114 0
-68 -70 545 0
-68 -97 0
-68 -101 0
-68 -103 0
-68 -106 0
-69 -74 546 0
-69 -75 547 0
-69 -76 548 0
-69 -78 549 0
-69 -80 550 0
-71 -74 551 0
-71 -76 552 0
-71 -78 553 0
-71 -109 0
-71 -114 0
-71 -116 0
-71 -118 0
-72 -74 554 0
-72 -101 0
-72 -105 0
-72 -107 0
-72 -110 0
-73 -78 555 0
-73 -79 556 0
-73 -80 557 0
-75 -78 558 0
-75 -80 559 0
-75 -82 0
-75 -113 0
-75 -118 0
-75 -120 0
-76 -78 560 0
-76 -105 0
-76 -109 0
-76 -111 0
-76 -114 0
-79 -82 0
-79 -84 0
-79 -86 0
-79 -117 0
-80 -109 0
-80 -113 0
-80 -115 0
-80 -118 0
-81 -86 0
-81 -87 0
-81 -88 0
-81 -90 0
-81 -92 0
-81 -94 0
-82 -109 0
-82 -113 0
-82 -115 0
-82 -117 0
-82 -119 0
-82 -120 0
-83 -86 0
-83 -88 0
-83 -90 0
-83 -117 0
-83 -121 0
-83 -126 0
-83 -128 0
-83 -130 0
-84 -86 0
-84 -113 0
-84 -117 0
-84 -119 0
-84 -122 0
-84 -153 0
-84 -157 0
-84 -159 0
-85 -90 0
-85 -91 0
-85 -92 0
-85 -94 0
-85 -96 0
-85 -98 0
-86 -113 0
-86 -117 0
-86 -119 0
-87 -90 0
-87 -92 0
-87 -94 0
-87 -125 0
-87 -130 0
-87 -132 0
-87 -134 0
-88 -90 0
-88 -117 0
-88 -121 0
-88 -123 0
-88 -126 0
-88 -157 0
-89 -94 0
-89 -95 0
-89 -96 0
-89 -98 0
-89 -100 0
-89 -102 0
-90 -117 0
-91 -94 0
-91 -96 0
-91 -98 0
-91 -129 0
-91 -134 0
-91 -136 0
-91 -138 0
-92 -94 0
-92 -121 0
-92 -125 0
-92 -127 0
-92 -130 0
-93 -98 0
-93 -99 0
-93 -100 0
-93 -102 0
-93 -104 0
-93 -106 0
-95 -98 0
-95 -100 0
-95 -102 0
-95 -133 0
-95 -138 0
-95 -140 0
-95 -142 0
-96 -98 0
-96 -125 0
-96 -129 0
-96 -131 0
-96 -134 0
-97 -102 0
-97 -103 0
-97 -104 0
-97 -106 0
-97 -108 0
-97 -110 0
-99 -102 0
-99 -104 0
-99 -106 0
-99 -137 0
-99 -142 0
-99 -144 0
-99 -146 0
-100 -102 0
-100 -129 0
-100 -133 0
-100 -135 0
-100 -138 0
-101 -106 0
-101 -107 0
-101 -108 0
-101 -110 0
-101 -112 0
-101 -114 0
-103 -106 0
-103 -108 0
-103 -110 0
-103 -141 0
-103 -146 0
-103 -148 0
-103 -150 0
-104 -106 0
-104 -133 0
-104 -137 0
-104 -139 0
-104 -142 0
-105 -110 0
-105 -111 0
-105 -112 0
-105 -114 0
-105 -116 0
-105 -118 0
-107 -110 0
-107 -112 0
-107 -114 0
-107 -145 0
-107 -150 0
-107 -152 0
-107 -154 0
-108 -110 0
-108 -137 0
-108 -141 0
-108 -143 0
-108 -146 0
-109 -114 0
-109 -115 0
-109 -116 0
-109 -118 0
-109 -120 0
-111 -114 0
-111 -116 0
-111 -118 0
-111 -149 0
-111 -154 0
-111 -156 0
-111 -158 0
-112 -114 0
-112 -141 0
-112 -145 0
-112 -147 0
-112 -150 0
-113 -118 0
-113 -119 0
-113 -120 0
-115 -118 0
-115 -120 0
-115 -122 0
-115 -153 0
-115 -158 0
-115 -160 0
-116 -118 0
-116 -145 0
-116 -149 0
-116 -151 0
-116 -154 0
-119 -122 0
-119 -124 0
-119 -126 0
-119 -157 0
-120 -149 0
-120 -153 0
-120 -155 0
-120 -158 0
-121 -126 0
-121 -127 0
-121 -128 0
-121 -130 0
-121 -132 0
-121 -134 0
-122 -149 0
-122 -153 0
-122 -155 0
-122 -157 0
-122 -159 0
-122 -160 0
-123 -126 0
-123 -128 0
-123 -130 0
-123 -157 0
-123 -161 0
-123 -166 0
-123 -168 0
-123 -170 0
-124 -126 0
-124 -153 0
-124 -157 0
-124 -159 0
-124 -162 0
-124 -193 0
-124 -197 0
-124 -199 0
-125 -130 0
-125 -131 0
-125 -132 0
-125 -134 0
-125 -136 0
-125 -138 0
-126 -153 0
-126 -157 0
-126 -159 0
-127 -130 0
-127 -132 0
-127 -134 0
-127 -165 0
-127 -170 0
-127 -172 0
-127 -174 0
-128 -130 0
-128 -157 0
-128 -161 0
-128 -163 0
-128 -166 0
-128 -197 0
-129 -134 0
-129 -135 0
-129 -136 0
-129 -138 0
-129 -140 0
-129 -142 0
-130 -157 0
-131 -134 0
-131 -136 0
-131 -138 0
-131 -169 0
-131 -174 0
-131 -176 0
-131 -178 0
-132 -134 0
-132 -161 0
-132 -165 0
-132 -167 0
-132 -170 0
-133 -138 0
-133 -139 0
-133 -140 0
-133 -142 0
-133 -144 0
-133 -146 0
-135 -138 0
-135 -140 0
-135 -142 0
-135 -173 0
-135 -178 0
-135 -180 0
-135 -182 0
-136 -138 0
-136 -165 0
-136 -169 0
-136 -171 0
-136 -174 0
-137 -142 0
-137 -143 0
-137 -144 0
-137 -146 0
-137 -148 0
-137 -150 0
-139 -142 0
-139 -144 0
-139 -146 0
-139 -177 0
-139 -182 0
-139 -184 0
-139 -186 0
-140 -142 0
-140 -169 0
-140 -173 0
-140 -175 0
-140 -178 0
-141 -146 0
-141 -147 0
-141 -148 0
-141 -150 0
-141 -152 0
-141 -154 0
-143 -146 0
-143 -148 0
-143 -150 0
-143 -181 0
-143 -186 0
-143 -188 0
-143 -190 0
-144 -146 0
-144 -173 0
-144 -177 0
-144 -179 0
-144 -182 0
-145 -150 0
-145 -151 0
-145 -152 0
-145 -154 0
-145 -156 0
-145 -158 0
-147 -150 0
-147 -152 0
-147 -154 0
-147 -185 0
-147 -190 0
-147 -192 0
-147 -194 0
-148 -150 0
-148 -177 0
-148 -181 0
-148 -183 0
-148 -186 0
-149 -154 0
-149 -155 0
-149 -156 0
-149 -158 0
-149 -160 0
-151 -154 0
-151 -156 0
-151 -158 0
-151 -189 0
-151 -194 0
-151 -196 0
-151 -198 0
-152 -154 0
-152 -181 0
-152 -185 0
-152 -187 0
-152 -190 0
-153 -158 0
-153 -159 0
-153 -160 0
-155 -158 0
-155 -160 0
-155 -162 0
-155 -193 0
-155 -198 0
-155 -200 0
-156 -158 0
-156 -185 0
-156 -189 0
-156 -191 0
-156 -194 0
-159 -162 0
-159 -164 0
-159 -166 0
-159 -197 0
-160 -189 0
-160 -193 0
-160 -195 0
-160 -198 0
-161 -166 0
-161 -167 0
-161 -168 0
-161 -170 0
-161 -172 0
-161 -174 0
-162 -189 0
-162 -193 0
-162 -195 0
-162 -197 0
-162 -199 0
-162 -200 0
-163 -166 0
-163 -168 0
-163 -170 0
-163 -197 0
-163 -201 0
-163 -206 0
-163 -208 0
-163 -210 0
-164 -166 0
-164 -193 0
-164 -197 0
-164 -199 0
-164 -202 0
-164 -233 0
-164 -237 0
-164 -239 0
-165 -170 0
-165 -171 0
-165 -172 0
-165 -174 0
-165 -176 0
-165 -178 0
-166 -193 0
-166 -197 0
-166 -199 0
-167 -170 0
-167 -172 0
-167 -174 0
-167 -205 0
-167 -210 0
-167 -212 0
-167 -214 0
-168 -170 0
-168 -197 0
-168 -201 0
-168 -203 0
-168 -206 0
-168 -237 0
-169 -174 0
-169 -175 0
-169 -176 0
-169 -178 0
-169 -180 0
-169 -182 0
-170 -197 0
-171 -174 0
-171 -176 0
-171 -178 0
-171 -209 0
-171 -214 0
-171 -216 0
-171 -218 0
-172 -174 0
-172 -201 0
-172 -205 0
-172 -207 0
-172 -210 0
-173 -178 0
-173 -179 0
-173 -180 0
-173 -182 0
-173 -184 0
-173 -186 0
-175 -178 0
-175 -180 0
-175 -182 0
-175 -213 0
-175 -218 0
-175 -220 0
-175 -222 0
-176 -178 0
-176 -205 0
-176 -209 0
-176 -211 0
-176 -214 0
-177 -182 0
-177 -183 0
-177 -184 0
-177 -186 0
-177 -188 0
-177 -190 0
-179 -182 0
-179 -184 0
-179 -186 0
-179 -217 0
-179 -222 0
-179 -224 0
-179 -226 0
-180 -182 0
-180 -209 0
-180 -213 0
-180 -215 0
-180 -218 0
-181 -186 0
-181 -187 0
-181 -188 0
-181 -190 0
-181 -192 0
-181 -194 0
-183 -186 0
-183 -188 0
-183 -190 0
-183 -221 0
-183 -226 0
-183 -228 0
-183 -230 0
-184 -186 0
-184 -213 0
-184 -217 0
-184 -219 0
-184 -222 0
-185 -190 0
-185 -191 0
-185 -192 0
-185 -194 0
-185 -196 0
-185 -198 0
-187 -190 0
-187 -192 0
-187 -194 0
-187 -225 0
-187 -230 0
-187 -232 0
-187 -234 0
-188 -190 0
-188 -217 0
-188 -221 0
-188 -223 0
-188 -226 0
-189 -194 0
-189 -195 0
-189 -196 0
-189 -198 0
-189 -200 0
-191 -194 0
-191 -196 0
-191 -198 0
-191 -229 0
-191 -234 0
-191 -236 0
-191 -238 0
-192 -194 0
-192 -221 0
-192 -225 0
-192 -227 0
-192 -230 0
-193 -198 0
-193 -199 0
-193 -200 0
-195 -198 0
-195 -200 0
-195 -202 0
-195 -233 0
-195 -238 0
-195 -240 0
-196 -198 0
-196 -225 0
-196 -229 0
-196 -231 0
-196 -234 0
-199 -202 0
-199 -204 0
-199 -206 0
-199 -237 0
-200 -229 0
-200 -233 0
-200 -235 0
-200 -238 0
-201 -206 0
-201 -207 0
-201 -208 0
-201 -210 0
-201 -212 0
-201 -214 0
-202 -229 0
-202 -233 0
-202 -235 0
-202 -237 0
-202 -239 0
-202 -240 0
-203 -206 0
-203 -208 0
-203 -210 0
-203 -237 0
-203 -241 0
-203 -246 0
-203 -248 0
-203 -250 0
-204 -206 0
-204 -233 0
-204 -237 0
-204 -239 0
-204 -242 0
-204 -273 0
-204 -277 0
-204 -279 0
-205 -210 0
-205 -211 0
-205 -212 0
-205 -214 0
-205 -216 0
-205 -218 0
-206 -233 0
-206 -237 0
-206 -239 0
-207 -210 0
-207 -212 0
-207 -214 0
-207 -245 0
-207 -250 0
-207 -252 0
-207 -254 0
-208 -210 0
-208 -237 0
-208 -241 0
-208 -243 0
-208 -246 0
-208 -277 0
-209 -214 0
-209 -215 0
-209 -216 0
-209 -218 0
-209 -220 0
-209 -222 0
-210 -237 0
-211 -214 0
-211 -216 0
-211 -218 0
-211 -249 0
-211 -254 0
-211 -256 0
-211 -258 0
-212 -214 0
-212 -241 0
-212 -245 0
-212 -247 0
-212 -250 0
-213 -218 0
-213 -219 0
-213 -220 0
-213 -222 0
-213 -224 0
-213 -226 0
-215 -218 0
-215 -220 0
-215 -222 0
-215 -253 0
-215 -258 0
-215 -260 0
-215 -262 0
-216 -218 0
-216 -245 0
-216 -249 0
-216 -251 0
-216 -254 0
-217 -222 0
-217 -223 0
-217 -224 0
-217 -226 0
-217 -228 0
-217 -230 0
-219 -222 0
-219 -224 0
-219 -226 0
-219 -257 0
-219 -262 0
-219 -264 0
-219 -266 0
-220 -222 0
-220 -249 0
-220 -253 0
-220 -255 0
-220 -258 0
-221 -226 0
-221 -227 0
-221 -228 0
-221 -230 0
-221 -232 0
-221 -234 0
-223 -226 0
-223 -228 0
-223 -230 0
-223 -261 0
-223 -266 0
-223 -268 0
-223 -270 0
-224 -226 0
-224 -253 0
-224 -257 0
-224 -259 0
-224 -262 0
-225 -230 0
-225 -231 0
-225 -232 0
-225 -234 0
-225 -236 0
-225 -238 0
-227 -230 0
-227 -232 0
-227 -234 0
-227 -265 0
-227 -270 0
-227 -272 0
-227 -274 0
-228 -230 0
-228 -257 0
-228 -261 0
-228 -263 0
-228 -266 0
-229 -234 0
-229 -235 0
-229 -236 0
-229 -238 0
-229 -240 0
-231 -234 0
-231 -236 0
-231 -238 0
-231 -269 0
-231 -274 0
-231 -276 0
-231 -278 0
-232 -234 0
-232 -261 0
-232 -265 0
-232 -267 0
-232 -270 0
-233 -238 0
-233 -239 0
-233 -240 0
-235 -238 0
-235 -240 0
-235 -242 0
-235 -273 0
-235 -278 0
-235 -280 0
-236 -238 0
-236 -265 0
-236 -269 0
-236 -271 0
-236 -274 0
-239 -242 0
-239 -244 0
-239 -246 0
-239 -277 0
-240 -269 0
-240 -273 0
-240 -275 0
-240 -278 0
-241 -246 0
-241 -247 0
-241 -248 0
-241 -250 0
-241 -252 0
-241 -254 0
-242 -269 0
-242 -273 0
-242 -275 0
-242 -277 0
-242 -279 0
-242 -280 0
-243 -246 0
-243 -248 0
-243 -250 0
-243 -277 0
-244 -246 0
-244 -273 0
-244 -277 0
-244 -279 0
-245 -250 0
-245 -251 0
-245 -252 0
-245 -254 0
-245 -256 0
-245 -258 0
-246 -273 0
-246 -277 0
-246 -279 0
-247 -250 0
-247 -252 0
-247 -254 0
-248 -250 0
-248 -277 0
-249 -254 0
-249 -255 0
-249 -256 0
-249 -258 0
-249 -260 0
-249 -262 0
-250 -277 0
-251 -254 0
-251 -256 0
-251 -258 0
-252 -254 0
-253 -258 0
-253 -259 0
-253 -260 0
-253 -262 0
-253 -264 0
-253 -266 0
-255 -258 0
-255 -260 0
-255 -262 0
-256 -258 0
-257 -262 0
-257 -263 0
-257 -264 0
-257 -266 0
-257 -268 0
-257 -270 0
-259 -262 0
-259 -264 0
-259 -266 0
-260 -262 0
-261 -266 0
-261 -267 0
-261 -268 0
-261 -270 0
-261 -272 0
-261 -274 0
-263 -266 0
-263 -268 0
-263 -270 0
-264 -266 0
-265 -270 0
-265 -271 0
-265 -272 0
-265 -274 0
-265 -276 0
-265 -278 0
-267 -270 0
-267 -272 0
-267 -274 0
-268 -270 0
-269 -274 0
-269 -275 0
-269 -276 0
-269 -278 0
-269 -280 0
-271 -274 0
-271 -276 0
-271 -278 0
-272 -274 0
-273 -278 0
-273 -279 0
-273 -280 0
-275 -278 0
-275 -280 0
-276 -278 0
128 163 166 197 0
-128 -163 0
-128 -166 0
-128 -197 0
-163 -166 0
-163 -197 0
-166 -197 0
163 168 170 197 0
-163 -168 0
-163 -170 0
-163 -197 0
-168 -170 0
-168 -197 0
-170 -197 0
123 161 168 170 0
-123 -161 0
-123 -168 0
-123 -170 0
-161 -168 0
-161 -170 0
-168 -170 0
123 128 161 166 0
-123 -128 0
-123 -161 0
-123 -166 0
-128 -161 0
-128 -166 0
-161 -166 0
132 161 167 170 0
-132 -161 0
-132 -167 0
-132 -170 0
-161 -167 0
-161 -170 0
-167 -170 0
161 167 172 174 0
-161 -167 0
-161 -172 0
-161 -174 0
-167 -172 0
-167 -174 0
-172 -174 0
127 165 172 174 0
-127 -165 0
-127 -172 0
-127 -174 0
-165 -172 0
-165 -174 0
-172 -174 0
127 132 165 170 0
-127 -132 0
-127 -165 0
-127 -170 0
-132 -165 0
-132 -170 0
-165 -170 0
136 165 171 174 0
-136 -165 0
-136 -171 0
-136 -174 0
-165 -171 0
-165 -174 0
-171 -174 0
165 171 176 178 0
-165 -171 0
-165 -176 0
-165 -178 0
-171 -176 0
-171 -178 0
-176 -178 0
131 169 176 178 0
-131 -169 0
-131 -176 0
-131 -178 0
-169 -176 0
-169 -178 0
-176 -178 0
131 136 169 174 0
-131 -136 0
-131 -169 0
-131 -174 0
-136 -169 0
-136 -174 0
-169 -174 0
140 169 175 178 0
-140 -169 0
-140 -175 0
-140 -178 0
-169 -175 0
-169 -178 0
-175 -178 0
169 175 180 182 0
-169 -175 0
-169 -180 0
-169 -182 0
-175 -180 0
-175 -182 0
-180 -182 0
135 173 180 182 0
-135 -173 0
-135 -180 0
-135 -182 0
-173 -180 0
-173 -182 0
-180 -182 0
135 140 173 178 0
-135 -140 0
-135 -173 0
-135 -178 0
-140 -173 0
-140 -178 0
-173 -178 0
144 173 179 182 0
-144 -173 0
-144 -179 0
-144 -182 0
-173 -179 0
-173 -182 0
-179 -182 0
173 179 184 186 0
-173 -179 0
-173 -184 0
-173 -186 0
-179 -184 0
-179 -186 0
-184 -186 0
139 177 184 186 0
-139 -177 0
-139 -184 0
-139 -186 0
-177 -184 0
-177 -186 0
-184 -186 0
139 144 177 182 0
-139 -144 0
-139 -177 0
-139 -182 0
-144 -177 0
-144 -182 0
-177 -182 0
148 177 183 186 0
-148 -177 0
-148 -183 0
-148 -186 0
-177 -183 0
-177 -186 0
-183 -186 0
177 183 188 190 0
-177 -183 0
-177 -188 0
-177 -190 0
-183 -188 0
-183 -190 0
-188 -190 0
143 181 188 190 0
-143 -181 0
-143 -188 0
-143 -190 0
-181 -188 0
-181 -190 0
-188 -190 0
143 148 181 186 0
-143 -148 0
-143 -181 0
-143 -186 0
-148 -181 0
-148 -186 0
-181 -186 0
152 181 187 190 0
-152 -181 0
-152 -187 0
-152 -190 0
-181 -187 0
-181 -190 0
-187 -190 0
181 187 192 194 0
-181 -187 0
-181 -192 0
-181 -194 0
-187 -192 0
-187 -194 0
-192 -194 0
147 185 192 194 0
-147 -185 0
-147 -192 0
-147 -194 0
-185 -192 0
-185 -194 0
-192 -194 0
147 152 185 190 0
-147 -152 0
-147 -185 0
-147 -190 0
-152 -185 0
-152 -190 0
-185 -190 0
156 185 191 194 0
-156 -185 0
-156 -191 0
-156 -194 0
-185 -191 0
-185 -194 0
-191 -194 0
185 191 196 198 0
-185 -191 0
-185 -196 0
-185 -198 0
-191 -196 0
-191 -198 0
-196 -198 0
151 189 196 198 0
-151 -189 0
-151 -196 0
-151 -198 0
-189 -196 0
-189 -198 0
-196 -198 0
151 156 189 194 0
-151 -156 0
-151 -189 0
-151 -194 0
-156 -189 0
-156 -194 0
-189 -194 0
160 189 195 198 0
-160 -189 0
-160 -195 0
-160 -198 0
-189 -195 0
-189 -198 0
-195 -198 0
162 189 195 200 0
-162 -189 0
-162 -195 0
-162 -200 0
-189 -195 0
-189 -200 0
-195 -200 0
155 162 193 200 0
-155 -162 0
-155 -193 0
-155 -200 0
-162 -193 0
-162 -200 0
-193 -200 0
155 160 193 198 0
-155 -160 0
-155 -193 0
-155 -198 0
-160 -193 0
-160 -198 0
-193 -198 0
124 162 193 199 0
-124 -162 0
-124 -193 0
-124 -199 0
-162 -193 0
-162 -199 0
-193 -199 0
164 166 193 199 0
-164 -166 0
-164 -193 0
-164 -199 0
-166 -193 0
-166 -199 0
-193 -199 0
159 164 166 197 0
-159 -164 0
-159 -166 0
-159 -197 0
-164 -166 0
-164 -197 0
-166 -197 0
124 159 162 197 0
-124 -159 0
-124 -162 0
-124 -197 0
-159 -162 0
-159 -197 0
-162 -197 0
168 203 206 237 0
-168 -203 0
-168 -206 0
-168 -237 0
-203 -206 0
-203 -237 0
-206 -237 0
203 208 210 237 0
-203 -208 0
-203 -210 0
-203 -237 0
-208 -210 0
-208 -237 0
-210 -237 0
163 201 208 210 0
-163 -201 0
-163 -208 0
-163 -210 0
-201 -208 0
-201 -210 0
-208 -210 0
163 168 201 206 0
-163 -168 0
-163 -201 0
-163 -206 0
-168 -201 0
-168 -206 0
-201 -206 0
172 201 207 210 0
-172 -201 0
-172 -207 0
-172 -210 0
-201 -207 0
-201 -210 0
-207 -210 0
201 207 212 214 0
-201 -207 0
-201 -212 0
-201 -214 0
-207 -212 0
-207 -214 0
-212 -214 0
167 205 212 214 0
-167 -205 0
-167 -212 0
-167 -214 0
-205 -212 0
-205 -214 0
-212 -214 0
167 172 205 210 0
-167 -172 0
-167 -205 0
-167 -210 0
-172 -205 0
-172 -210 0
-205 -210 0
176 205 211 214 0
-176 -205 0
-176 -211 0
-176 -214 0
-205 -211 0
-205 -214 0
-211 -214 0
205 211 216 218 0
-205 -211 0
-205 -216 0
-205 -218 0
-211 -216 0
-211 -218 0
-216 -218 0
171 209 216 218 0
-171 -209 0
-171 -216 0
-171 -218 0
-209 -216 0
-209 -218 0
-216 -218 0
171 176 209 214 0
-171 -176 0
-171 -209 0
-171 -214 0
-176 -209 0
-176 -214 0
-209 -214 0
180 209 215 218 0
-180 -209 0
-180 -215 0
-180 -218 0
-209 -215 0
-209 -218 0
-215 -218 0
209 215 220 222 0
-209 -215 0
-209 -220 0
-209 -222 0
-215 -220 0
-215 -222 0
-220 -222 0
175 213 220 222 0
-175 -213 0
-175 -220 0
-175 -222 0
-213 -220 0
-213 -222 0
-220 -222 0
175 180 213 218 0
-175 -180 0
-175 -213 0
-175 -218 0
-180 -213 0
-180 -218 0
-213 -218 0
184 213 219 222 0
-184 -213 0
-184 -219 0
-184 -222 0
-213 -219 0
-213 -222 0
-219 -222 0
213 219 224 226 0
-213 -219 0
-213 -224 0
-213 -226 0
-219 -224 0
-219 -226 0
-224 -226 0
179 217 224 226 0
-179 -217 0
-179 -224 0
-179 -226 0
-217 -224 0
-217 -226 0
-224 -226 0
179 184 217 222 0
-179 -184 0
-179 -217 0
-179 -222 0
-184 -217 0
-184 -222 0
-217 -222 0
188 217 223 226 0
-188 -217 0
-188 -223 0
-188 -226 0
-217 -223 0
-217 -226 0
-223 -226 0
217 223 228 230 0
-217 -223 0
-217 -228 0
-217 -230 0
-223 -228 0
-223 -230 0
-228 -230 0
183 221 228 230 0
-183 -221 0
-183 -228 0
-183 -230 0
-221 -228 0
-221 -230 0
-228 -230 0
183 188 221 226 0
-183 -188 0
-183 -221 0
-183 -226 0
-188 -221 0
-188 -226 0
-221 -226 0
192 221 227 230 0
-192 -221 0
-192 -227 0
-192 -230 0
-221 -227 0
-221 -230 0
-227 -230 0
221 227 232 234 0
-221 -227 0
-221 -232 0
-221 -234 0
-227 -232 0
-227 -234 0
-232 -234 0
187 225 232 234 0
-187 -225 0
-187 -232 0
-187 -234 0
-225 -232 0
-225 -234 0
-232 -234 0
187 192 225 230 0
-187 -192 0
-187 -225 0
-187 -230 0
-192 -225 0
-192 -230 0
-225 -230 0
196 225 231 234 0
-196 -225 0
-196 -231 0
-196 -234 0
-225 -231 0
-225 -234 0
-231 -234 0
225 231 236 238 0
-225 -231 0
-225 -236 0
-225 -238 0
-231 -236 0
-231 -238 0
-236 -238 0
191 229 236 238 0
-191 -229 0
-191 -236 0
-191 -238 0
-229 -236 0
-229 -238 0
-236 -238 0
191 196 229 234 0
-191 -196 0
-191 -229 0
-191 -234 0
-196 -229 0
-196 -234 0
-229 -234 0
200 229 235 238 0
-200 -229 0
-200 -235 0
-200 -238 0
-229 -235 0
-229 -238 0
-235 -238 0
202 229 235 240 0
-202 -229 0
-202 -235 0
-202 -240 0
-229 -235 0
-229 -240 0
-235 -240 0
195 202 233 240 0
-195 -202 0
-195 -233 0
-195 -240 0
-202 -233 0
-202 -240 0
-233 -240 0
195 200 233 238 0
-195 -200 0
-195 -233 0
-195 -238 0
-200 -233 0
-200 -238 0
-233 -238 0
164 202 233 239 0
-164 -202 0
-164 -233 0
-164 -239 0
-202 -233 0
-202 -239 0
-233 -239 0
204 206 233 239 0
-204 -206 0
-204 -233 0
-204 -239 0
-206 -233 0
-206 -239 0
-233 -239 0
199 204 206 237 0
-199 -204 0
-199 -206 0
-199 -237 0
-204 -206 0
-204 -237 0
-206 -237 0
164 199 202 237 0
-164 -199 0
-164 -202 0
-164 -237 0
-199 -202 0
-199 -237 0
-202 -237 0
208 243 246 277 0
-208 -243 0
-208 -246 0
-208 -277 0
-243 -246 0
-243 -277 0
-246 -277 0
243 248 250 277 0
-243 -248 0
-243 -250 0
-243 -277 0
-248 -250 0
-248 -277 0
-250 -277 0
203 241 248 250 0
-203 -241 0
-203 -248 0
-203 -250 0
-241 -248 0
-241 -250 0
-248 -250 0
203 208 241 246 0
-203 -208 0
-203 -241 0
-203 -246 0
-208 -241 0
-208 -246 0
-241 -246 0
212 241 247 250 0
-212 -241 0
-212 -247 0
-212 -250 0
-241 -247 0
-241 -250 0
-247 -250 0
241 247 252 254 0
-241 -247 0
-241 -252 0
-241 -254 0
-247 -252 0
-247 -254 0
-252 -254 0
207 245 252 254 0
-207 -245 0
-207 -252 0
-207 -254 0
-245 -252 0
-245 -254 0
-252 -254 0
207 212 245 250 0
-207 -212 0
-207 -245 0
-207 -250 0
-212 -245 0
-212 -250 0
-245 -250 0
216 245 251 254 0
-216 -245 0
-216 -251 0
-216 -254 0
-245 -251 0
-245 -254 0
-251 -254 0
245 251 256 258 0
-245 -251 0
-245 -256 0
-245 -258 0
-251 -256 0
-251 -258 0
-256 -258 0
211 249 256 258 0
-211 -249 0
-211 -256 0
-211 -258 0
-249 -256 0
-249 -258 0
-256 -258 0
211 216 249 254 0
-211 -216 0
-211 -249 0
-211 -254 0
-216 -249 0
-216 -254 0
-249 -254 0
220 249 255 258 0
-220 -249 0
-220 -255 0
-220 -258 0
-249 -255 0
-249 -258 0
-255 -258 0
249 255 260 262 0
-249 -255 0
-249 -260 0
-249 -262 0
-255 -260 0
-255 -262 0
-260 -262 0
215 253 260 262 0
-215 -253 0
-215 -260 0
-215 -262 0
-253 -260 0
-253 -262 0
-260 -262 0
215 220 253 258 0
-215 -220 0
-215 -253 0
-215 -258 0
-220 -253 0
-220 -258 0
-253 -258 0
224 253 259 262 0
-224 -253 0
-224 -259 0
-224 -262 0
-253 -259 0
-253 -262 0
-259 -262 0
253 259 264 266 0
-253 -259 0
-253 -264 0
-253 -266 0
-259 -264 0
-259 -266 0
-264 -266 0
219 257 264 266 0
-219 -257 0
-219 -264 0
-219 -266 0
-257 -264 0
-257 -266 0
-264 -266 0
219 224 257 262 0
-219 -224 0
-219 -257 0
-219 -262 0
-224 -257 0
-224 -262 0
-257 -262 0
228 257 263 266 0
-228 -257 0
-228 -263 0
-228 -266 0
-257 -263 0
-257 -266 0
-263 -266 0
257 263 268 270 0
-257 -263 0
-257 -268 0
-257 -270 0
-263 -268 0
-263 -270 0
-268 -270 0
223 261 268 270 0
-223 -261 0
-223 -268 0
-223 -270 0
-261 -268 0
-261 -270 0
-268 -270 0
223 228 261 266 0
-223 -228 0
-223 -261 0
-223 -266 0
-228 -261 0
-228 -266 0
-261 -266 0
232 261 267 270 0
-232 -261 0
-232 -267 0
-232 -270 0
-261 -267 0
-261 -270 0
-267 -270 0
261 267 272 274 0
-261 -267 0
-261 -272 0
-261 -274 0
-267 -272 0
-267 -274 0
-272 -274 0
227 265 272 274 0
-227 -265 0
-227 -272 0
-227 -274 0
-265 -272 0
-265 -274 0
-272 -274 0
227 232 265 270 0
-227 -232 0
-227 -265 0
-227 -270 0
-232 -265 0
-232 -270 0
-265 -270 0
236 265 271 274 0
-236 -265 0
-236 -271 0
-236 -274 0
-265 -271 0
-265 -274 0
-271 -274 0
265 271 276 278 0
-265 -271 0
-265 -276 0
-265 -278 0
-271 -276 0
-271 -278 0
-276 -278 0
231 269 276 278 0
-231 -269 0
-231 -276 0
-231 -278 0
-269 -276 0
-269 -278 0
-276 -278 0
231 236 269 274 0
-231 -236 0
-231 -269 0
-231 -274 0
-236 -269 0
-236 -274 0
-269 -274 0
240 269 275 278 0
-240 -269 0
-240 -275 0
-240 -278 0
-269 -275 0
-269 -278 0
-275 -278 0
242 269 275 280 0
-242 -269 0
-242 -275 0
-242 -280 0
-269 -275 0
-269 -280 0
-275 -280 0
235 242 273 280 0
-235 -242 0
-235 -273 0
-235 -280 0
-242 -273 0
-242 -280 0
-273 -280 0
235 240 273 278 0
-235 -240 0
-235 -273 0
-235 -278 0
-240 -273 0
-240 -278 0
-273 -278 0
204 242 273 279 0
-204 -242 0
-204 -273 0
-204 -279 0
-242 -273 0
-242 -279 0
-273 -279 0
244 246 273 279 0
-244 -246 0
-244 -273 0
-244 -279 0
-246 -273 0
-246 -279 0
-273 -279 0
239 244 246 277 0
-239 -244 0
-239 -246 0
-239 -277 0
-244 -246 0
-244 -277 0
-246 -277 0
204 239 242 277 0
-204 -239 0
-204 -242 0
-204 -277 0
-239 -242 0
-239 -277 0
-242 -277 0
563 0
-561 0
-562 0
-561 43 564 0
-561 -43 565 0
-562 43 565 0
-562 -43 566 0
-563 43 566 0
-563 -43 564 0
-564 -565 0
-564 -566 0
-565 -566 0
-564 48 567 0
-564 -48 568 0
-565 48 568 0
-565 -48 569 0
-566 48 569 0
-566 -48 567 0
-567 -568 0
-567 -569 0
-568 -569 0
-567 50 570 0
-567 -50 572 0
-568 50 571 0
-568 -50 570 0
-569 50 572 0
-569 -50 571 0
-570 -571 0
-570 -572 0
-571 -572 0
-570 77 573 0
-570 -77 575 0
-571 77 574 0
-571 -77 573 0
-572 77 575 0
-572 -77 574 0
-573 -574 0
-573 -575 0
-574 -575 0
-573 81 576 0
-573 -81 578 0
-574 81 577 0
-574 -81 576 0
-575 81 578 0
-575 -81 577 0
-576 -577 0
-576 -578 0
-577 -578 0
-576 86 579 0
-576 -86 581 0
-577 86 580 0
-577 -86 579 0
-578 86 581 0
-578 -86 580 0
-579 -580 0
-579 -581 0
-580 -581 0
-579 83 582 0
-579 -83 584 0
-580 83 583 0
-580 -83 582 0
-581 83 584 0
-581 -83 583 0
-582 -583 0
-582 -584 0
-583 -584 0
-582 88 585 0
-582 -88 587 0
-583 88 586 0
-583 -88 585 0
-584 88 587 0
-584 -88 586 0
-585 -586 0
-585 -587 0
-586 -587 0
-585 90 588 0
-585 -90 589 0
-586 90 589 0
-586 -90 590 0
-587 90 590 0
-587 -90 588 0
-588 -589 0
-588 -590 0
-589 -590 0
-588 117 591 0
-588 -117 592 0
-589 117 592 0
-589 -117 593 0
-590 117 593 0
-590 -117 591 0
-591 -592 0
-591 -593 0
-592 -593 0
-591 121 594 0
-591 -121 595 0
-592 121 595 0
-592 -121 596 0
-593 121 596 0
-593 -121 594 0
-594 -595 0
-594 -596 0
-595 -596 0
-594 126 597 0
-594 -126 598 0
-595 126 598 0
-595 -126 599 0
-596 126 599 0
-596 -126 597 0
-597 -598 0
-597 -599 0
-598 -599 0
-597 123 600 0
-597 -123 601 0
-598 123 601 0
-598 -123 602 0
-599 123 602 0
-599 -123 600 0
-600 -601 0
-600 -602 0
-601 -602 0
-600 128 603 0
-600 -128 604 0
-601 128 604 0
-601 -128 605 0
-602 128 605 0
-602 -128 603 0
-603 -604 0
-603 -605 0
-604 -605 0
-603 130 606 0
-603 -130 608 0
-604 130 607 0
-604 -130 606 0
-605 130 608 0
-605 -130 607 0
-606 -607 0
-606 -608 0
-607 -608 0
-606 157 609 0
-606 -157 611 0
-607 157 610 0
-607 -157 609 0
-608 157 611 0
-608 -157 610 0
-609 -610 0
-609 -611 0
-610 -611 0
-609 161 612 0
-609 -161 614 0
-610 161 613 0
-610 -161 612 0
-611 161 614 0
-611 -161 613 0
-612 -613 0
-612 -614 0
-613 -614 0
-612 166 615 0
-612 -166 617 0
-613 166 616 0
-613 -166 615 0
-614 166 617 0
-614 -166 616 0
-615 -616 0
-615 -617 0
-616 -617 0
-615 163 618 0
-615 -163 620 0
-616 163 619 0
-616 -163 618 0
-617 163 620 0
-617 -163 619 0
-618 -619 0
-618 -620 0
-619 -620 0
-618 168 621 0
-618 -168 623 0
-619 168 622 0
-619 -168 621 0
-620 168 623 0
-620 -168 622 0
-621 -622 0
-621 -623 0
-622 -623 0
-621 170 624 0
-621 -170 625 0
-622 170 625 0
-622 -170 626 0
-623 170 626 0
-623 -170 624 0
-624 -625 0
-624 -626 0
-625 -626 0
-624 197 627 0
-624 -197 628 0
-625 197 628 0
-625 -197 629 0
-626 197 629 0
-626 -197 627 0
-627 -628 0
-627 -629 0
-628 -629 0
-627 201 630 0
-627 -201 631 0
-628 201 631 0
-628 -201 632 0
-629 201 632 0
-629 -201 630 0
-630 -631 0
-630 -632 0
-631 -632 0
-630 206 633 0
-630 -206 634 0
-631 206 634 0
-631 -206 635 0
-632 206 635 0
-632 -206 633 0
-633 -634 0
-633 -635 0
-634 -635 0
-633 203 636 0
-633 -203 637 0
-634 203 637 0
-634 -203 638 0
-635 203 638 0
-635 -203 636 0
-636 -637 0
-636 -638 0
-637 -638 0
-636 208 639 0
-636 -208 640 0
-637 208 640 0
-637 -208 641 0
-638 208 641 0
-638 -208 639 0
-639 -640 0
-639 -641 0
-640 -641 0
-639 210 642 0
-639 -210 644 0
-640 210 643 0
-640 -210 642 0
-641 210 644 0
-641 -210 643 0
-642 -643 0
-642 -644 0
-643 -644 0
-642 237 645 0
-642 -237 647 0
-643 237 646 0
-643 -237 645 0
-644 237 647 0
-644 -237 646 0
-645 -646 0
-645 -647 0
-646 -647 0
-645 241 648 0
-645 -241 650 0
-646 241 649 0
-646 -241 648 0
-647 241 650 0
-647 -241 649 0
-648 -649 0
-648 -650 0
-649 -650 0
-648 246 651 0
-648 -246 653 0
-649 246 652 0
-649 -246 651 0
-650 246 653 0
-650 -246 652 0
-651 -652 0
-651 -653 0
-652 -653 0
-651 0
-3 -8 0
654 0
-655 0
-656 0
-654 37 657 0
-654 -37 659 0
-655 37 658 0
-655 -37 657 0
-656 37 659 0
-656 -37 658 0
-657 -658 0
-657 -659 0
-658 -659 0
-657 2 660 0
-657 -2 662 0
-658 2 661 0
-658 -2 660 0
-659 2 662 0
-659 -2 661 0
-660 -661 0
-660 -662 0
-661 -662 0
-660 4 663 0
-660 -4 665 0
-661 4 664 0
-661 -4 663 0
-662 4 665 0
-662 -4 664 0
-663 -664 0
-663 -665 0
-664 -665 0
-663 6 666 0
-663 -6 667 0
-664 6 667 0
-664 -6 668 0
-665 6 668 0
-665 -6 666 0
-666 -667 0
-666 -668 0
-667 -668 0
-666 8 669 0
-666 -8 670 0
-667 8 670 0
-667 -8 671 0
-668 8 671 0
-668 -8 669 0
-669 -670 0
-669 -671 0
-670 -671 0
-669 10 672 0
-669 -10 674 0
-670 10 673 0
-670 -10 672 0
-671 10 674 0
-671 -10 673 0
-672 -673 0
-672 -674 0
-673 -674 0
-672 41 675 0
-672 -41 677 0
-673 41 676 0
-673 -41 675 0
-674 41 677 0
-674 -41 676 0
-675 -676 0
-675 -677 0
-676 -677 0
-675 46 678 0
-675 -46 680 0
-676 46 679 0
-676 -46 678 0
-677 46 680 0
-677 -46 679 0
-678 -679 0
-678 -680 0
-679 -680 0
-678 0
-679 0
-281 681 0
-681 682 0
-282 -681 683 0
-683 684 0
-283 -683 685 0
-685 686 0
-284 -685 687 0
-687 688 0
-285 -687 689 0
-689 690 0
-286 -689 691 0
-691 692 0
-287 -691 693 0
-693 694 0
-288 -693 695 0
-695 696 0
-289 -695 697 0
-697 698 0
-290 -697 699 0
-699 700 0
-291 -699 701 0
-701 702 0
-292 -701 703 0
-703 704 0
-293 -703 705 0
-705 706 0
-294 -705 707 0
-707 708 0
-295 -707 709 0
-709 710 0
-296 -709 711 0
-711 712 0
-297 -711 713 0
-713 714 0
-298 -713 715 0
-715 716 0
-299 -715 717 0
-717 718 0
-300 -717 719 0
-719 720 0
-301 -719 721 0
-721 722 0
-302 -721 723 0
-723 724 0
-303 -723 0
-282 682 0
-682 725 0
-283 -682 684 0
-684 726 0
-284 -684 686 0
-686 727 0
-285 -686 688 0
-688 728 0
-286 -688 690 0
-690 729 0
-287 -690 692 0
-692 730 0
-288 -692 694 0
-694 731 0
-289 -694 696 0
-696 732 0
-290 -696 698 0
-698 733 0
-291 -698 700 0
-700 734 0
-292 -700 702 0
-702 735 0
-293 -702 704 0
-704 736 0
-294 -704 706 0
-706 737 0
-295 -706 708 0
-708 738 0
-296 -708 710 0
-710 739 0
-297 -710 712 0
-712 740 0
-298 -712 714 0
-714 741 0
-299 -714 716 0
-716 742 0
-300 -716 718 0
-718 743 0
-301 -718 720 0
-720 744 0
-302 -720 722 0
-722 745 0
-303 -722 724 0
-724 746 0
-304 -724 0
-283 725 0
-725 747 0
-284 -725 726 0
-726 748 0
-285 -726 727 0
-727 749 0
-286 -727 728 0
-728 750 0
-287 -728 729 0
-729 751 0
-288 -729 730 0
-730 752 0
-289 -730 731 0
-731 753 0
-290 -731 732 0
-732 754 0
-291 -732 733 0
-733 755 0
-292 -733 734 0
-734 756 0
-293 -734 735 0
-735 757 0
-294 -735 736 0
-736 758 0
-295 -736 737 0
-737 759 0
-296 -737 738 0
-738 760 0
-297 -738 739 0
-739 761 0
-298 -739 740 0
-740 762 0
-299 -740 741 0
-741 763 0
-300 -741 742 0
-742 764 0
-301 -742 743 0
-743 765 0
-302 -743 744 0
-744 766 0
-303 -744 745 0
-745 767 0
-304 -745 746 0
-746 768 0
-305 -746 0
-284 747 0
-747 769 0
-285 -747 748 0
-748 770 0
-286 -748 749 0
-749 771 0
-287 -749 750 0
-750 772 0
-288 -750 751 0
-751 773 0
-289 -751 752 0
-752 774 0
-290 -752 753 0
-753 775 0
-291 -753 754 0
-754 776 0
-292 -754 755 0
-755 777 0
-293 -755 756 0
-756 778 0
-294 -756 757 0
-757 779 0
-295 -757 758 0
-758 780 0
-296 -758 759 0
-759 781 0
-297 -759 760 0
-760 782 0
-298 -760 761 0
-761 783 0
-299 -761 762 0
-762 784 0
-300 -762 763 0
-763 785 0
-301 -763 764 0
-764 786 0
-302 -764 765 0
-765 787 0
-303 -765 766 0
-766 788 0
-304 -766 767 0
-767 789 0
-305 -767 768 0
-768 790 0
-306 -768 0
-285 769 0
-769 791 0
-286 -769 770 0
-770 792 0
-287 -770 771 0
-771 793 0
-288 -771 772 0
-772 794 0
-289 -772 773 0
-773 795 0
-290 -773 774 0
-774 796 0
-291 -774 775 0
-775 797 0
-292 -775 776 0
-776 798 0
-293 -776 777 0
-777 799 0
-294 -777 778 0
-778 800 0
-295 -778 779 0
-779 801 0
-296 -779 780 0
-780 802 0
-297 -780 781 0
-781 803 0
-298 -781 782 0
-782 804 0
-299 -782 783 0
-783 805 0
-300 -783 784 0
-784 806 0
-301 -784 785 0
-785 807 0
-302 -785 786 0
-786 808 0
-303 -786 787 0
-787 809 0
-304 -787 788 0
-788 810 0
-305 -788 789 0
-789 811 0
-306 -789 790 0
-790 812 0
-307 -790 0
-286 791 0
-791 813 0
-287 -791 792 0
-792 814 0
-288 -792 793 0
-793 815 0
-289 -793 794 0
-794 816 0
-290 -794 795 0
-795 817 0
-291 -795 796 0
-796 818 0
-292 -796 797 0
-797 819 0
-293 -797 798 0
-798 820 0
-294 -798 799 0
-799 821 0
-295 -799 800 0
-800 822 0
-296 -800 801 0
-801 823 0
-297 -801 802 0
-802 824 0
-298 -802 803 0
-803 825 0
-299 -803 804 0
-804 826 0
-300 -804 805 0
-805 827 0
-301 -805 806 0
-806 828 0
-302 -806 807 0
-807 829 0
-303 -807 808 0
-808 830 0
-304 -808 809 0
-809 831 0
-305 -809 810 0
-810 832 0
-306 -810 811 0
-811 833 0
-307 -811 812 0
-812 834 0
-308 -812 0
-287 813 0
-813 835 0
-288 -813 814 0
-814 836 0
-289 -814 815 0
-815 837 0
-290 -815 816 0
-816 838 0
-291 -816 817 0
-817 839 0
-292 -817 818 0
-818 840 0
-293 -818 819 0
-819 841 0
-294 -819 820 0
-820 842 0
-295 -820 821 0
-821 843 0
-296 -821 822 0
-822 844 0
-297 -822 823 0
-823 845 0
-298 -823 824 0
-824 846 0
-299 -824 825 0
-825 847 0
-300 -825 826 0
-826 848 0
-301 -826 827 0
-827 849 0
-302 -827 828 0
-828 850 0
-303 -828 829 0
-829 851 0
-304 -829 830 0
-830 852 0
-305 -830 831 0
-831 853 0
-306 -831 832 0
-832 854 0
-307 -832 833 0
-833 855 0
-308 -833 834 0
-834 856 0
-309 -834 0
-288 835 0
-835 857 0
-289 -835 836 0
-836 858 0
-290 -836 837 0
-837 859 0
-291 -837 838 0
-838 860 0
-292 -838 839 0
-839 861 0
-293 -839 840 0
-840 862 0
-294 -840 841 0
-841 863 0
-295 -841 842 0
-842 864 0
-296 -842 843 0
-843 865 0
-297 -843 844 0
-844 866 0
-298 -844 845 0
-845 867 0
-299 -845 846 0
-846 868 0
-300 -846 847 0
-847 869 0
-301 -847 848 0
-848 870 0
-302 -848 849 0
-849 871 0
-303 -849 850 0
-850 872 0
-304 -850 851 0
-851 873 0
-305 -851 852 0
-852 874 0
-306 -852 853 0
-853 875 0
-307 -853 854 0
-854 876 0
-308 -854 855 0
-855 877 0
-309 -855 856 0
-856 878 0
-310 -856 0
-289 857 0
-857 879 0
-290 -857 858 0
-858 880 0
-291 -858 859 0
-859 881 0
-292 -859 860 0
-860 882 0
-293 -860 861 0
-861 883 0
-294 -861 862 0
-862 884 0
-295 -862 863 0
-863 885 0
-296 -863 864 0
-864 886 0
-297 -864 865 0
-865 887 0
-298 -865 866 0
-866 888 0
-299 -866 867 0
-867 889 0
-300 -867 868 0
-868 890 0
-301 -868 869 0
-869 891 0
-302 -869 870 0
-870 892 0
-303 -870 871 0
-871 893 0
-304 -871 872 0
-872 894 0
-305 -872 873 0
-873 895 0
-306 -873 874 0
-874 896 0
-307 -874 875 0
-875 897 0
-308 -875 876 0
-876 898 0
-309 -876 877 0
-877 899 0
-310 -877 878 0
-878 900 0
-311 -878 0
-290 879 0
-879 901 0
-291 -879 880 0
-880 902 0
-292 -880 881 0
-881 903 0
-293 -881 882 0
-882 904 0
-294 -882 883 0
-883 905 0
-295 -883 884 0
-884 906 0
-296 -884 885 0
-885 907 0
-297 -885 886 0
-886 908 0
-298 -886 887 0
-887 909 0
-299 -887 888 0
-888 910 0
-300 -888 889 0
-889 911 0
-301 -889 890 0
-890 912 0
-302 -890 891 0
-891 913 0
-303 -891 892 0
-892 914 0
-304 -892 893 0
-893 915 0
-305 -893 894 0
-894 916 0
-306 -894 895 0
-895 917 0
-307 -895 896 0
-896 918 0
-308 -896 897 0
-897 919 0
-309 -897 898 0
-898 920 0
-310 -898 899 0
-899 921 0
-311 -899 900 0
-900 922 0
-312 -900 0
-291 901 0
-901 923 0
-292 -901 902 0
-902 924 0
-293 -902 903 0
-903 925 0
-294 -903 904 0
-904 926 0
-295 -904 905 0
-905 927 0
-296 -905 906 0
-906 928 0
-297 -906 907 0
-907 929 0
-298 -907 908 0
-908 930 0
-299 -908 909 0
-909 931 0
-300 -909 910 0
-910 932 0
-301 -910 911 0
-911 933 0
-302 -911 912 0
-912 934 0
-303 -912 913 0
-913 935 0
-304 -913 914 0
-914 936 0
-305 -914 915 0
-915 937 0
-306 -915 916 0
-916 938 0
-307 -916 917 0
-917 939 0
-308 -917 918 0
-918 940 0
-309 -918 919 0
-919 941 0
-310 -919 920 0
-920 942 0
-311 -920 921 0
-921 943 0
-312 -921 922 0
-922 944 0
-313 -922 0
-292 923 0
-923 945 0
-293 -923 924 0
-924 946 0
-294 -924 925 0
-925 947 0
-295 -925 926 0
-926 948 0
-296 -926 927 0
-927 949 0
-297 -927 928 0
-928 950 0
-298 -928 929 0
-929 951 0
-299 -929 930 0
-930 952 0
-300 -930 931 0
-931 953 0
-301 -931 932 0
-932 954 0
-302 -932 933 0
-933 955 0
-303 -933 934 0
-934 956 0
-304 -934 935 0
-935 957 0
-305 -935 936 0
-936 958 0
-306 -936 937 0
-937 959 0
-307 -937 938 0
-938 960 0
-308 -938 939 0
-939 961 0
-309 -939 940 0
-940 962 0
-310 -940 941 0
-941 963 0
-311 -941 942 0
-942 964 0
-312 -942 943 0
-943 965 0
-313 -943 944 0
-944 966 0
-314 -944 0
-293 945 0
-945 967 0
-294 -945 946 0
-946 968 0
-295 -946 947 0
-947 969 0
-296 -947 948 0
-948 970 0
-297 -948 949 0
-949 971 0
-298 -949 950 0
-950 972 0
-299 -950 951 0
-951 973 0
-300 -951 952 0
-952 974 0
-301 -952 953 0
-953 975 0
-302 -953 954 0
-954 976 0
-303 -954 955 0
-955 977 0
-304 -955 956 0
-956 978 0
-305 -956 957 0
-957 979 0
-306 -957 958 0
-958 980 0
-307 -958 959 0
-959 981 0
-308 -959 960 0
-960 982 0
-309 -960 961 0
-961 983 0
-310 -961 962 0
-962 984 0
-311 -962 963 0
-963 985 0
-312 -963 964 0
-964 986 0
-313 -964 965 0
-965 987 0
-314 -965 966 0
-966 988 0
-315 -966 0
-294 967 0
-967 989 0
-295 -967 968 0
-968 990 0
-296 -968 969 0
-969 991 0
-297 -969 970 0
-970 992 0
-298 -970 971 0
-971 993 0
-299 -971 972 0
-972 994 0
-300 -972 973 0
-973 995 0
-301 -973 974 0
-974 996 0
-302 -974 975 0
-975 997 0
-303 -975 976 0
-976 998 0
-304 -976 977 0
-977 999 0
-305 -977 978 0
-978 1000 0
-306 -978 979 0
-979 1001 0
-307 -979 980 0
-980 1002 0
-308 -980 981 0
-981 1003 0
-309 -981 982 0
-982 1004 0
-310 -982 983 0
-983 1005 0
-311 -983 984 0
-984 1006 0
-312 -984 985 0
-985 1007 0
-313 -985 986 0
-986 1008 0
-314 -986 987 0
-987 1009 0
-315 -987 988 0
-988 1010 0
-316 -988 0
-295 989 0
-989 1011 0
-296 -989 990 0
-990 1012 0
-297 -990 991 0
-991 1013 0
-298 -991 992 0
-992 1014 0
-299 -992 993 0
-993 1015 0
-300 -993 994 0
-994 1016 0
-301 -994 995 0
-995 1017 0
-302 -995 996 0
-996 1018 0
-303 -996 997 0
-997 1019 0
-304 -997 998 0
-998 1020 0
-305 -998 999 0
-999 1021 0
-306 -999 1000 0
-1000 1022 0
-307 -1000 1001 0
-1001 1023 0
-308 -1001 1002 0
-1002 1024 0
-309 -1002 1003 0
-1003 1025 0
-310 -1003 1004 0
-1004 1026 0
-311 -1004 1005 0
-1005 1027 0
-312 -1005 1006 0
-1006 1028 0
-313 -1006 1007 0
-1007 1029 0
-314 -1007 1008 0
-1008 1030 0
-315 -1008 1009 0
-1009 1031 0
-316 -1009 1010 0
-1010 1032 0
-317 -1010 0
-296 1011 0
-1011 1033 0
-297 -1011 1012 0
-1012 1034 0
-298 -1012 1013 0
-1013 1035 0
-299 -1013 1014 0
-1014 1036 0
-300 -1014 1015 0
-1015 1037 0
-301 -1015 1016 0
-1016 1038 0
-302 -1016 1017 0
-1017 1039 0
-303 -1017 1018 0
-1018 1040 0
-304 -1018 1019 0
-1019 1041 0
-305 -1019 1020 0
-1020 1042 0
-306 -1020 1021 0
-1021 1043 0
-307 -1021 1022 0
-1022 1044 0
-308 -1022 1023 0
-1023 1045 0
-309 -1023 1024 0
-1024 1046 0
-310 -1024 1025 0
-1025 1047 0
-311 -1025 1026 0
-1026 1048 0
-312 -1026 1027 0
-1027 1049 0
-313 -1027 1028 0
-1028 1050 0
-314 -1028 1029 0
-1029 1051 0
-315 -1029 1030 0
-1030 1052 0
-316 -1030 1031 0
-1031 1053 0
-317 -1031 1032 0
-1032 1054 0
-318 -1032 0
-297 1033 0
-1033 1055 0
-298 -1033 1034 0
-1034 1056 0
-299 -1034 1035 0
-1035 1057 0
-300 -1035 1036 0
-1036 1058 0
-301 -1036 1037 0
-1037 1059 0
-302 -1037 1038 0
-1038 1060 0
-303 -1038 1039 0
-1039 1061 0
-304 -1039 1040 0
-1040 1062 0
-305 -1040 1041 0
-1041 1063 0
-306 -1041 1042 0
-1042 1064 0
-307 -1042 1043 0
-1043 1065 0
-308 -1043 1044 0
-1044 1066 0
-309 -1044 1045 0
-1045 1067 0
-310 -1045 1046 0
-1046 1068 0
-311 -1046 1047 0
-1047 1069 0
-312 -1047 1048 0
-1048 1070 0
-313 -1048 1049 0
-1049 1071 0
-314 -1049 1050 0
-1050 1072 0
-315 -1050 1051 0
-1051 1073 0
-316 -1051 1052 0
-1052 1074 0
-317 -1052 1053 0
-1053 1075 0
-318 -1053 1054 0
-1054 1076 0
-319 -1054 0
-298 1055 0
-1055 1077 0
-299 -1055 1056 0
-1056 1078 0
-300 -1056 1057 0
-1057 1079 0
-301 -1057 1058 0
-1058 1080 0
-302 -1058 1059 0
-1059 1081 0
-303 -1059 1060 0
-1060 1082 0
-304 -1060 1061 0
-1061 1083 0
-305 -1061 1062 0
-1062 1084 0
-306 -1062 1063 0
-1063 1085 0
-307 -1063 1064 0
-1064 1086 0
-308 -1064 1065 0
-1065 1087 0
-309 -1065 1066 0
-1066 1088 0
-310 -1066 1067 0
-1067 1089 0
-311 -1067 1068 0
-1068 1090 0
-312 -1068 1069 0
-1069 1091 0
-313 -1069 1070 0
-1070 1092 0
-314 -1070 1071 0
-1071 1093 0
-315 -1071 1072 0
-1072 1094 0
-316 -1072 1073 0
-1073 1095 0
-317 -1073 1074 0
-1074 1096 0
-318 -1074 1075 0
-1075 1097 0
-319 -1075 1076 0
-1076 1098 0
-320 -1076 0
-299 1077 0
-1077 1099 0
-300 -1077 1078 0
-1078 1100 0
-301 -1078 1079 0
-1079 1101 0
-302 -1079 1080 0
-1080 1102 0
-303 -1080 1081 0
-1081 1103 0
-304 -1081 1082 0
-1082 1104 0
-305 -1082 1083 0
-1083 1105 0
-306 -1083 1084 0
-1084 1106 0
-307 -1084 1085 0
-1085 1107 0
-308 -1085 1086 0
-1086 1108 0
-309 -1086 1087 0
-1087 1109 0
-310 -1087 1088 0
-1088 1110 0
-311 -1088 1089 0
-1089 1111 0
-312 -1089 1090 0
-1090 1112 0
-313 -1090 1091 0
-1091 1113 0
-314 -1091 1092 0
-1092 1114 0
-315 -1092 1093 0
-1093 1115 0
-316 -1093 1094 0
-1094 1116 0
-317 -1094 1095 0
-1095 1117 0
-318 -1095 1096 0
-1096 1118 0
-319 -1096 1097 0
-1097 1119 0
-320 -1097 1098 0
-1098 1120 0
-321 -1098 0
-300 1099 0
-1099 1121 0
-301 -1099 1100 0
-1100 1122 0
-302 -1100 1101 0
-1101 1123 0
-303 -1101 1102 0
-1102 1124 0
-304 -1102 1103 0
-1103 1125 0
-305 -1103 1104 0
-1104 1126 0
-306 -1104 1105 0
-1105 1127 0
-307 -1105 1106 0
-1106 1128 0
-308 -1106 1107 0
-1107 1129 0
-309 -1107 1108 0
-1108 1130 0
-310 -1108 1109 0
-1109 1131 0
-311 -1109 1110 0
-1110 1132 0
-312 -1110 1111 0
-1111 1133 0
-313 -1111 1112 0
-1112 1134 0
-314 -1112 1113 0
-1113 1135 0
-315 -1113 1114 0
-1114 1136 0
-316 -1114 1115 0
-1115 1137 0
-317 -1115 1116 0
-1116 1138 0
-318 -1116 1117 0
-1117 1139 0
-319 -1117 1118 0
-1118 1140 0
-320 -1118 1119 0
-1119 1141 0
-321 -1119 1120 0
-1120 1142 0
-322 -1120 0
-301 1121 0
-1121 1143 0
-302 -1121 1122 0
-1122 1144 0
-303 -1122 1123 0
-1123 1145 0
-304 -1123 1124 0
-1124 1146 0
-305 -1124 1125 0
-1125 1147 0
-306 -1125 1126 0
-1126 1148 0
-307 -1126 1127 0
-1127 1149 0
-308 -1127 1128 0
-1128 1150 0
-309 -1128 1129 0
-1129 1151 0
-310 -1129 1130 0
-1130 1152 0
-311 -1130 1131 0
-1131 1153 0
-312 -1131 1132 0
-1132 1154 0
-313 -1132 1133 0
-1133 1155 0
-314 -1133 1134 0
-1134 1156 0
-315 -1134 1135 0
-1135 1157 0
-316 -1135 1136 0
-1136 1158 0
-317 -1136 1137 0
-1137 1159 0
-318 -1137 1138 0
-1138 1160 0
-319 -1138 1139 0
-1139 1161 0
-320 -1139 1140 0
-1140 1162 0
-321 -1140 1141 0
-1141 1163 0
-322 -1141 1142 0
-1142 1164 0
-323 -1142 0
-302 1143 0
-1143 1165 0
-303 -1143 1144 0
-1144 1166 0
-304 -1144 1145 0
-1145 1167 0
-305 -1145 1146 0
-1146 1168 0
-306 -1146 1147 0
-1147 1169 0
-307 -1147 1148 0
-1148 1170 0
-308 -1148 1149 0
-1149 1171 0
-309 -1149 1150 0
-1150 1172 0
-310 -1150 1151 0
-1151 1173 0
-311 -1151 1152 0
-1152 1174 0
-312 -1152 1153 0
-1153 1175 0
-313 -1153 1154 0
-1154 1176 0
-314 -1154 1155 0
-1155 1177 0
-315 -1155 1156 0
-1156 1178 0
-316 -1156 1157 0
-1157 1179 0
-317 -1157 1158 0
-1158 1180 0
-318 -1158 1159 0
-1159 1181 0
-319 -1159 1160 0
-1160 1182 0
-320 -1160 1161 0
-1161 1183 0
-321 -1161 1162 0
-1162 1184 0
-322 -1162 1163 0
-1163 1185 0
-323 -1163 1164 0
-1164 1186 0
-324 -1164 0
-303 1165 0
-1165 1187 0
-304 -1165 1166 0
-1166 1188 0
-305 -1166 1167 0
-1167 1189 0
-306 -1167 1168 0
-1168 1190 0
-307 -1168 1169 0
-1169 1191 0
-308 -1169 1170 0
-1170 1192 0
-309 -1170 1171 0
-1171 1193 0
-310 -1171 1172 0
-1172 1194 0
-311 -1172 1173 0
-1173 1195 0
-312 -1173 1174 0
-1174 1196 0
-313 -1174 1175 0
-1175 1197 0
-314 -1175 1176 0
-1176 1198 0
-315 -1176 1177 0
-1177 1199 0
-316 -1177 1178 0
-1178 1200 0
-317 -1178 1179 0
-1179 1201 0
-318 -1179 1180 0
-1180 1202 0
-319 -1180 1181 0
-1181 1203 0
-320 -1181 1182 0
-1182 1204 0
-321 -1182 1183 0
-1183 1205 0
-322 -1183 1184 0
-1184 1206 0
-323 -1184 1185 0
-1185 1207 0
-324 -1185 1186 0
-1186 1208 0
-325 -1186 0
-304 1187 0
-1187 1209 0
-305 -1187 1188 0
-1188 1210 0
-306 -1188 1189 0
-1189 1211 0
-307 -1189 1190 0
-1190 1212 0
-308 -1190 1191 0
-1191 1213 0
-309 -1191 1192 0
-1192 1214 0
-310 -1192 1193 0
-1193 1215 0
-311 -1193 1194 0
-1194 1216 0
-312 -1194 1195 0
-1195 1217 0
-313 -1195 1196 0
-1196 1218 0
-314 -1196 1197 0
-1197 1219 0
-315 -1197 1198 0
-1198 1220 0
-316 -1198 1199 0
-1199 1221 0
-317 -1199 1200 0
-1200 1222 0
-318 -1200 1201 0
-1201 1223 0
-319 -1201 1202 0
-1202 1224 0
-320 -1202 1203 0
-1203 1225 0
-321 -1203 1204 0
-1204 1226 0
-322 -1204 1205 0
-1205 1227 0
-323 -1205 1206 0
-1206 1228 0
-324 -1206 1207 0
-1207 1229 0
-325 -1207 1208 0
-1208 1230 0
-326 -1208 0
-305 1209 0
-1209 1231 0
-306 -1209 1210 0
-1210 1232 0
-307 -1210 1211 0
-1211 1233 0
-308 -1211 1212 0
-1212 1234 0
-309 -1212 1213 0
-1213 1235 0
-310 -1213 1214 0
-1214 1236 0
-311 -1214 1215 0
-1215 1237 0
-312 -1215 1216 0
-1216 1238 0
-313 -1216 1217 0
-1217 1239 0
-314 -1217 1218 0
-1218 1240 0
-315 -1218 1219 0
-1219 1241 0
-316 -1219 1220 0
-1220 1242 0
-317 -1220 1221 0
-1221 1243 0
-318 -1221 1222 0
-1222 1244 0
-319 -1222 1223 0
-1223 1245 0
-320 -1223 1224 0
-1224 1246 0
-321 -1224 1225 0
-1225 1247 0
-322 -1225 1226 0
-1226 1248 0
-323 -1226 1227 0
-1227 1249 0
-324 -1227 1228 0
-1228 1250 0
-325 -1228 1229 0
-1229 1251 0
-326 -1229 1230 0
-1230 1252 0
-327 -1230 0
-306 1231 0
-1231 1253 0
-307 -1231 1232 0
-1232 1254 0
-308 -1232 1233 0
-1233 1255 0
-309 -1233 1234 0
-1234 1256 0
-310 -1234 1235 0
-1235 1257 0
-311 -1235 1236 0
-1236 1258 0
-312 -1236 1237 0
-1237 1259 0
-313 -1237 1238 0
-1238 1260 0
-314 -1238 1239 0
-1239 1261 0
-315 -1239 1240 0
-1240 1262 0
-316 -1240 1241 0
-1241 1263 0
-317 -1241 1242 0
-1242 1264 0
-318 -1242 1243 0
-1243 1265 0
-319 -1243 1244 0
-1244 1266 0
-320 -1244 1245 0
-1245 1267 0
-321 -1245 1246 0
-1246 1268 0
-322 -1246 1247 0
-1247 1269 0
-323 -1247 1248 0
-1248 1270 0
-324 -1248 1249 0
-1249 1271 0
-325 -1249 1250 0
-1250 1272 0
-326 -1250 1251 0
-1251 1273 0
-327 -1251 1252 0
-1252 1274 0
-328 -1252 0
-307 1253 0
-1253 1275 0
-308 -1253 1254 0
-1254 1276 0
-309 -1254 1255 0
-1255 1277 0
-310 -1255 1256 0
-1256 1278 0
-311 -1256 1257 0
-1257 1279 0
-312 -1257 1258 0
-1258 1280 0
-313 -1258 1259 0
-1259 1281 0
-314 -1259 1260 0
-1260 1282 0
-315 -1260 1261 0
-1261 1283 0
-316 -1261 1262 0
-1262 1284 0
-317 -1262 1263 0
-1263 1285 0
-318 -1263 1264 0
-1264 1286 0
-319 -1264 1265 0
-1265 1287 0
-320 -1265 1266 0
-1266 1288 0
-321 -1266 1267 0
-1267 1289 0
-322 -1267 1268 0
-1268 1290 0
-323 -1268 1269 0
-1269 1291 0
-324 -1269 1270 0
-1270 1292 0
-325 -1270 1271 0
-1271 1293 0
-326 -1271 1272 0
-1272 1294 0
-327 -1272 1273 0
-1273 1295 0
-328 -1273 1274 0
-1274 1296 0
-329 -1274 0
-308 1275 0
-1275 1297 0
-309 -1275 1276 0
-1276 1298 0
-310 -1276 1277 0
-1277 1299 0
-311 -1277 1278 0
-1278 1300 0
-312 -1278 1279 0
-1279 1301 0
-313 -1279 1280 0
-1280 1302 0
-314 -1280 1281 0
-1281 1303 0
-315 -1281 1282 0
-1282 1304 0
-316 -1282 1283 0
-1283 1305 0
-317 -1283 1284 0
-1284 1306 0
-318 -1284 1285 0
-1285 1307 0
-319 -1285 1286 0
-1286 1308 0
-320 -1286 1287 0
-1287 1309 0
-321 -1287 1288 0
-1288 1310 0
-322 -1288 1289 0
-1289 1311 0
-323 -1289 1290 0
-1290 1312 0
-324 -1290 1291 0
-1291 1313 0
-325 -1291 1292 0
-1292 1314 0
-326 -1292 1293 0
-1293 1315 0
-327 -1293 1294 0
-1294 1316 0
-328 -1294 1295 0
-1295 1317 0
-329 -1295 1296 0
-1296 1318 0
-330 -1296 0
-309 1297 0
-1297 1319 0
-310 -1297 1298 0
-1298 1320 0
-311 -1298 1299 0
-1299 1321 0
-312 -1299 1300 0
-1300 1322 0
-313 -1300 1301 0
-1301 1323 0
-314 -1301 1302 0
-1302 1324 0
-315 -1302 1303 0
-1303 1325 0
-316 -1303 1304 0
-1304 1326 0
-317 -1304 1305 0
-1305 1327 0
-318 -1305 1306 0
-1306 1328 0
-319 -1306 1307 0
-1307 1329 0
-320 -1307 1308 0
-1308 1330 0
-321 -1308 1309 0
-1309 1331 0
-322 -1309 1310 0
-1310 1332 0
-323 -1310 1311 0
-1311 1333 0
-324 -1311 1312 0
-1312 1334 0
-325 -1312 1313 0
-1313 1335 0
-326 -1313 1314 0
-1314 1336 0
-327 -1314 1315 0
-1315 1337 0
-328 -1315 1316 0
-1316 1338 0
-329 -1316 1317 0
-1317 1339 0
-330 -1317 1318 0
-1318 1340 0
-331 -1318 0
-310 1319 0
-1319 1341 0
-311 -1319 1320 0
-1320 1342 0
-312 -1320 1321 0
-1321 1343 0
-313 -1321 1322 0
-1322 1344 0
-314 -1322 1323 0
-1323 1345 0
-315 -1323 1324 0
-1324 1346 0
-316 -1324 1325 0
-1325 1347 0
-317 -1325 1326 0
-1326 1348 0
-318 -1326 1327 0
-1327 1349 0
-319 -1327 1328 0
-1328 1350 0
-320 -1328 1329 0
-1329 1351 0
-321 -1329 1330 0
-1330 1352 0
-322 -1330 1331 0
-1331 1353 0
-323 -1331 1332 0
-1332 1354 0
-324 -1332 1333 0
-1333 1355 0
-325 -1333 1334 0
-1334 1356 0
-326 -1334 1335 0
-1335 1357 0
-327 -1335 1336 0
-1336 1358 0
-328 -1336 1337 0
-1337 1359 0
-329 -1337 1338 0
-1338 1360 0
-330 -1338 1339 0
-1339 1361 0
-331 -1339 1340 0
-1340 1362 0
-332 -1340 0
-311 1341 0
-1341 1363 0
-312 -1341 1342 0
-1342 1364 0
-313 -1342 1343 0
-1343 1365 0
-314 -1343 1344 0
-1344 1366 0
-315 -1344 1345 0
-1345 1367 0
-316 -1345 1346 0
-1346 1368 0
-317 -1346 1347 0
-1347 1369 0
-318 -1347 1348 0
-1348 1370 0
-319 -1348 1349 0
-1349 1371 0
-320 -1349 1350 0
-1350 1372 0
-321 -1350 1351 0
-1351 1373 0
-322 -1351 1352 0
-1352 1374 0
-323 -1352 1353 0
-1353 1375 0
-324 -1353 1354 0
-1354 1376 0
-325 -1354 1355 0
-1355 1377 0
-326 -1355 1356 0
-1356 1378 0
-327 -1356 1357 0
-1357 1379 0
-328 -1357 1358 0
-1358 1380 0
-329 -1358 1359 0
-1359 1381 0
-330 -1359 1360 0
-1360 1382 0
-331 -1360 1361 0
-1361 1383 0
-332 -1361 1362 0
-1362 1384 0
-333 -1362 0
-312 1363 0
-1363 1385 0
-313 -1363 1364 0
-1364 1386 0
-314 -1364 1365 0
-1365 1387 0
-315 -1365 1366 0
-1366 1388 0
-316 -1366 1367 0
-1367 1389 0
-317 -1367 1368 0
-1368 1390 0
-318 -1368 1369 0
-1369 1391 0
-319 -1369 1370 0
-1370 1392 0
-320 -1370 1371 0
-1371 1393 0
-321 -1371 1372 0
-1372 1394 0
-322 -1372 1373 0
-1373 1395 0
-323 -1373 1374 0
-1374 1396 0
-324 -1374 1375 0
-1375 1397 0
-325 -1375 1376 0
-1376 1398 0
-326 -1376 1377 0
-1377 1399 0
-327 -1377 1378 0
-1378 1400 0
-328 -1378 1379 0
-1379 1401 0
-329 -1379 1380 0
-1380 1402 0
-330 -1380 1381 0
-1381 1403 0
-331 -1381 1382 0
-1382 1404 0
-332 -1382 1383 0
-1383 1405 0
-333 -1383 1384 0
-1384 1406 0
-334 -1384 0
-313 1385 0
-1385 1407 0
-314 -1385 1386 0
-1386 1408 0
-315 -1386 1387 0
-1387 1409 0
-316 -1387 1388 0
-1388 1410 0
-317 -1388 1389 0
-1389 1411 0
-318 -1389 1390 0
-1390 1412 0
-319 -1390 1391 0
-1391 1413 0
-320 -1391 1392 0
-1392 1414 0
-321 -1392 1393 0
-1393 1415 0
-322 -1393 1394 0
-1394 1416 0
-323 -1394 1395 0
-1395 1417 0
-324 -1395 1396 0
-1396 1418 0
-325 -1396 1397 0
-1397 1419 0
-326 -1397 1398 0
-1398 1420 0
-327 -1398 1399 0
-1399 1421 0
-328 -1399 1400 0
-1400 1422 0
-329 -1400 1401 0
-1401 1423 0
-330 -1401 1402 0
-1402 1424 0
-331 -1402 1403 0
-1403 1425 0
-332 -1403 1404 0
-1404 1426 0
-333 -1404 1405 0
-1405 1427 0
-334 -1405 1406 0
-1406 1428 0
-335 -1406 0
-314 1407 0
-1407 1429 0
-315 -1407 1408 0
-1408 1430 0
-316 -1408 1409 0
-1409 1431 0
-317 -1409 1410 0
-1410 1432 0
-318 -1410 1411 0
-1411 1433 0
-319 -1411 1412 0
-1412 1434 0
-320 -1412 1413 0
-1413 1435 0
-321 -1413 1414 0
-1414 1436 0
-322 -1414 1415 0
-1415 1437 0
-323 -1415 1416 0
-1416 1438 0
-324 -1416 1417 0
-1417 1439 0
-325 -1417 1418 0
-1418 1440 0
-326 -1418 1419 0
-1419 1441 0
-327 -1419 1420 0
-1420 1442 0
-328 -1420 1421 0
-1421 1443 0
-329 -1421 1422 0
-1422 1444 0
-330 -1422 1423 0
-1423 1445 0
-331 -1423 1424 0
-1424 1446 0
-332 -1424 1425 0
-1425 1447 0
-333 -1425 1426 0
-1426 1448 0
-334 -1426 1427 0
-1427 1449 0
-335 -1427 1428 0
-1428 1450 0
-336 -1428 0
-315 1429 0
-1429 1451 0
-316 -1429 1430 0
-1430 1452 0
-317 -1430 1431 0
-1431 1453 0
-318 -1431 1432 0
-1432 1454 0
-319 -1432 1433 0
-1433 1455 0
-320 -1433 1434 0
-1434 1456 0
-321 -1434 1435 0
-1435 1457 0
-322 -1435 1436 0
-1436 1458 0
-323 -1436 1437 0
-1437 1459 0
-324 -1437 1438 0
-1438 1460 0
-325 -1438 1439 0
-1439 1461 0
-326 -1439 1440 0
-1440 1462 0
-327 -1440 1441 0
-1441 1463 0
-328 -1441 1442 0
-1442 1464 0
-329 -1442 1443 0
-1443 1465 0
-330 -1443 1444 0
-1444 1466 0
-331 -1444 1445 0
-1445 1467 0
-332 -1445 1446 0
-1446 1468 0
-333 -1446 1447 0
-1447 1469 0
-334 -1447 1448 0
-1448 1470 0
-335 -1448 1449 0
-1449 1471 0
-336 -1449 1450 0
-1450 1472 0
-337 -1450 0
-316 1451 0
-1451 1473 0
-317 -1451 1452 0
-1452 1474 0
-318 -1452 1453 0
-1453 1475 0
-319 -1453 1454 0
-1454 1476 0
-320 -1454 1455 0
-1455 1477 0
-321 -1455 1456 0
-1456 1478 0
-322 -1456 1457 0
-1457 1479 0
-323 -1457 1458 0
-1458 1480 0
-324 -1458 1459 0
-1459 1481 0
-325 -1459 1460 0
-1460 1482 0
-326 -1460 1461 0
-1461 1483 0
-327 -1461 1462 0
-1462 1484 0
-328 -1462 1463 0
-1463 1485 0
-329 -1463 1464 0
-1464 1486 0
-330 -1464 1465 0
-1465 1487 0
-331 -1465 1466 0
-1466 1488 0
-332 -1466 1467 0
-1467 1489 0
-333 -1467 1468 0
-1468 1490 0
-334 -1468 1469 0
-1469 1491 0
-335 -1469 1470 0
-1470 1492 0
-336 -1470 1471 0
-1471 1493 0
-337 -1471 1472 0
-1472 1494 0
-338 -1472 0
-317 1473 0
-1473 1495 0
-318 -1473 1474 0
-1474 1496 0
-319 -1474 1475 0
-1475 1497 0
-320 -1475 1476 0
-1476 1498 0
-321 -1476 1477 0
-1477 1499 0
-322 -1477 1478 0
-1478 1500 0
-323 -1478 1479 0
-1479 1501 0
-324 -1479 1480 0
-1480 1502 0
-325 -1480 1481 0
-1481 1503 0
-326 -1481 1482 0
-1482 1504 0
-327 -1482 1483 0
-1483 1505 0
-328 -1483 1484 0
-1484 1506 0
-329 -1484 1485 0
-1485 1507 0
-330 -1485 1486 0
-1486 1508 0
-331 -1486 1487 0
-1487 1509 0
-332 -1487 1488 0
-1488 1510 0
-333 -1488 1489 0
-1489 1511 0
-334 -1489 1490 0
-1490 1512 0
-335 -1490 1491 0
-1491 1513 0
-336 -1491 1492 0
-1492 1514 0
-337 -1492 1493 0
-1493 1515 0
-338 -1493 1494 0
-1494 1516 0
-339 -1494 0
-318 1495 0
-1495 1517 0
-319 -1495 1496 0
-1496 1518 0
-320 -1496 1497 0
-1497 1519 0
-321 -1497 1498 0
-1498 1520 0
-322 -1498 1499 0
-1499 1521 0
-323 -1499 1500 0
-1500 1522 0
-324 -1500 1501 0
-1501 1523 0
-325 -1501 1502 0
-1502 1524 0
-326 -1502 1503 0
-1503 1525 0
-327 -1503 1504 0
-1504 1526 0
-328 -1504 1505 0
-1505 1527 0
-329 -1505 1506 0
-1506 1528 0
-330 -1506 1507 0
-1507 1529 0
-331 -1507 1508 0
-1508 1530 0
-332 -1508 1509 0
-1509 1531 0
-333 -1509 1510 0
-1510 1532 0
-334 -1510 1511 0
-1511 1533 0
-335 -1511 1512 0
-1512 1534 0
-336 -1512 1513 0
-1513 1535 0
-337 -1513 1514 0
-1514 1536 0
-338 -1514 1515 0
-1515 1537 0
-339 -1515 1516 0
-1516 1538 0
-340 -1516 0
-319 1517 0
-1517 1539 0
-320 -1517 1518 0
-1518 1540 0
-321 -1518 1519 0
-1519 1541 0
-322 -1519 1520 0
-1520 1542 0
-323 -1520 1521 0
-1521 1543 0
-324 -1521 1522 0
-1522 1544 0
-325 -1522 1523 0
-1523 1545 0
-326 -1523 1524 0
-1524 1546 0
-327 -1524 1525 0
-1525 1547 0
-328 -1525 1526 0
-1526 1548 0
-329 -1526 1527 0
-1527 1549 0
-330 -1527 1528 0
-1528 1550 0
-331 -1528 1529 0
-1529 1551 0
-332 -1529 1530 0
-1530 1552 0
-333 -1530 1531 0
-1531 1553 0
-334 -1531 1532 0
-1532 1554 0
-335 -1532 1533 0
-1533 1555 0
-336 -1533 1534 0
-1534 1556 0
-337 -1534 1535 0
-1535 1557 0
-338 -1535 1536 0
-1536 1558 0
-339 -1536 1537 0
-1537 1559 0
-340 -1537 1538 0
-1538 1560 0
-341 -1538 0
-320 1539 0
-1539 1561 0
-321 -1539 1540 0
-1540 1562 0
-322 -1540 1541 0
-1541 1563 0
-323 -1541 1542 0
-1542 1564 0
-324 -1542 1543 0
-1543 1565 0
-325 -1543 1544 0
-1544 1566 0
-326 -1544 1545 0
-1545 1567 0
-327 -1545 1546 0
-1546 1568 0
-328 -1546 1547 0
-1547 1569 0
-329 -1547 1548 0
-1548 1570 0
-330 -1548 1549 0
-1549 1571 0
-331 -1549 1550 0
-1550 1572 0
-332 -1550 1551 0
-1551 1573 0
-333 -1551 1552 0
-1552 1574 0
-334 -1552 1553 0
-1553 1575 0
-335 -1553 1554 0
-1554 1576 0
-336 -1554 1555 0
-1555 1577 0
-337 -1555 1556 0
-1556 1578 0
-338 -1556 1557 0
-1557 1579 0
-339 -1557 1558 0
-1558 1580 0
-340 -1558 1559 0
-1559 1581 0
-341 -1559 1560 0
-1560 1582 0
-342 -1560 0
-321 1561 0
-1561 1583 0
-322 -1561 1562 0
-1562 1584 0
-323 -1562 1563 0
-1563 1585 0
-324 -1563 1564 0
-1564 1586 0
-325 -1564 1565 0
-1565 1587 0
-326 -1565 1566 0
-1566 1588 0
-327 -1566 1567 0
-1567 1589 0
-328 -1567 1568 0
-1568 1590 0
-329 -1568 1569 0
-1569 1591 0
-330 -1569 1570 0
-1570 1592 0
-331 -1570 1571 0
-1571 1593 0
-332 -1571 1572 0
-1572 1594 0
-333 -1572 1573 0
-1573 1595 0
-334 -1573 1574 0
-1574 1596 0
-335 -1574 1575 0
-1575 1597 0
-336 -1575 1576 0
-1576 1598 0
-337 -1576 1577 0
-1577 1599 0
-338 -1577 1578 0
-1578 1600 0
-339 -1578 1579 0
-1579 1601 0
-340 -1579 1580 0
-1580 1602 0
-341 -1580 1581 0
-1581 1603 0
-342 -1581 1582 0
-1582 1604 0
-343 -1582 0
-322 1583 0
-1583 1605 0
-323 -1583 1584 0
-1584 1606 0
-324 -1584 1585 0
-1585 1607 0
-325 -1585 1586 0
-1586 1608 0
-326 -1586 1587 0
-1587 1609 0
-327 -1587 1588 0
-1588 1610 0
-328 -1588 1589 0
-1589 1611 0
-329 -1589 1590 0
-1590 1612 0
-330 -1590 1591 0
-1591 1613 0
-331 -1591 1592 0
-1592 1614 0
-332 -1592 1593 0
-1593 1615 0
-333 -1593 1594 0
-1594 1616 0
-334 -1594 1595 0
-1595 1617 0
-335 -1595 1596 0
-1596 1618 0
-336 -1596 1597 0
-1597 1619 0
-337 -1597 1598 0
-1598 1620 0
-338 -1598 1599 0
-1599 1621 0
-339 -1599 1600 0
-1600 1622 0
-340 -1600 1601 0
-1601 1623 0
-341 -1601 1602 0
-1602 1624 0
-342 -1602 1603 0
-1603 1625 0
-343 -1603 1604 0
-1604 1626 0
-344 -1604 0
-323 1605 0
-1605 1627 0
-324 -1605 1606 0
-1606 1628 0
-325 -1606 1607 0
-1607 1629 0
-326 -1607 1608 0
-1608 1630 0
-327 -1608 1609 0
-1609 1631 0
-328 -1609 1610 0
-1610 1632 0
-329 -1610 1611 0
-1611 1633 0
-330 -1611 1612 0
-1612 1634 0
-331 -1612 1613 0
-1613 1635 0
-332 -1613 1614 0
-1614 1636 0
-333 -1614 1615 0
-1615 1637 0
-334 -1615 1616 0
-1616 1638 0
-335 -1616 1617 0
-1617 1639 0
-336 -1617 1618 0
-1618 1640 0
-337 -1618 1619 0
-1619 1641 0
-338 -1619 1620 0
-1620 1642 0
-339 -1620 1621 0
-1621 1643 0
-340 -1621 1622 0
-1622 1644 0
-341 -1622 1623 0
-1623 1645 0
-342 -1623 1624 0
-1624 1646 0
-343 -1624 1625 0
-1625 1647 0
-344 -1625 1626 0
-1626 1648 0
-345 -1626 0
-324 1627 0
-1627 1649 0
-325 -1627 1628 0
-1628 1650 0
-326 -1628 1629 0
-1629 1651 0
-327 -1629 1630 0
-1630 1652 0
-328 -1630 1631 0
-1631 1653 0
-329 -1631 1632 0
-1632 1654 0
-330 -1632 1633 0
-1633 1655 0
-331 -1633 1634 0
-1634 1656 0
-332 -1634 1635 0
-1635 1657 0
-333 -1635 1636 0
-1636 1658 0
-334 -1636 1637 0
-1637 1659 0
-335 -1637 1638 0
-1638 1660 0
-336 -1638 1639 0
-1639 1661 0
-337 -1639 1640 0
-1640 1662 0
-338 -1640 1641 0
-1641 1663 0
-339 -1641 1642 0
-1642 1664 0
-340 -1642 1643 0
-1643 1665 0
-341 -1643 1644 0
-1644 1666 0
-342 -1644 1645 0
-1645 1667 0
-343 -1645 1646 0
-1646 1668 0
-344 -1646 1647 0
-1647 1669 0
-345 -1647 1648 0
-1648 1670 0
-346 -1648 0
-325 1649 0
-1649 1671 0
-326 -1649 1650 0
-1650 1672 0
-327 -1650 1651 0
-1651 1673 0
-328 -1651 1652 0
-1652 1674 0
-329 -1652 1653 0
-1653 1675 0
-330 -1653 1654 0
-1654 1676 0
-331 -1654 1655 0
-1655 1677 0
-332 -1655 1656 0
-1656 1678 0
-333 -1656 1657 0
-1657 1679 0
-334 -1657 1658 0
-1658 1680 0
-335 -1658 1659 0
-1659 1681 0
-336 -1659 1660 0
-1660 1682 0
-337 -1660 1661 0
-1661 1683 0
-338 -1661 1662 0
-1662 1684 0
-339 -1662 1663 0
-1663 1685 0
-340 -1663 1664 0
-1664 1686 0
-341 -1664 1665 0
-1665 1687 0
-342 -1665 1666 0
-1666 1688 0
-343 -1666 1667 0
-1667 1689 0
-344 -1667 1668 0
-1668 1690 0
-345 -1668 1669 0
-1669 1691 0
-346 -1669 1670 0
-1670 1692 0
-347 -1670 0
-326 1671 0
-1671 1693 0
-327 -1671 1672 0
-1672 1694 0
-328 -1672 1673 0
-1673 1695 0
-329 -1673 1674 0
-1674 1696 0
-330 -1674 1675 0
-1675 1697 0
-331 -1675 1676 0
-1676 1698 0
-332 -1676 1677 0
-1677 1699 0
-333 -1677 1678 0
-1678 1700 0
-334 -1678 1679 0
-1679 1701 0
-335 -1679 1680 0
-1680 1702 0
-336 -1680 1681 0
-1681 1703 0
-337 -1681 1682 0
-1682 1704 0
-338 -1682 1683 0
-1683 1705 0
-339 -1683 1684 0
-1684 1706 0
-340 -1684 1685 0
-1685 1707 0
-341 -1685 1686 0
-1686 1708 0
-342 -1686 1687 0
-1687 1709 0
-343 -1687 1688 0
-1688 1710 0
-344 -1688 1689 0
-1689 1711 0
-345 -1689 1690 0
-1690 1712 0
-346 -1690 1691 0
-1691 1713 0
-347 -1691 1692 0
-1692 1714 0
-348 -1692 0
-327 1693 0
-1693 1715 0
-328 -1693 1694 0
-1694 1716 0
-329 -1694 1695 0
-1695 1717 0
-330 -1695 1696 0
-1696 1718 0
-331 -1696 1697 0
-1697 1719 0
-332 -1697 1698 0
-1698 1720 0
-333 -1698 1699 0
-1699 1721 0
-334 -1699 1700 0
-1700 1722 0
-335 -1700 1701 0
-1701 1723 0
-336 -1701 1702 0
-1702 1724 0
-337 -1702 1703 0
-1703 1725 0
-338 -1703 1704 0
-1704 1726 0
-339 -1704 1705 0
-1705 1727 0
-340 -1705 1706 0
-1706 1728 0
-341 -1706 1707 0
-1707 1729 0
-342 -1707 1708 0
-1708 1730 0
-343 -1708 1709 0
-1709 1731 0
-344 -1709 1710 0
-1710 1732 0
-345 -1710 1711 0
-1711 1733 0
-346 -1711 1712 0
-1712 1734 0
-347 -1712 1713 0
-1713 1735 0
-348 -1713 1714 0
-1714 1736 0
-349 -1714 0
-328 1715 0
-1715 1737 0
-329 -1715 1716 0
-1716 1738 0
-330 -1716 1717 0
-1717 1739 0
-331 -1717 1718 0
-1718 1740 0
-332 -1718 1719 0
-1719 1741 0
-333 -1719 1720 0
-1720 1742 0
-334 -1720 1721 0
-1721 1743 0
-335 -1721 1722 0
-1722 1744 0
-336 -1722 1723 0
-1723 1745 0
-337 -1723 1724 0
-1724 1746 0
-338 -1724 1725 0
-1725 1747 0
-339 -1725 1726 0
-1726 1748 0
-340 -1726 1727 0
-1727 1749 0
-341 -1727 1728 0
-1728 1750 0
-342 -1728 1729 0
-1729 1751 0
-343 -1729 1730 0
-1730 1752 0
-344 -1730 1731 0
-1731 1753 0
-345 -1731 1732 0
-1732 1754 0
-346 -1732 1733 0
-1733 1755 0
-347 -1733 1734 0
-1734 1756 0
-348 -1734 1735 0
-1735 1757 0
-349 -1735 1736 0
-1736 1758 0
-350 -1736 0
-329 1737 0
-1737 1759 0
-330 -1737 1738 0
-1738 1760 0
-331 -1738 1739 0
-1739 1761 0
-332 -1739 1740 0
-1740 1762 0
-333 -1740 1741 0
-1741 1763 0
-334 -1741 1742 0
-1742 1764 0
-335 -1742 1743 0
-1743 1765 0
-336 -1743 1744 0
-1744 1766 0
-337 -1744 1745 0
-1745 1767 0
-338 -1745 1746 0
-1746 1768 0
-339 -1746 1747 0
-1747 1769 0
-340 -1747 1748 0
-1748 1770 0
-341 -1748 1749 0
-1749 1771 0
-342 -1749 1750 0
-1750 1772 0
-343 -1750 1751 0
-1751 1773 0
-344 -1751 1752 0
-1752 1774 0
-345 -1752 1753 0
-1753 1775 0
-346 -1753 1754 0
-1754 1776 0
-347 -1754 1755 0
-1755 1777 0
-348 -1755 1756 0
-1756 1778 0
-349 -1756 1757 0
-1757 1779 0
-350 -1757 1758 0
-1758 1780 0
-351 -1758 0
-330 1759 0
-1759 1781 0
-331 -1759 1760 0
-1760 1782 0
-332 -1760 1761 0
-1761 1783 0
-333 -1761 1762 0
-1762 1784 0
-334 -1762 1763 0
-1763 1785 0
-335 -1763 1764 0
-1764 1786 0
-336 -1764 1765 0
-1765 1787 0
-337 -1765 1766 0
-1766 1788 0
-338 -1766 1767 0
-1767 1789 0
-339 -1767 1768 0
-1768 1790 0
-340 -1768 1769 0
-1769 1791 0
-341 -1769 1770 0
-1770 1792 0
-342 -1770 1771 0
-1771 1793 0
-343 -1771 1772 0
-1772 1794 0
-344 -1772 1773 0
-1773 1795 0
-345 -1773 1774 0
-1774 1796 0
-346 -1774 1775 0
-1775 1797 0
-347 -1775 1776 0
-1776 1798 0
-348 -1776 1777 0
-1777 1799 0
-349 -1777 1778 0
-1778 1800 0
-350 -1778 1779 0
-1779 1801 0
-351 -1779 1780 0
-1780 1802 0
-352 -1780 0
-331 1781 0
-1781 1803 0
-332 -1781 1782 0
-1782 1804 0
-333 -1782 1783 0
-1783 1805 0
-334 -1783 1784 0
-1784 1806 0
-335 -1784 1785 0
-1785 1807 0
-336 -1785 1786 0
-1786 1808 0
-337 -1786 1787 0
-1787 1809 0
-338 -1787 1788 0
-1788 1810 0
-339 -1788 1789 0
-1789 1811 0
-340 -1789 1790 0
-1790 1812 0
-341 -1790 1791 0
-1791 1813 0
-342 -1791 1792 0
-1792 1814 0
-343 -1792 1793 0
-1793 1815 0
-344 -1793 1794 0
-1794 1816 0
-345 -1794 1795 0
-1795 1817 0
-346 -1795 1796 0
-1796 1818 0
-347 -1796 1797 0
-1797 1819 0
-348 -1797 1798 0
-1798 1820 0
-349 -1798 1799 0
-1799 1821 0
-350 -1799 1800 0
-1800 1822 0
-351 -1800 1801 0
-1801 1823 0
-352 -1801 1802 0
-1802 1824 0
-353 -1802 0
-332 1803 0
-1803 1825 0
-333 -1803 1804 0
-1804 1826 0
-334 -1804 1805 0
-1805 1827 0
-335 -1805 1806 0
-1806 1828 0
-336 -1806 1807 0
-1807 1829 0
-337 -1807 1808 0
-1808 1830 0
-338 -1808 1809 0
-1809 1831 0
-339 -1809 1810 0
-1810 1832 0
-340 -1810 1811 0
-1811 1833 0
-341 -1811 1812 0
-1812 1834 0
-342 -1812 1813 0
-1813 1835 0
-343 -1813 1814 0
-1814 1836 0
-344 -1814 1815 0
-1815 1837 0
-345 -1815 1816 0
-1816 1838 0
-346 -1816 1817 0
-1817 1839 0
-347 -1817 1818 0
-1818 1840 0
-348 -1818 1819 0
-1819 1841 0
-349 -1819 1820 0
-1820 1842 0
-350 -1820 1821 0
-1821 1843 0
-351 -1821 1822 0
-1822 1844 0
-352 -1822 1823 0
-1823 1845 0
-353 -1823 1824 0
-1824 1846 0
-354 -1824 0
-333 1825 0
-1825 1847 0
-334 -1825 1826 0
-1826 1848 0
-335 -1826 1827 0
-1827 1849 0
-336 -1827 1828 0
-1828 1850 0
-337 -1828 1829 0
-1829 1851 0
-338 -1829 1830 0
-1830 1852 0
-339 -1830 1831 0
-1831 1853 0
-340 -1831 1832 0
-1832 1854 0
-341 -1832 1833 0
-1833 1855 0
-342 -1833 1834 0
-1834 1856 0
-343 -1834 1835 0
-1835 1857 0
-344 -1835 1836 0
-1836 1858 0
-345 -1836 1837 0
-1837 1859 0
-346 -1837 1838 0
-1838 1860 0
-347 -1838 1839 0
-1839 1861 0
-348 -1839 1840 0
-1840 1862 0
-349 -1840 1841 0
-1841 1863 0
-350 -1841 1842 0
-1842 1864 0
-351 -1842 1843 0
-1843 1865 0
-352 -1843 1844 0
-1844 1866 0
-353 -1844 1845 0
-1845 1867 0
-354 -1845 1846 0
-1846 1868 0
-355 -1846 0
-334 1847 0
-1847 1869 0
-335 -1847 1848 0
-1848 1870 0
-336 -1848 1849 0
-1849 1871 0
-337 -1849 1850 0
-1850 1872 0
-338 -1850 1851 0
-1851 1873 0
-339 -1851 1852 0
-1852 1874 0
-340 -1852 1853 0
-1853 1875 0
-341 -1853 1854 0
-1854 1876 0
-342 -1854 1855 0
-1855 1877 0
-343 -1855 1856 0
-1856 1878 0
-344 -1856 1857 0
-1857 1879 0
-345 -1857 1858 0
-1858 1880 0
-346 -1858 1859 0
-1859 1881 0
-347 -1859 1860 0
-1860 1882 0
-348 -1860 1861 0
-1861 1883 0
-349 -1861 1862 0
-1862 1884 0
-350 -1862 1863 0
-1863 1885 0
-351 -1863 1864 0
-1864 1886 0
-352 -1864 1865 0
-1865 1887 0
-353 -1865 1866 0
-1866 1888 0
-354 -1866 1867 0
-1867 1889 0
-355 -1867 1868 0
-1868 1890 0
-356 -1868 0
-335 1869 0
-1869 1891 0
-336 -1869 1870 0
-1870 1892 0
-337 -1870 1871 0
-1871 1893 0
-338 -1871 1872 0
-1872 1894 0
-339 -1872 1873 0
-1873 1895 0
-340 -1873 1874 0
-1874 1896 0
-341 -1874 1875 0
-1875 1897 0
-342 -1875 1876 0
-1876 1898 0
-343 -1876 1877 0
-1877 1899 0
-344 -1877 1878 0
-1878 1900 0
-345 -1878 1879 0
-1879 1901 0
-346 -1879 1880 0
-1880 1902 0
-347 -1880 1881 0
-1881 1903 0
-348 -1881 1882 0
-1882 1904 0
-349 -1882 1883 0
-1883 1905 0
-350 -1883 1884 0
-1884 1906 0
-351 -1884 1885 0
-1885 1907 0
-352 -1885 1886 0
-1886 1908 0
-353 -1886 1887 0
-1887 1909 0
-354 -1887 1888 0
-1888 1910 0
-355 -1888 1889 0
-1889 1911 0
-356 -1889 1890 0
-1890 1912 0
-357 -1890 0
-336 1891 0
-1891 1913 0
-337 -1891 1892 0
-1892 1914 0
-338 -1892 1893 0
-1893 1915 0
-339 -1893 1894 0
-1894 1916 0
-340 -1894 1895 0
-1895 1917 0
-341 -1895 1896 0
-1896 1918 0
-342 -1896 1897 0
-1897 1919 0
-343 -1897 1898 0
-1898 1920 0
-344 -1898 1899 0
-1899 1921 0
-345 -1899 1900 0
-1900 1922 0
-346 -1900 1901 0
-1901 1923 0
-347 -1901 1902 0
-1902 1924 0
-348 -1902 1903 0
-1903 1925 0
-349 -1903 1904 0
-1904 1926 0
-350 -1904 1905 0
-1905 1927 0
-351 -1905 1906 0
-1906 1928 0
-352 -1906 1907 0
-1907 1929 0
-353 -1907 1908 0
-1908 1930 0
-354 -1908 1909 0
-1909 1931 0
-355 -1909 1910 0
-1910 1932 0
-356 -1910 1911 0
-1911 1933 0
-357 -1911 1912 0
-1912 1934 0
-358 -1912 0
-337 1913 0
-1913 1935 0
-338 -1913 1914 0
-1914 1936 0
-339 -1914 1915 0
-1915 1937 0
-340 -1915 1916 0
-1916 1938 0
-341 -1916 1917 0
-1917 1939 0
-342 -1917 1918 0
-1918 1940 0
-343 -1918 1919 0
-1919 1941 0
-344 -1919 1920 0
-1920 1942 0
-345 -1920 1921 0
-1921 1943 0
-346 -1921 1922 0
-1922 1944 0
-347 -1922 1923 0
-1923 1945 0
-348 -1923 1924 0
-1924 1946 0
-349 -1924 1925 0
-1925 1947 0
-350 -1925 1926 0
-1926 1948 0
-351 -1926 1927 0
-1927 1949 0
-352 -1927 1928 0
-1928 1950 0
-353 -1928 1929 0
-1929 1951 0
-354 -1929 1930 0
-1930 1952 0
-355 -1930 1931 0
-1931 1953 0
-356 -1931 1932 0
-1932 1954 0
-357 -1932 1933 0
-1933 1955 0
-358 -1933 1934 0
-1934 1956 0
-359 -1934 0
-338 1935 0
-1935 1957 0
-339 -1935 1936 0
-1936 1958 0
-340 -1936 1937 0
-1937 1959 0
-341 -1937 1938 0
-1938 1960 0
-342 -1938 1939 0
-1939 1961 0
-343 -1939 1940 0
-1940 1962 0
-344 -1940 1941 0
-1941 1963 0
-345 -1941 1942 0
-1942 1964 0
-346 -1942 1943 0
-1943 1965 0
-347 -1943 1944 0
-1944 1966 0
-348 -1944 1945 0
-1945 1967 0
-349 -1945 1946 0
-1946 1968 0
-350 -1946 1947 0
-1947 1969 0
-351 -1947 1948 0
-1948 1970 0
-352 -1948 1949 0
-1949 1971 0
-353 -1949 1950 0
-1950 1972 0
-354 -1950 1951 0
-1951 1973 0
-355 -1951 1952 0
-1952 1974 0
-356 -1952 1953 0
-1953 1975 0
-357 -1953 1954 0
-1954 1976 0
-358 -1954 1955 0
-1955 1977 0
-359 -1955 1956 0
-1956 1978 0
-360 -1956 0
-339 1957 0
-1957 1979 0
-340 -1957 1958 0
-1958 1980 0
-341 -1958 1959 0
-1959 1981 0
-342 -1959 1960 0
-1960 1982 0
-343 -1960 1961 0
-1961 1983 0
-344 -1961 1962 0
-1962 1984 0
-345 -1962 1963 0
-1963 1985 0
-346 -1963 1964 0
-1964 1986 0
-347 -1964 1965 0
-1965 1987 0
-348 -1965 1966 0
-1966 1988 0
-349 -1966 1967 0
-1967 1989 0
-350 -1967 1968 0
-1968 1990 0
-351 -1968 1969 0
-1969 1991 0
-352 -1969 1970 0
-1970 1992 0
-353 -1970 1971 0
-1971 1993 0
-354 -1971 1972 0
-1972 1994 0
-355 -1972 1973 0
-1973 1995 0
-356 -1973 1974 0
-1974 1996 0
-357 -1974 1975 0
-1975 1997 0
-358 -1975 1976 0
-1976 1998 0
-359 -1976 1977 0
-1977 1999 0
-360 -1977 1978 0
-1978 2000 0
-361 -1978 0
-340 1979 0
-1979 2001 0
-341 -1979 1980 0
-1980 2002 0
-342 -1980 1981 0
-1981 2003 0
-343 -1981 1982 0
-1982 2004 0
-344 -1982 1983 0
-1983 2005 0
-345 -1983 1984 0
-1984 2006 0
-346 -1984 1985 0
-1985 2007 0
-347 -1985 1986 0
-1986 2008 0
-348 -1986 1987 0
-1987 2009 0
-349 -1987 1988 0
-1988 2010 0
-350 -1988 1989 0
-1989 2011 0
-351 -1989 1990 0
-1990 2012 0
-352 -1990 1991 0
-1991 2013 0
-353 -1991 1992 0
-1992 2014 0
-354 -1992 1993 0
-1993 2015 0
-355 -1993 1994 0
-1994 2016 0
-356 -1994 1995 0
-1995 2017 0
-357 -1995 1996 0
-1996 2018 0
-358 -1996 1997 0
-1997 2019 0
-359 -1997 1998 0
-1998 2020 0
-360 -1998 1999 0
-1999 2021 0
-361 -1999 2000 0
-2000 2022 0
-362 -2000 0
-341 2001 0
-2001 2023 0
-342 -2001 2002 0
-2002 2024 0
-343 -2002 2003 0
-2003 2025 0
-344 -2003 2004 0
-2004 2026 0
-345 -2004 2005 0
-2005 2027 0
-346 -2005 2006 0
-2006 2028 0
-347 -2006 2007 0
-2007 2029 0
-348 -2007 2008 0
-2008 2030 0
-349 -2008 2009 0
-2009 2031 0
-350 -2009 2010 0
-2010 2032 0
-351 -2010 2011 0
-2011 2033 0
-352 -2011 2012 0
-2012 2034 0
-353 -2012 2013 0
-2013 2035 0
-354 -2013 2014 0
-2014 2036 0
-355 -2014 2015 0
-2015 2037 0
-356 -2015 2016 0
-2016 2038 0
-357 -2016 2017 0
-2017 2039 0
-358 -2017 2018 0
-2018 2040 0
-359 -2018 2019 0
-2019 2041 0
-360 -2019 2020 0
-2020 2042 0
-361 -2020 2021 0
-2021 2043 0
-362 -2021 2022 0
-2022 2044 0
-363 -2022 0
-342 2023 0
-2023 2045 0
-343 -2023 2024 0
-2024 2046 0
-344 -2024 2025 0
-2025 2047 0
-345 -2025 2026 0
-2026 2048 0
-346 -2026 2027 0
-2027 2049 0
-347 -2027 2028 0
-2028 2050 0
-348 -2028 2029 0
-2029 2051 0
-349 -2029 2030 0
-2030 2052 0
-350 -2030 2031 0
-2031 2053 0
-351 -2031 2032 0
-2032 2054 0
-352 -2032 2033 0
-2033 2055 0
-353 -2033 2034 0
-2034 2056 0
-354 -2034 2035 0
-2035 2057 0
-355 -2035 2036 0
-2036 2058 0
-356 -2036 2037 0
-2037 2059 0
-357 -2037 2038 0
-2038 2060 0
-358 -2038 2039 0
-2039 2061 0
-359 -2039 2040 0
-2040 2062 0
-360 -2040 2041 0
-2041 2063 0
-361 -2041 2042 0
-2042 2064 0
-362 -2042 2043 0
-2043 2065 0
-363 -2043 2044 0
-2044 2066 0
-364 -2044 0
-343 2045 0
-2045 2067 0
-344 -2045 2046 0
-2046 2068 0
-345 -2046 2047 0
-2047 2069 0
-346 -2047 2048 0
-2048 2070 0
-347 -2048 2049 0
-2049 2071 0
-348 -2049 2050 0
-2050 2072 0
-349 -2050 2051 0
-2051 2073 0
-350 -2051 2052 0
-2052 2074 0
-351 -2052 2053 0
-2053 2075 0
-352 -2053 2054 0
-2054 2076 0
-353 -2054 2055 0
-2055 2077 0
-354 -2055 2056 0
-2056 2078 0
-355 -2056 2057 0
-2057 2079 0
-356 -2057 2058 0
-2058 2080 0
-357 -2058 2059 0
-2059 2081 0
-358 -2059 2060 0
-2060 2082 0
-359 -2060 2061 0
-2061 2083 0
-360 -2061 2062 0
-2062 2084 0
-361 -2062 2063 0
-2063 2085 0
-362 -2063 2064 0
-2064 2086 0
-363 -2064 2065 0
-2065 2087 0
-364 -2065 2066 0
-2066 2088 0
-365 -2066 0
-344 2067 0
-2067 2089 0
-345 -2067 2068 0
-2068 2090 0
-346 -2068 2069 0
-2069 2091 0
-347 -2069 2070 0
-2070 2092 0
-348 -2070 2071 0
-2071 2093 0
-349 -2071 2072 0
-2072 2094 0
-350 -2072 2073 0
-2073 2095 0
-351 -2073 2074 0
-2074 2096 0
-352 -2074 2075 0
-2075 2097 0
-353 -2075 2076 0
-2076 2098 0
-354 -2076 2077 0
-2077 2099 0
-355 -2077 2078 0
-2078 2100 0
-356 -2078 2079 0
-2079 2101 0
-357 -2079 2080 0
-2080 2102 0
-358 -2080 2081 0
-2081 2103 0
-359 -2081 2082 0
-2082 2104 0
-360 -2082 2083 0
-2083 2105 0
-361 -2083 2084 0
-2084 2106 0
-362 -2084 2085 0
-2085 2107 0
-363 -2085 2086 0
-2086 2108 0
-364 -2086 2087 0
-2087 2109 0
-365 -2087 2088 0
-2088 2110 0
-366 -2088 0
-345 2089 0
-2089 2111 0
-346 -2089 2090 0
-2090 2112 0
-347 -2090 2091 0
-2091 2113 0
-348 -2091 2092 0
-2092 2114 0
-349 -2092 2093 0
-2093 2115 0
-350 -2093 2094 0
-2094 2116 0
-351 -2094 2095 0
-2095 2117 0
-352 -2095 2096 0
-2096 2118 0
-353 -2096 2097 0
-2097 2119 0
-354 -2097 2098 0
-2098 2120 0
-355 -2098 2099 0
-2099 2121 0
-356 -2099 2100 0
-2100 2122 0
-357 -2100 2101 0
-2101 2123 0
-358 -2101 2102 0
-2102 2124 0
-359 -2102 2103 0
-2103 2125 0
-360 -2103 2104 0
-2104 2126 0
-361 -2104 2105 0
-2105 2127 0
-362 -2105 2106 0
-2106 2128 0
-363 -2106 2107 0
-2107 2129 0
-364 -2107 2108 0
-2108 2130 0
-365 -2108 2109 0
-2109 2131 0
-366 -2109 2110 0
-2110 2132 0
-367 -2110 0
-346 2111 0
-2111 2133 0
-347 -2111 2112 0
-2112 2134 0
-348 -2112 2113 0
-2113 2135 0
-349 -2113 2114 0
-2114 2136 0
-350 -2114 2115 0
-2115 2137 0
-351 -2115 2116 0
-2116 2138 0
-352 -2116 2117 0
-2117 2139 0
-353 -2117 2118 0
-2118 2140 0
-354 -2118 2119 0
-2119 2141 0
-355 -2119 2120 0
-2120 2142 0
-356 -2120 2121 0
-2121 2143 0
-357 -2121 2122 0
-2122 2144 0
-358 -2122 2123 0
-2123 2145 0
-359 -2123 2124 0
-2124 2146 0
-360 -2124 2125 0
-2125 2147 0
-361 -2125 2126 0
-2126 2148 0
-362 -2126 2127 0
-2127 2149 0
-363 -2127 2128 0
-2128 2150 0
-364 -2128 2129 0
-2129 2151 0
-365 -2129 2130 0
-2130 2152 0
-366 -2130 2131 0
-2131 2153 0
-367 -2131 2132 0
-2132 2154 0
-368 -2132 0
-347 2133 0
-2133 2155 0
-348 -2133 2134 0
-2134 2156 0
-349 -2134 2135 0
-2135 2157 0
-350 -2135 2136 0
-2136 2158 0
-351 -2136 2137 0
-2137 2159 0
-352 -2137 2138 0
-2138 2160 0
-353 -2138 2139 0
-2139 2161 0
-354 -2139 2140 0
-2140 2162 0
-355 -2140 2141 0
-2141 2163 0
-356 -2141 2142 0
-2142 2164 0
-357 -2142 2143 0
-2143 2165 0
-358 -2143 2144 0
-2144 2166 0
-359 -2144 2145 0
-2145 2167 0
-360 -2145 2146 0
-2146 2168 0
-361 -2146 2147 0
-2147 2169 0
-362 -2147 2148 0
-2148 2170 0
-363 -2148 2149 0
-2149 2171 0
-364 -2149 2150 0
-2150 2172 0
-365 -2150 2151 0
-2151 2173 0
-366 -2151 2152 0
-2152 2174 0
-367 -2152 2153 0
-2153 2175 0
-368 -2153 2154 0
-2154 2176 0
-369 -2154 0
-348 2155 0
-2155 2177 0
-349 -2155 2156 0
-2156 2178 0
-350 -2156 2157 0
-2157 2179 0
-351 -2157 2158 0
-2158 2180 0
-352 -2158 2159 0
-2159 2181 0
-353 -2159 2160 0
-2160 2182 0
-354 -2160 2161 0
-2161 2183 0
-355 -2161 2162 0
-2162 2184 0
-356 -2162 2163 0
-2163 2185 0
-357 -2163 2164 0
-2164 2186 0
-358 -2164 2165 0
-2165 2187 0
-359 -2165 2166 0
-2166 2188 0
-360 -2166 2167 0
-2167 2189 0
-361 -2167 2168 0
-2168 2190 0
-362 -2168 2169 0
-2169 2191 0
-363 -2169 2170 0
-2170 2192 0
-364 -2170 2171 0
-2171 2193 0
-365 -2171 2172 0
-2172 2194 0
-366 -2172 2173 0
-2173 2195 0
-367 -2173 2174 0
-2174 2196 0
-368 -2174 2175 0
-2175 2197 0
-369 -2175 2176 0
-2176 2198 0
-370 -2176 0
-349 2177 0
-2177 2199 0
-350 -2177 2178 0
-2178 2200 0
-351 -2178 2179 0
-2179 2201 0
-352 -2179 2180 0
-2180 2202 0
-353 -2180 2181 0
-2181 2203 0
-354 -2181 2182 0
-2182 2204 0
-355 -2182 2183 0
-2183 2205 0
-356 -2183 2184 0
-2184 2206 0
-357 -2184 2185 0
-2185 2207 0
-358 -2185 2186 0
-2186 2208 0
-359 -2186 2187 0
-2187 2209 0
-360 -2187 2188 0
-2188 2210 0
-361 -2188 2189 0
-2189 2211 0
-362 -2189 2190 0
-2190 2212 0
-363 -2190 2191 0
-2191 2213 0
-364 -2191 2192 0
-2192 2214 0
-365 -2192 2193 0
-2193 2215 0
-366 -2193 2194 0
-2194 2216 0
-367 -2194 2195 0
-2195 2217 0
-368 -2195 2196 0
-2196 2218 0
-369 -2196 2197 0
-2197 2219 0
-370 -2197 2198 0
-2198 2220 0
-371 -2198 0
-350 2199 0
-2199 2221 0
-351 -2199 2200 0
-2200 2222 0
-352 -2200 2201 0
-2201 2223 0
-353 -2201 2202 0
-2202 2224 0
-354 -2202 2203 0
-2203 2225 0
-355 -2203 2204 0
-2204 2226 0
-356 -2204 2205 0
-2205 2227 0
-357 -2205 2206 0
-2206 2228 0
-358 -2206 2207 0
-2207 2229 0
-359 -2207 2208 0
-2208 2230 0
-360 -2208 2209 0
-2209 2231 0
-361 -2209 2210 0
-2210 2232 0
-362 -2210 2211 0
-2211 2233 0
-363 -2211 2212 0
-2212 2234 0
-364 -2212 2213 0
-2213 2235 0
-365 -2213 2214 0
-2214 2236 0
-366 -2214 2215 0
-2215 2237 0
-367 -2215 2216 0
-2216 2238 0
-368 -2216 2217 0
-2217 2239 0
-369 -2217 2218 0
-2218 2240 0
-370 -2218 2219 0
-2219 2241 0
-371 -2219 2220 0
-2220 2242 0
-372 -2220 0
-351 2221 0
-2221 2243 0
-352 -2221 2222 0
-2222 2244 0
-353 -2222 2223 0
-2223 2245 0
-354 -2223 2224 0
-2224 2246 0
-355 -2224 2225 0
-2225 2247 0
-356 -2225 2226 0
-2226 2248 0
-357 -2226 2227 0
-2227 2249 0
-358 -2227 2228 0
-2228 2250 0
-359 -2228 2229 0
-2229 2251 0
-360 -2229 2230 0
-2230 2252 0
-361 -2230 2231 0
-2231 2253 0
-362 -2231 2232 0
-2232 2254 0
-363 -2232 2233 0
-2233 2255 0
-364 -2233 2234 0
-2234 2256 0
-365 -2234 2235 0
-2235 2257 0
-366 -2235 2236 0
-2236 2258 0
-367 -2236 2237 0
-2237 2259 0
-368 -2237 2238 0
-2238 2260 0
-369 -2238 2239 0
-2239 2261 0
-370 -2239 2240 0
-2240 2262 0
-371 -2240 2241 0
-2241 2263 0
-372 -2241 2242 0
-2242 2264 0
-373 -2242 0
-352 2243 0
-2243 2265 0
-353 -2243 2244 0
-2244 2266 0
-354 -2244 2245 0
-2245 2267 0
-355 -2245 2246 0
-2246 2268 0
-356 -2246 2247 0
-2247 2269 0
-357 -2247 2248 0
-2248 2270 0
-358 -2248 2249 0
-2249 2271 0
-359 -2249 2250 0
-2250 2272 0
-360 -2250 2251 0
-2251 2273 0
-361 -2251 2252 0
-2252 2274 0
-362 -2252 2253 0
-2253 2275 0
-363 -2253 2254 0
-2254 2276 0
-364 -2254 2255 0
-2255 2277 0
-365 -2255 2256 0
-2256 2278 0
-366 -2256 2257 0
-2257 2279 0
-367 -2257 2258 0
-2258 2280 0
-368 -2258 2259 0
-2259 2281 0
-369 -2259 2260 0
-2260 2282 0
-370 -2260 2261 0
-2261 2283 0
-371 -2261 2262 0
-2262 2284 0
-372 -2262 2263 0
-2263 2285 0
-373 -2263 2264 0
-2264 2286 0
-374 -2264 0
-353 2265 0
-2265 2287 0
-354 -2265 2266 0
-2266 2288 0
-355 -2266 2267 0
-2267 2289 0
-356 -2267 2268 0
-2268 2290 0
-357 -2268 2269 0
-2269 2291 0
-358 -2269 2270 0
-2270 2292 0
-359 -2270 2271 0
-2271 2293 0
-360 -2271 2272 0
-2272 2294 0
-361 -2272 2273 0
-2273 2295 0
-362 -2273 2274 0
-2274 2296 0
-363 -2274 2275 0
-2275 2297 0
-364 -2275 2276 0
-2276 2298 0
-365 -2276 2277 0
-2277 2299 0
-366 -2277 2278 0
-2278 2300 0
-367 -2278 2279 0
-2279 2301 0
-368 -2279 2280 0
-2280 2302 0
-369 -2280 2281 0
-2281 2303 0
-370 -2281 2282 0
-2282 2304 0
-371 -2282 2283 0
-2283 2305 0
-372 -2283 2284 0
-2284 2306 0
-373 -2284 2285 0
-2285 2307 0
-374 -2285 2286 0
-2286 2308 0
-375 -2286 0
-354 2287 0
-2287 2309 0
-355 -2287 2288 0
-2288 2310 0
-356 -2288 2289 0
-2289 2311 0
-357 -2289 2290 0
-2290 2312 0
-358 -2290 2291 0
-2291 2313 0
-359 -2291 2292 0
-2292 2314 0
-360 -2292 2293 0
-2293 2315 0
-361 -2293 2294 0
-2294 2316 0
-362 -2294 2295 0
-2295 2317 0
-363 -2295 2296 0
-2296 2318 0
-364 -2296 2297 0
-2297 2319 0
-365 -2297 2298 0
-2298 2320 0
-366 -2298 2299 0
-2299 2321 0
-367 -2299 2300 0
-2300 2322 0
-368 -2300 2301 0
-2301 2323 0
-369 -2301 2302 0
-2302 2324 0
-370 -2302 2303 0
-2303 2325 0
-371 -2303 2304 0
-2304 2326 0
-372 -2304 2305 0
-2305 2327 0
-373 -2305 2306 0
-2306 2328 0
-374 -2306 2307 0
-2307 2329 0
-375 -2307 2308 0
-2308 2330 0
-376 -2308 0
-355 2309 0
-2309 2331 0
-356 -2309 2310 0
-2310 2332 0
-357 -2310 2311 0
-2311 2333 0
-358 -2311 2312 0
-2312 2334 0
-359 -2312 2313 0
-2313 2335 0
-360 -2313 2314 0
-2314 2336 0
-361 -2314 2315 0
-2315 2337 0
-362 -2315 2316 0
-2316 2338 0
-363 -2316 2317 0
-2317 2339 0
-364 -2317 2318 0
-2318 2340 0
-365 -2318 2319 0
-2319 2341 0
-366 -2319 2320 0
-2320 2342 0
-367 -2320 2321 0
-2321 2343 0
-368 -2321 2322 0
-2322 2344 0
-369 -2322 2323 0
-2323 2345 0
-370 -2323 2324 0
-2324 2346 0
-371 -2324 2325 0
-2325 2347 0
-372 -2325 2326 0
-2326 2348 0
-373 -2326 2327 0
-2327 2349 0
-374 -2327 2328 0
-2328 2350 0
-375 -2328 2329 0
-2329 2351 0
-376 -2329 2330 0
-2330 2352 0
-377 -2330 0
-356 2331 0
-2331 2353 0
-357 -2331 2332 0
-2332 2354 0
-358 -2332 2333 0
-2333 2355 0
-359 -2333 2334 0
-2334 2356 0
-360 -2334 2335 0
-2335 2357 0
-361 -2335 2336 0
-2336 2358 0
-362 -2336 2337 0
-2337 2359 0
-363 -2337 2338 0
-2338 2360 0
-364 -2338 2339 0
-2339 2361 0
-365 -2339 2340 0
-2340 2362 0
-366 -2340 2341 0
-2341 2363 0
-367 -2341 2342 0
-2342 2364 0
-368 -2342 2343 0
-2343 2365 0
-369 -2343 2344 0
-2344 2366 0
-370 -2344 2345 0
-2345 2367 0
-371 -2345 2346 0
-2346 2368 0
-372 -2346 2347 0
-2347 2369 0
-373 -2347 2348 0
-2348 2370 0
-374 -2348 2349 0
-2349 2371 0
-375 -2349 2350 0
-2350 2372 0
-376 -2350 2351 0
-2351 2373 0
-377 -2351 2352 0
-2352 2374 0
-378 -2352 0
-357 2353 0
-2353 2375 0
-358 -2353 2354 0
-2354 2376 0
-359 -2354 2355 0
-2355 2377 0
-360 -2355 2356 0
-2356 2378 0
-361 -2356 2357 0
-2357 2379 0
-362 -2357 2358 0
-2358 2380 0
-363 -2358 2359 0
-2359 2381 0
-364 -2359 2360 0
-2360 2382 0
-365 -2360 2361 0
-2361 2383 0
-366 -2361 2362 0
-2362 2384 0
-367 -2362 2363 0
-2363 2385 0
-368 -2363 2364 0
-2364 2386 0
-369 -2364 2365 0
-2365 2387 0
-370 -2365 2366 0
-2366 2388 0
-371 -2366 2367 0
-2367 2389 0
-372 -2367 2368 0
-2368 2390 0
-373 -2368 2369 0
-2369 2391 0
-374 -2369 2370 0
-2370 2392 0
-375 -2370 2371 0
-2371 2393 0
-376 -2371 2372 0
-2372 2394 0
-377 -2372 2373 0
-2373 2395 0
-378 -2373 2374 0
-2374 2396 0
-379 -2374 0
-358 2375 0
-2375 2397 0
-359 -2375 2376 0
-2376 2398 0
-360 -2376 2377 0
-2377 2399 0
-361 -2377 2378 0
-2378 2400 0
-362 -2378 2379 0
-2379 2401 0
-363 -2379 2380 0
-2380 2402 0
-364 -2380 2381 0
-2381 2403 0
-365 -2381 2382 0
-2382 2404 0
-366 -2382 2383 0
-2383 2405 0
-367 -2383 2384 0
-2384 2406 0
-368 -2384 2385 0
-2385 2407 0
-369 -2385 2386 0
-2386 2408 0
-370 -2386 2387 0
-2387 2409 0
-371 -2387 2388 0
-2388 2410 0
-372 -2388 2389 0
-2389 2411 0
-373 -2389 2390 0
-2390 2412 0
-374 -2390 2391 0
-2391 2413 0
-375 -2391 2392 0
-2392 2414 0
-376 -2392 2393 0
-2393 2415 0
-377 -2393 2394 0
-2394 2416 0
-378 -2394 2395 0
-2395 2417 0
-379 -2395 2396 0
-2396 2418 0
-380 -2396 0
-359 2397 0
-2397 2419 0
-360 -2397 2398 0
-2398 2420 0
-361 -2398 2399 0
-2399 2421 0
-362 -2399 2400 0
-2400 2422 0
-363 -2400 2401 0
-2401 2423 0
-364 -2401 2402 0
-2402 2424 0
-365 -2402 2403 0
-2403 2425 0
-366 -2403 2404 0
-2404 2426 0
-367 -2404 2405 0
-2405 2427 0
-368 -2405 2406 0
-2406 2428 0
-369 -2406 2407 0
-2407 2429 0
-370 -2407 2408 0
-2408 2430 0
-371 -2408 2409 0
-2409 2431 0
-372 -2409 2410 0
-2410 2432 0
-373 -2410 2411 0
-2411 2433 0
-374 -2411 2412 0
-2412 2434 0
-375 -2412 2413 0
-2413 2435 0
-376 -2413 2414 0
-2414 2436 0
-377 -2414 2415 0
-2415 2437 0
-378 -2415 2416 0
-2416 2438 0
-379 -2416 2417 0
-2417 2439 0
-380 -2417 2418 0
-2418 2440 0
-381 -2418 0
-360 2419 0
-2419 2441 0
-361 -2419 2420 0
-2420 2442 0
-362 -2420 2421 0
-2421 2443 0
-363 -2421 2422 0
-2422 2444 0
-364 -2422 2423 0
-2423 2445 0
-365 -2423 2424 0
-2424 2446 0
-366 -2424 2425 0
-2425 2447 0
-367 -2425 2426 0
-2426 2448 0
-368 -2426 2427 0
-2427 2449 0
-369 -2427 2428 0
-2428 2450 0
-370 -2428 2429 0
-2429 2451 0
-371 -2429 2430 0
-2430 2452 0
-372 -2430 2431 0
-2431 2453 0
-373 -2431 2432 0
-2432 2454 0
-374 -2432 2433 0
-2433 2455 0
-375 -2433 2434 0
-2434 2456 0
-376 -2434 2435 0
-2435 2457 0
-377 -2435 2436 0
-2436 2458 0
-378 -2436 2437 0
-2437 2459 0
-379 -2437 2438 0
-2438 2460 0
-380 -2438 2439 0
-2439 2461 0
-381 -2439 2440 0
-2440 2462 0
-382 -2440 0
-361 2441 0
-2441 2463 0
-362 -2441 2442 0
-2442 2464 0
-363 -2442 2443 0
-2443 2465 0
-364 -2443 2444 0
-2444 2466 0
-365 -2444 2445 0
-2445 2467 0
-366 -2445 2446 0
-2446 2468 0
-367 -2446 2447 0
-2447 2469 0
-368 -2447 2448 0
-2448 2470 0
-369 -2448 2449 0
-2449 2471 0
-370 -2449 2450 0
-2450 2472 0
-371 -2450 2451 0
-2451 2473 0
-372 -2451 2452 0
-2452 2474 0
-373 -2452 2453 0
-2453 2475 0
-374 -2453 2454 0
-2454 2476 0
-375 -2454 2455 0
-2455 2477 0
-376 -2455 2456 0
-2456 2478 0
-377 -2456 2457 0
-2457 2479 0
-378 -2457 2458 0
-2458 2480 0
-379 -2458 2459 0
-2459 2481 0
-380 -2459 2460 0
-2460 2482 0
-381 -2460 2461 0
-2461 2483 0
-382 -2461 2462 0
-2462 2484 0
-383 -2462 0
-362 2463 0
-2463 2485 0
-363 -2463 2464 0
-2464 2486 0
-364 -2464 2465 0
-2465 2487 0
-365 -2465 2466 0
-2466 2488 0
-366 -2466 2467 0
-2467 2489 0
-367 -2467 2468 0
-2468 2490 0
-368 -2468 2469 0
-2469 2491 0
-369 -2469 2470 0
-2470 2492 0
-370 -2470 2471 0
-2471 2493 0
-371 -2471 2472 0
-2472 2494 0
-372 -2472 2473 0
-2473 2495 0
-373 -2473 2474 0
-2474 2496 0
-374 -2474 2475 0
-2475 2497 0
-375 -2475 2476 0
-2476 2498 0
-376 -2476 2477 0
-2477 2499 0
-377 -2477 2478 0
-2478 2500 0
-378 -2478 2479 0
-2479 2501 0
-379 -2479 2480 0
-2480 2502 0
-380 -2480 2481 0
-2481 2503 0
-381 -2481 2482 0
-2482 2504 0
-382 -2482 2483 0
-2483 2505 0
-383 -2483 2484 0
-2484 2506 0
-384 -2484 0
-363 2485 0
-2485 2507 0
-364 -2485 2486 0
-2486 2508 0
-365 -2486 2487 0
-2487 2509 0
-366 -2487 2488 0
-2488 2510 0
-367 -2488 2489 0
-2489 2511 0
-368 -2489 2490 0
-2490 2512 0
-369 -2490 2491 0
-2491 2513 0
-370 -2491 2492 0
-2492 2514 0
-371 -2492 2493 0
-2493 2515 0
-372 -2493 2494 0
-2494 2516 0
-373 -2494 2495 0
-2495 2517 0
-374 -2495 2496 0
-2496 2518 0
-375 -2496 2497 0
-2497 2519 0
-376 -2497 2498 0
-2498 2520 0
-377 -2498 2499 0
-2499 2521 0
-378 -2499 2500 0
-2500 2522 0
-379 -2500 2501 0
-2501 2523 0
-380 -2501 2502 0
-2502 2524 0
-381 -2502 2503 0
-2503 2525 0
-382 -2503 2504 0
-2504 2526 0
-383 -2504 2505 0
-2505 2527 0
-384 -2505 2506 0
-2506 2528 0
-385 -2506 0
-364 2507 0
-2507 2529 0
-365 -2507 2508 0
-2508 2530 0
-366 -2508 2509 0
-2509 2531 0
-367 -2509 2510 0
-2510 2532 0
-368 -2510 2511 0
-2511 2533 0
-369 -2511 2512 0
-2512 2534 0
-370 -2512 2513 0
-2513 2535 0
-371 -2513 2514 0
-2514 2536 0
-372 -2514 2515 0
-2515 2537 0
-373 -2515 2516 0
-2516 2538 0
-374 -2516 2517 0
-2517 2539 0
-375 -2517 2518 0
-2518 2540 0
-376 -2518 2519 0
-2519 2541 0
-377 -2519 2520 0
-2520 2542 0
-378 -2520 2521 0
-2521 2543 0
-379 -2521 2522 0
-2522 2544 0
-380 -2522 2523 0
-2523 2545 0
-381 -2523 2524 0
-2524 2546 0
-382 -2524 2525 0
-2525 2547 0
-383 -2525 2526 0
-2526 2548 0
-384 -2526 2527 0
-2527 2549 0
-385 -2527 2528 0
-2528 2550 0
-386 -2528 0
-365 2529 0
-2529 2551 0
-366 -2529 2530 0
-2530 2552 0
-367 -2530 2531 0
-2531 2553 0
-368 -2531 2532 0
-2532 2554 0
-369 -2532 2533 0
-2533 2555 0
-370 -2533 2534 0
-2534 2556 0
-371 -2534 2535 0
-2535 2557 0
-372 -2535 2536 0
-2536 2558 0
-373 -2536 2537 0
-2537 2559 0
-374 -2537 2538 0
-2538 2560 0
-375 -2538 2539 0
-2539 2561 0
-376 -2539 2540 0
-2540 2562 0
-377 -2540 2541 0
-2541 2563 0
-378 -2541 2542 0
-2542 2564 0
-379 -2542 2543 0
-2543 2565 0
-380 -2543 2544 0
-2544 2566 0
-381 -2544 2545 0
-2545 2567 0
-382 -2545 2546 0
-2546 2568 0
-383 -2546 2547 0
-2547 2569 0
-384 -2547 2548 0
-2548 2570 0
-385 -2548 2549 0
-2549 2571 0
-386 -2549 2550 0
-2550 2572 0
-387 -2550 0
-366 2551 0
-2551 2573 0
-367 -2551 2552 0
-2552 2574 0
-368 -2552 2553 0
-2553 2575 0
-369 -2553 2554 0
-2554 2576 0
-370 -2554 2555 0
-2555 2577 0
-371 -2555 2556 0
-2556 2578 0
-372 -2556 2557 0
-2557 2579 0
-373 -2557 2558 0
-2558 2580 0
-374 -2558 2559 0
-2559 2581 0
-375 -2559 2560 0
-2560 2582 0
-376 -2560 2561 0
-2561 2583 0
-377 -2561 2562 0
-2562 2584 0
-378 -2562 2563 0
-2563 2585 0
-379 -2563 2564 0
-2564 2586 0
-380 -2564 2565 0
-2565 2587 0
-381 -2565 2566 0
-2566 2588 0
-382 -2566 2567 0
-2567 2589 0
-383 -2567 2568 0
-2568 2590 0
-384 -2568 2569 0
-2569 2591 0
-385 -2569 2570 0
-2570 2592 0
-386 -2570 2571 0
-2571 2593 0
-387 -2571 2572 0
-2572 2594 0
-388 -2572 0
-367 2573 0
-2573 2595 0
-368 -2573 2574 0
-2574 2596 0
-369 -2574 2575 0
-2575 2597 0
-370 -2575 2576 0
-2576 2598 0
-371 -2576 2577 0
-2577 2599 0
-372 -2577 2578 0
-2578 2600 0
-373 -2578 2579 0
-2579 2601 0
-374 -2579 2580 0
-2580 2602 0
-375 -2580 2581 0
-2581 2603 0
-376 -2581 2582 0
-2582 2604 0
-377 -2582 2583 0
-2583 2605 0
-378 -2583 2584 0
-2584 2606 0
-379 -2584 2585 0
-2585 2607 0
-380 -2585 2586 0
-2586 2608 0
-381 -2586 2587 0
-2587 2609 0
-382 -2587 2588 0
-2588 2610 0
-383 -2588 2589 0
-2589 2611 0
-384 -2589 2590 0
-2590 2612 0
-385 -2590 2591 0
-2591 2613 0
-386 -2591 2592 0
-2592 2614 0
-387 -2592 2593 0
-2593 2615 0
-388 -2593 2594 0
-2594 2616 0
-389 -2594 0
-368 2595 0
-2595 2617 0
-369 -2595 2596 0
-2596 2618 0
-370 -2596 2597 0
-2597 2619 0
-371 -2597 2598 0
-2598 2620 0
-372 -2598 2599 0
-2599 2621 0
-373 -2599 2600 0
-2600 2622 0
-374 -2600 2601 0
-2601 2623 0
-375 -2601 2602 0
-2602 2624 0
-376 -2602 2603 0
-2603 2625 0
-377 -2603 2604 0
-2604 2626 0
-378 -2604 2605 0
-2605 2627 0
-379 -2605 2606 0
-2606 2628 0
-380 -2606 2607 0
-2607 2629 0
-381 -2607 2608 0
-2608 2630 0
-382 -2608 2609 0
-2609 2631 0
-383 -2609 2610 0
-2610 2632 0
-384 -2610 2611 0
-2611 2633 0
-385 -2611 2612 0
-2612 2634 0
-386 -2612 2613 0
-2613 2635 0
-387 -2613 2614 0
-2614 2636 0
-388 -2614 2615 0
-2615 2637 0
-389 -2615 2616 0
-2616 2638 0
-390 -2616 0
-369 2617 0
-2617 2639 0
-370 -2617 2618 0
-2618 2640 0
-371 -2618 2619 0
-2619 2641 0
-372 -2619 2620 0
-2620 2642 0
-373 -2620 2621 0
-2621 2643 0
-374 -2621 2622 0
-2622 2644 0
-375 -2622 2623 0
-2623 2645 0
-376 -2623 2624 0
-2624 2646 0
-377 -2624 2625 0
-2625 2647 0
-378 -2625 2626 0
-2626 2648 0
-379 -2626 2627 0
-2627 2649 0
-380 -2627 2628 0
-2628 2650 0
-381 -2628 2629 0
-2629 2651 0
-382 -2629 2630 0
-2630 2652 0
-383 -2630 2631 0
-2631 2653 0
-384 -2631 2632 0
-2632 2654 0
-385 -2632 2633 0
-2633 2655 0
-386 -2633 2634 0
-2634 2656 0
-387 -2634 2635 0
-2635 2657 0
-388 -2635 2636 0
-2636 2658 0
-389 -2636 2637 0
-2637 2659 0
-390 -2637 2638 0
-2638 2660 0
-391 -2638 0
-370 2639 0
-2639 2661 0
-371 -2639 2640 0
-2640 2662 0
-372 -2640 2641 0
-2641 2663 0
-373 -2641 2642 0
-2642 2664 0
-374 -2642 2643 0
-2643 2665 0
-375 -2643 2644 0
-2644 2666 0
-376 -2644 2645 0
-2645 2667 0
-377 -2645 2646 0
-2646 2668 0
-378 -2646 2647 0
-2647 2669 0
-379 -2647 2648 0
-2648 2670 0
-380 -2648 2649 0
-2649 2671 0
-381 -2649 2650 0
-2650 2672 0
-382 -2650 2651 0
-2651 2673 0
-383 -2651 2652 0
-2652 2674 0
-384 -2652 2653 0
-2653 2675 0
-385 -2653 2654 0
-2654 2676 0
-386 -2654 2655 0
-2655 2677 0
-387 -2655 2656 0
-2656 2678 0
-388 -2656 2657 0
-2657 2679 0
-389 -2657 2658 0
-2658 2680 0
-390 -2658 2659 0
-2659 2681 0
-391 -2659 2660 0
-2660 2682 0
-392 -2660 0
-371 2661 0
-2661 2683 0
-372 -2661 2662 0
-2662 2684 0
-373 -2662 2663 0
-2663 2685 0
-374 -2663 2664 0
-2664 2686 0
-375 -2664 2665 0
-2665 2687 0
-376 -2665 2666 0
-2666 2688 0
-377 -2666 2667 0
-2667 2689 0
-378 -2667 2668 0
-2668 2690 0
-379 -2668 2669 0
-2669 2691 0
-380 -2669 2670 0
-2670 2692 0
-381 -2670 2671 0
-2671 2693 0
-382 -2671 2672 0
-2672 2694 0
-383 -2672 2673 0
-2673 2695 0
-384 -2673 2674 0
-2674 2696 0
-385 -2674 2675 0
-2675 2697 0
-386 -2675 2676 0
-2676 2698 0
-387 -2676 2677 0
-2677 2699 0
-388 -2677 2678 0
-2678 2700 0
-389 -2678 2679 0
-2679 2701 0
-390 -2679 2680 0
-2680 2702 0
-391 -2680 2681 0
-2681 2703 0
-392 -2681 2682 0
-2682 2704 0
-393 -2682 0
-372 2683 0
-2683 2705 0
-373 -2683 2684 0
-2684 2706 0
-374 -2684 2685 0
-2685 2707 0
-375 -2685 2686 0
-2686 2708 0
-376 -2686 2687 0
-2687 2709 0
-377 -2687 2688 0
-2688 2710 0
-378 -2688 2689 0
-2689 2711 0
-379 -2689 2690 0
-2690 2712 0
-380 -2690 2691 0
-2691 2713 0
-381 -2691 2692 0
-2692 2714 0
-382 -2692 2693 0
-2693 2715 0
-383 -2693 2694 0
-2694 2716 0
-384 -2694 2695 0
-2695 2717 0
-385 -2695 2696 0
-2696 2718 0
-386 -2696 2697 0
-2697 2719 0
-387 -2697 2698 0
-2698 2720 0
-388 -2698 2699 0
-2699 2721 0
-389 -2699 2700 0
-2700 2722 0
-390 -2700 2701 0
-2701 2723 0
-391 -2701 2702 0
-2702 2724 0
-392 -2702 2703 0
-2703 2725 0
-393 -2703 2704 0
-2704 2726 0
-394 -2704 0
-373 2705 0
-2705 2727 0
-374 -2705 2706 0
-2706 2728 0
-375 -2706 2707 0
-2707 2729 0
-376 -2707 2708 0
-2708 2730 0
-377 -2708 2709 0
-2709 2731 0
-378 -2709 2710 0
-2710 2732 0
-379 -2710 2711 0
-2711 2733 0
-380 -2711 2712 0
-2712 2734 0
-381 -2712 2713 0
-2713 2735 0
-382 -2713 2714 0
-2714 2736 0
-383 -2714 2715 0
-2715 2737 0
-384 -2715 2716 0
-2716 2738 0
-385 -2716 2717 0
-2717 2739 0
-386 -2717 2718 0
-2718 2740 0
-387 -2718 2719 0
-2719 2741 0
-388 -2719 2720 0
-2720 2742 0
-389 -2720 2721 0
-2721 2743 0
-390 -2721 2722 0
-2722 2744 0
-391 -2722 2723 0
-2723 2745 0
-392 -2723 2724 0
-2724 2746 0
-393 -2724 2725 0
-2725 2747 0
-394 -2725 2726 0
-2726 2748 0
-395 -2726 0
-374 2727 0
-2727 2749 0
-375 -2727 2728 0
-2728 2750 0
-376 -2728 2729 0
-2729 2751 0
-377 -2729 2730 0
-2730 2752 0
-378 -2730 2731 0
-2731 2753 0
-379 -2731 2732 0
-2732 2754 0
-380 -2732 2733 0
-2733 2755 0
-381 -2733 2734 0
-2734 2756 0
-382 -2734 2735 0
-2735 2757 0
-383 -2735 2736 0
-2736 2758 0
-384 -2736 2737 0
-2737 2759 0
-385 -2737 2738 0
-2738 2760 0
-386 -2738 2739 0
-2739 2761 0
-387 -2739 2740 0
-2740 2762 0
-388 -2740 2741 0
-2741 2763 0
-389 -2741 2742 0
-2742 2764 0
-390 -2742 2743 0
-2743 2765 0
-391 -2743 2744 0
-2744 2766 0
-392 -2744 2745 0
-2745 2767 0
-393 -2745 2746 0
-2746 2768 0
-394 -2746 2747 0
-2747 2769 0
-395 -2747 2748 0
-2748 2770 0
-396 -2748 0
-375 2749 0
-2749 2771 0
-376 -2749 2750 0
-2750 2772 0
-377 -2750 2751 0
-2751 2773 0
-378 -2751 2752 0
-2752 2774 0
-379 -2752 2753 0
-2753 2775 0
-380 -2753 2754 0
-2754 2776 0
-381 -2754 2755 0
-2755 2777 0
-382 -2755 2756 0
-2756 2778 0
-383 -2756 2757 0
-2757 2779 0
-384 -2757 2758 0
-2758 2780 0
-385 -2758 2759 0
-2759 2781 0
-386 -2759 2760 0
-2760 2782 0
-387 -2760 2761 0
-2761 2783 0
-388 -2761 2762 0
-2762 2784 0
-389 -2762 2763 0
-2763 2785 0
-390 -2763 2764 0
-2764 2786 0
-391 -2764 2765 0
-2765 2787 0
-392 -2765 2766 0
-2766 2788 0
-393 -2766 2767 0
-2767 2789 0
-394 -2767 2768 0
-2768 2790 0
-395 -2768 2769 0
-2769 2791 0
-396 -2769 2770 0
-2770 2792 0
-397 -2770 0
-376 2771 0
-2771 2793 0
-377 -2771 2772 0
-2772 2794 0
-378 -2772 2773 0
-2773 2795 0
-379 -2773 2774 0
-2774 2796 0
-380 -2774 2775 0
-2775 2797 0
-381 -2775 2776 0
-2776 2798 0
-382 -2776 2777 0
-2777 2799 0
-383 -2777 2778 0
-2778 2800 0
-384 -2778 2779 0
-2779 2801 0
-385 -2779 2780 0
-2780 2802 0
-386 -2780 2781 0
-2781 2803 0
-387 -2781 2782 0
-2782 2804 0
-388 -2782 2783 0
-2783 2805 0
-389 -2783 2784 0
-2784 2806 0
-390 -2784 2785 0
-2785 2807 0
-391 -2785 2786 0
-2786 2808 0
-392 -2786 2787 0
-2787 2809 0
-393 -2787 2788 0
-2788 2810 0
-394 -2788 2789 0
-2789 2811 0
-395 -2789 2790 0
-2790 2812 0
-396 -2790 2791 0
-2791 2813 0
-397 -2791 2792 0
-2792 2814 0
-398 -2792 0
-377 2793 0
-2793 2815 0
-378 -2793 2794 0
-2794 2816 0
-379 -2794 2795 0
-2795 2817 0
-380 -2795 2796 0
-2796 2818 0
-381 -2796 2797 0
-2797 2819 0
-382 -2797 2798 0
-2798 2820 0
-383 -2798 2799 0
-2799 2821 0
-384 -2799 2800 0
-2800 2822 0
-385 -2800 2801 0
-2801 2823 0
-386 -2801 2802 0
-2802 2824 0
-387 -2802 2803 0
-2803 2825 0
-388 -2803 2804 0
-2804 2826 0
-389 -2804 2805 0
-2805 2827 0
-390 -2805 2806 0
-2806 2828 0
-391 -2806 2807 0
-2807 2829 0
-392 -2807 2808 0
-2808 2830 0
-393 -2808 2809 0
-2809 2831 0
-394 -2809 2810 0
-2810 2832 0
-395 -2810 2811 0
-2811 2833 0
-396 -2811 2812 0
-2812 2834 0
-397 -2812 2813 0
-2813 2835 0
-398 -2813 2814 0
-2814 2836 0
-399 -2814 0
-378 2815 0
-2815 2837 0
-379 -2815 2816 0
-2816 2838 0
-380 -2816 2817 0
-2817 2839 0
-381 -2817 2818 0
-2818 2840 0
-382 -2818 2819 0
-2819 2841 0
-383 -2819 2820 0
-2820 2842 0
-384 -2820 2821 0
-2821 2843 0
-385 -2821 2822 0
-2822 2844 0
-386 -2822 2823 0
-2823 2845 0
-387 -2823 2824 0
-2824 2846 0
-388 -2824 2825 0
-2825 2847 0
-389 -2825 2826 0
-2826 2848 0
-390 -2826 2827 0
-2827 2849 0
-391 -2827 2828 0
-2828 2850 0
-392 -2828 2829 0
-2829 2851 0
-393 -2829 2830 0
-2830 2852 0
-394 -2830 2831 0
-2831 2853 0
-395 -2831 2832 0
-2832 2854 0
-396 -2832 2833 0
-2833 2855 0
-397 -2833 2834 0
-2834 2856 0
-398 -2834 2835 0
-2835 2857 0
-399 -2835 2836 0
-2836 2858 0
-400 -2836 0
-379 2837 0
-2837 2859 0
-380 -2837 2838 0
-2838 2860 0
-381 -2838 2839 0
-2839 2861 0
-382 -2839 2840 0
-2840 2862 0
-383 -2840 2841 0
-2841 2863 0
-384 -2841 2842 0
-2842 2864 0
-385 -2842 2843 0
-2843 2865 0
-386 -2843 2844 0
-2844 2866 0
-387 -2844 2845 0
-2845 2867 0
-388 -2845 2846 0
-2846 2868 0
-389 -2846 2847 0
-2847 2869 0
-390 -2847 2848 0
-2848 2870 0
-391 -2848 2849 0
-2849 2871 0
-392 -2849 2850 0
-2850 2872 0
-393 -2850 2851 0
-2851 2873 0
-394 -2851 2852 0
-2852 2874 0
-395 -2852 2853 0
-2853 2875 0
-396 -2853 2854 0
-2854 2876 0
-397 -2854 2855 0
-2855 2877 0
-398 -2855 2856 0
-2856 2878 0
-399 -2856 2857 0
-2857 2879 0
-400 -2857 2858 0
-2858 2880 0
-401 -2858 0
-380 2859 0
-2859 2881 0
-381 -2859 2860 0
-2860 2882 0
-382 -2860 2861 0
-2861 2883 0
-383 -2861 2862 0
-2862 2884 0
-384 -2862 2863 0
-2863 2885 0
-385 -2863 2864 0
-2864 2886 0
-386 -2864 2865 0
-2865 2887 0
-387 -2865 2866 0
-2866 2888 0
-388 -2866 2867 0
-2867 2889 0
-389 -2867 2868 0
-2868 2890 0
-390 -2868 2869 0
-2869 2891 0
-391 -2869 2870 0
-2870 2892 0
-392 -2870 2871 0
-2871 2893 0
-393 -2871 2872 0
-2872 2894 0
-394 -2872 2873 0
-2873 2895 0
-395 -2873 2874 0
-2874 2896 0
-396 -2874 2875 0
-2875 2897 0
-397 -2875 2876 0
-2876 2898 0
-398 -2876 2877 0
-2877 2899 0
-399 -2877 2878 0
-2878 2900 0
-400 -2878 2879 0
-2879 2901 0
-401 -2879 2880 0
-2880 2902 0
-402 -2880 0
-381 2881 0
-2881 2903 0
-382 -2881 2882 0
-2882 2904 0
-383 -2882 2883 0
-2883 2905 0
-384 -2883 2884 0
-2884 2906 0
-385 -2884 2885 0
-2885 2907 0
-386 -2885 2886 0
-2886 2908 0
-387 -2886 2887 0
-2887 2909 0
-388 -2887 2888 0
-2888 2910 0
-389 -2888 2889 0
-2889 2911 0
-390 -2889 2890 0
-2890 2912 0
-391 -2890 2891 0
-2891 2913 0
-392 -2891 2892 0
-2892 2914 0
-393 -2892 2893 0
-2893 2915 0
-394 -2893 2894 0
-2894 2916 0
-395 -2894 2895 0
-2895 2917 0
-396 -2895 2896 0
-2896 2918 0
-397 -2896 2897 0
-2897 2919 0
-398 -2897 2898 0
-2898 2920 0
-399 -2898 2899 0
-2899 2921 0
-400 -2899 2900 0
-2900 2922 0
-401 -2900 2901 0
-2901 2923 0
-402 -2901 2902 0
-2902 2924 0
-403 -2902 0
-382 2903 0
-2903 2925 0
-383 -2903 2904 0
-2904 2926 0
-384 -2904 2905 0
-2905 2927 0
-385 -2905 2906 0
-2906 2928 0
-386 -2906 2907 0
-2907 2929 0
-387 -2907 2908 0
-2908 2930 0
-388 -2908 2909 0
-2909 2931 0
-389 -2909 2910 0
-2910 2932 0
-390 -2910 2911 0
-2911 2933 0
-391 -2911 2912 0
-2912 2934 0
-392 -2912 2913 0
-2913 2935 0
-393 -2913 2914 0
-2914 2936 0
-394 -2914 2915 0
-2915 2937 0
-395 -2915 2916 0
-2916 2938 0
-396 -2916 2917 0
-2917 2939 0
-397 -2917 2918 0
-2918 2940 0
-398 -2918 2919 0
-2919 2941 0
-399 -2919 2920 0
-2920 2942 0
-400 -2920 2921 0
-2921 2943 0
-401 -2921 2922 0
-2922 2944 0
-402 -2922 2923 0
-2923 2945 0
-403 -2923 2924 0
-2924 2946 0
-404 -2924 0
-383 2925 0
-2925 2947 0
-384 -2925 2926 0
-2926 2948 0
-385 -2926 2927 0
-2927 2949 0
-386 -2927 2928 0
-2928 2950 0
-387 -2928 2929 0
-2929 2951 0
-388 -2929 2930 0
-2930 2952 0
-389 -2930 2931 0
-2931 2953 0
-390 -2931 2932 0
-2932 2954 0
-391 -2932 2933 0
-2933 2955 0
-392 -2933 2934 0
-2934 2956 0
-393 -2934 2935 0
-2935 2957 0
-394 -2935 2936 0
-2936 2958 0
-395 -2936 2937 0
-2937 2959 0
-396 -2937 2938 0
-2938 2960 0
-397 -2938 2939 0
-2939 2961 0
-398 -2939 2940 0
-2940 2962 0
-399 -2940 2941 0
-2941 2963 0
-400 -2941 2942 0
-2942 2964 0
-401 -2942 2943 0
-2943 2965 0
-402 -2943 2944 0
-2944 2966 0
-403 -2944 2945 0
-2945 2967 0
-404 -2945 2946 0
-2946 2968 0
-405 -2946 0
-384 2947 0
-2947 2969 0
-385 -2947 2948 0
-2948 2970 0
-386 -2948 2949 0
-2949 2971 0
-387 -2949 2950 0
-2950 2972 0
-388 -2950 2951 0
-2951 2973 0
-389 -2951 2952 0
-2952 2974 0
-390 -2952 2953 0
-2953 2975 0
-391 -2953 2954 0
-2954 2976 0
-392 -2954 2955 0
-2955 2977 0
-393 -2955 2956 0
-2956 2978 0
-394 -2956 2957 0
-2957 2979 0
-395 -2957 2958 0
-2958 2980 0
-396 -2958 2959 0
-2959 2981 0
-397 -2959 2960 0
-2960 2982 0
-398 -2960 2961 0
-2961 2983 0
-399 -2961 2962 0
-2962 2984 0
-400 -2962 2963 0
-2963 2985 0
-401 -2963 2964 0
-2964 2986 0
-402 -2964 2965 0
-2965 2987 0
-403 -2965 2966 0
-2966 2988 0
-404 -2966 2967 0
-2967 2989 0
-405 -2967 2968 0
-2968 2990 0
-406 -2968 0
-385 2969 0
-2969 2991 0
-386 -2969 2970 0
-2970 2992 0
-387 -2970 2971 0
-2971 2993 0
-388 -2971 2972 0
-2972 2994 0
-389 -2972 2973 0
-2973 2995 0
-390 -2973 2974 0
-2974 2996 0
-391 -2974 2975 0
-2975 2997 0
-392 -2975 2976 0
-2976 2998 0
-393 -2976 2977 0
-2977 2999 0
-394 -2977 2978 0
-2978 3000 0
-395 -2978 2979 0
-2979 3001 0
-396 -2979 2980 0
-2980 3002 0
-397 -2980 2981 0
-2981 3003 0
-398 -2981 2982 0
-2982 3004 0
-399 -2982 2983 0
-2983 3005 0
-400 -2983 2984 0
-2984 3006 0
-401 -2984 2985 0
-2985 3007 0
-402 -2985 2986 0
-2986 3008 0
-403 -2986 2987 0
-2987 3009 0
-404 -2987 2988 0
-2988 3010 0
-405 -2988 2989 0
-2989 3011 0
-406 -2989 2990 0
-2990 3012 0
-407 -2990 0
-386 2991 0
-2991 3013 0
-387 -2991 2992 0
-2992 3014 0
-388 -2992 2993 0
-2993 3015 0
-389 -2993 2994 0
-2994 3016 0
-390 -2994 2995 0
-2995 3017 0
-391 -2995 2996 0
-2996 3018 0
-392 -2996 2997 0
-2997 3019 0
-393 -2997 2998 0
-2998 3020 0
-394 -2998 2999 0
-2999 3021 0
-395 -2999 3000 0
-3000 3022 0
-396 -3000 3001 0
-3001 3023 0
-397 -3001 3002 0
-3002 3024 0
-398 -3002 3003 0
-3003 3025 0
-399 -3003 3004 0
-3004 3026 0
-400 -3004 3005 0
-3005 3027 0
-401 -3005 3006 0
-3006 3028 0
-402 -3006 3007 0
-3007 3029 0
-403 -3007 3008 0
-3008 3030 0
-404 -3008 3009 0
-3009 3031 0
-405 -3009 3010 0
-3010 3032 0
-406 -3010 3011 0
-3011 3033 0
-407 -3011 3012 0
-3012 3034 0
-408 -3012 0
-387 3013 0
-3013 3035 0
-388 -3013 3014 0
-3014 3036 0
-389 -3014 3015 0
-3015 3037 0
-390 -3015 3016 0
-3016 3038 0
-391 -3016 3017 0
-3017 3039 0
-392 -3017 3018 0
-3018 3040 0
-393 -3018 3019 0
-3019 3041 0
-394 -3019 3020 0
-3020 3042 0
-395 -3020 3021 0
-3021 3043 0
-396 -3021 3022 0
-3022 3044 0
-397 -3022 3023 0
-3023 3045 0
-398 -3023 3024 0
-3024 3046 0
-399 -3024 3025 0
-3025 3047 0
-400 -3025 3026 0
-3026 3048 0
-401 -3026 3027 0
-3027 3049 0
-402 -3027 3028 0
-3028 3050 0
-403 -3028 3029 0
-3029 3051 0
-404 -3029 3030 0
-3030 3052 0
-405 -3030 3031 0
-3031 3053 0
-406 -3031 3032 0
-3032 3054 0
-407 -3032 3033 0
-3033 3055 0
-408 -3033 3034 0
-3034 3056 0
-409 -3034 0
-388 3035 0
-3035 3057 0
-389 -3035 3036 0
-3036 3058 0
-390 -3036 3037 0
-3037 3059 0
-391 -3037 3038 0
-3038 3060 0
-392 -3038 3039 0
-3039 3061 0
-393 -3039 3040 0
-3040 3062 0
-394 -3040 3041 0
-3041 3063 0
-395 -3041 3042 0
-3042 3064 0
-396 -3042 3043 0
-3043 3065 0
-397 -3043 3044 0
-3044 3066 0
-398 -3044 3045 0
-3045 3067 0
-399 -3045 3046 0
-3046 3068 0
-400 -3046 3047 0
-3047 3069 0
-401 -3047 3048 0
-3048 3070 0
-402 -3048 3049 0
-3049 3071 0
-403 -3049 3050 0
-3050 3072 0
-404 -3050 3051 0
-3051 3073 0
-405 -3051 3052 0
-3052 3074 0
-406 -3052 3053 0
-3053 3075 0
-407 -3053 3054 0
-3054 3076 0
-408 -3054 3055 0
-3055 3077 0
-409 -3055 3056 0
-3056 3078 0
-410 -3056 0
-389 3057 0
-3057 3079 0
-390 -3057 3058 0
-3058 3080 0
-391 -3058 3059 0
-3059 3081 0
-392 -3059 3060 0
-3060 3082 0
-393 -3060 3061 0
-3061 3083 0
-394 -3061 3062 0
-3062 3084 0
-395 -3062 3063 0
-3063 3085 0
-396 -3063 3064 0
-3064 3086 0
-397 -3064 3065 0
-3065 3087 0
-398 -3065 3066 0
-3066 3088 0
-399 -3066 3067 0
-3067 3089 0
-400 -3067 3068 0
-3068 3090 0
-401 -3068 3069 0
-3069 3091 0
-402 -3069 3070 0
-3070 3092 0
-403 -3070 3071 0
-3071 3093 0
-404 -3071 3072 0
-3072 3094 0
-405 -3072 3073 0
-3073 3095 0
-406 -3073 3074 0
-3074 3096 0
-407 -3074 3075 0
-3075 3097 0
-408 -3075 3076 0
-3076 3098 0
-409 -3076 3077 0
-3077 3099 0
-410 -3077 3078 0
-3078 3100 0
-411 -3078 0
-390 3079 0
-3079 3101 0
-391 -3079 3080 0
-3080 3102 0
-392 -3080 3081 0
-3081 3103 0
-393 -3081 3082 0
-3082 3104 0
-394 -3082 3083 0
-3083 3105 0
-395 -3083 3084 0
-3084 3106 0
-396 -3084 3085 0
-3085 3107 0
-397 -3085 3086 0
-3086 3108 0
-398 -3086 3087 0
-3087 3109 0
-399 -3087 3088 0
-3088 3110 0
-400 -3088 3089 0
-3089 3111 0
-401 -3089 3090 0
-3090 3112 0
-402 -3090 3091 0
-3091 3113 0
-403 -3091 3092 0
-3092 3114 0
-404 -3092 3093 0
-3093 3115 0
-405 -3093 3094 0
-3094 3116 0
-406 -3094 3095 0
-3095 3117 0
-407 -3095 3096 0
-3096 3118 0
-408 -3096 3097 0
-3097 3119 0
-409 -3097 3098 0
-3098 3120 0
-410 -3098 3099 0
-3099 3121 0
-411 -3099 3100 0
-3100 3122 0
-412 -3100 0
-391 3101 0
-3101 3123 0
-392 -3101 3102 0
-3102 3124 0
-393 -3102 3103 0
-3103 3125 0
-394 -3103 3104 0
-3104 3126 0
-395 -3104 3105 0
-3105 3127 0
-396 -3105 3106 0
-3106 3128 0
-397 -3106 3107 0
-3107 3129 0
-398 -3107 3108 0
-3108 3130 0
-399 -3108 3109 0
-3109 3131 0
-400 -3109 3110 0
-3110 3132 0
-401 -3110 3111 0
-3111 3133 0
-402 -3111 3112 0
-3112 3134 0
-403 -3112 3113 0
-3113 3135 0
-404 -3113 3114 0
-3114 3136 0
-405 -3114 3115 0
-3115 3137 0
-406 -3115 3116 0
-3116 3138 0
-407 -3116 3117 0
-3117 3139 0
-408 -3117 3118 0
-3118 3140 0
-409 -3118 3119 0
-3119 3141 0
-410 -3119 3120 0
-3120 3142 0
-411 -3120 3121 0
-3121 3143 0
-412 -3121 3122 0
-3122 3144 0
-413 -3122 0
-392 3123 0
-3123 3145 0
-393 -3123 3124 0
-3124 3146 0
-394 -3124 3125 0
-3125 3147 0
-395 -3125 3126 0
-3126 3148 0
-396 -3126 3127 0
-3127 3149 0
-397 -3127 3128 0
-3128 3150 0
-398 -3128 3129 0
-3129 3151 0
-399 -3129 3130 0
-3130 3152 0
-400 -3130 3131 0
-3131 3153 0
-401 -3131 3132 0
-3132 3154 0
-402 -3132 3133 0
-3133 3155 0
-403 -3133 3134 0
-3134 3156 0
-404 -3134 3135 0
-3135 3157 0
-405 -3135 3136 0
-3136 3158 0
-406 -3136 3137 0
-3137 3159 0
-407 -3137 3138 0
-3138 3160 0
-408 -3138 3139 0
-3139 3161 0
-409 -3139 3140 0
-3140 3162 0
-410 -3140 3141 0
-3141 3163 0
-411 -3141 3142 0
-3142 3164 0
-412 -3142 3143 0
-3143 3165 0
-413 -3143 3144 0
-3144 3166 0
-414 -3144 0
-393 3145 0
-3145 3167 0
-394 -3145 3146 0
-3146 3168 0
-395 -3146 3147 0
-3147 3169 0
-396 -3147 3148 0
-3148 3170 0
-397 -3148 3149 0
-3149 3171 0
-398 -3149 3150 0
-3150 3172 0
-399 -3150 3151 0
-3151 3173 0
-400 -3151 3152 0
-3152 3174 0
-401 -3152 3153 0
-3153 3175 0
-402 -3153 3154 0
-3154 3176 0
-403 -3154 3155 0
-3155 3177 0
-404 -3155 3156 0
-3156 3178 0
-405 -3156 3157 0
-3157 3179 0
-406 -3157 3158 0
-3158 3180 0
-407 -3158 3159 0
-3159 3181 0
-408 -3159 3160 0
-3160 3182 0
-409 -3160 3161 0
-3161 3183 0
-410 -3161 3162 0
-3162 3184 0
-411 -3162 3163 0
-3163 3185 0
-412 -3163 3164 0
-3164 3186 0
-413 -3164 3165 0
-3165 3187 0
-414 -3165 3166 0
-3166 3188 0
-415 -3166 0
-394 3167 0
-3167 3189 0
-395 -3167 3168 0
-3168 3190 0
-396 -3168 3169 0
-3169 3191 0
-397 -3169 3170 0
-3170 3192 0
-398 -3170 3171 0
-3171 3193 0
-399 -3171 3172 0
-3172 3194 0
-400 -3172 3173 0
-3173 3195 0
-401 -3173 3174 0
-3174 3196 0
-402 -3174 3175 0
-3175 3197 0
-403 -3175 3176 0
-3176 3198 0
-404 -3176 3177 0
-3177 3199 0
-405 -3177 3178 0
-3178 3200 0
-406 -3178 3179 0
-3179 3201 0
-407 -3179 3180 0
-3180 3202 0
-408 -3180 3181 0
-3181 3203 0
-409 -3181 3182 0
-3182 3204 0
-410 -3182 3183 0
-3183 3205 0
-411 -3183 3184 0
-3184 3206 0
-412 -3184 3185 0
-3185 3207 0
-413 -3185 3186 0
-3186 3208 0
-414 -3186 3187 0
-3187 3209 0
-415 -3187 3188 0
-3188 3210 0
-416 -3188 0
-395 3189 0
-3189 3211 0
-396 -3189 3190 0
-3190 3212 0
-397 -3190 3191 0
-3191 3213 0
-398 -3191 3192 0
-3192 3214 0
-399 -3192 3193 0
-3193 3215 0
-400 -3193 3194 0
-3194 3216 0
-401 -3194 3195 0
-3195 3217 0
-402 -3195 3196 0
-3196 3218 0
-403 -3196 3197 0
-3197 3219 0
-404 -3197 3198 0
-3198 3220 0
-405 -3198 3199 0
-3199 3221 0
-406 -3199 3200 0
-3200 3222 0
-407 -3200 3201 0
-3201 3223 0
-408 -3201 3202 0
-3202 3224 0
-409 -3202 3203 0
-3203 3225 0
-410 -3203 3204 0
-3204 3226 0
-411 -3204 3205 0
-3205 3227 0
-412 -3205 3206 0
-3206 3228 0
-413 -3206 3207 0
-3207 3229 0
-414 -3207 3208 0
-3208 3230 0
-415 -3208 3209 0
-3209 3231 0
-416 -3209 3210 0
-3210 3232 0
-417 -3210 0
-396 3211 0
-3211 3233 0
-397 -3211 3212 0
-3212 3234 0
-398 -3212 3213 0
-3213 3235 0
-399 -3213 3214 0
-3214 3236 0
-400 -3214 3215 0
-3215 3237 0
-401 -3215 3216 0
-3216 3238 0
-402 -3216 3217 0
-3217 3239 0
-403 -3217 3218 0
-3218 3240 0
-404 -3218 3219 0
-3219 3241 0
-405 -3219 3220 0
-3220 3242 0
-406 -3220 3221 0
-3221 3243 0
-407 -3221 3222 0
-3222 3244 0
-408 -3222 3223 0
-3223 3245 0
-409 -3223 3224 0
-3224 3246 0
-410 -3224 3225 0
-3225 3247 0
-411 -3225 3226 0
-3226 3248 0
-412 -3226 3227 0
-3227 3249 0
-413 -3227 3228 0
-3228 3250 0
-414 -3228 3229 0
-3229 3251 0
-415 -3229 3230 0
-3230 3252 0
-416 -3230 3231 0
-3231 3253 0
-417 -3231 3232 0
-3232 3254 0
-418 -3232 0
-397 3233 0
-3233 3255 0
-398 -3233 3234 0
-3234 3256 0
-399 -3234 3235 0
-3235 3257 0
-400 -3235 3236 0
-3236 3258 0
-401 -3236 3237 0
-3237 3259 0
-402 -3237 3238 0
-3238 3260 0
-403 -3238 3239 0
-3239 3261 0
-404 -3239 3240 0
-3240 3262 0
-405 -3240 3241 0
-3241 3263 0
-406 -3241 3242 0
-3242 3264 0
-407 -3242 3243 0
-3243 3265 0
-408 -3243 3244 0
-3244 3266 0
-409 -3244 3245 0
-3245 3267 0
-410 -3245 3246 0
-3246 3268 0
-411 -3246 3247 0
-3247 3269 0
-412 -3247 3248 0
-3248 3270 0
-413 -3248 3249 0
-3249 3271 0
-414 -3249 3250 0
-3250 3272 0
-415 -3250 3251 0
-3251 3273 0
-416 -3251 3252 0
-3252 3274 0
-417 -3252 3253 0
-3253 3275 0
-418 -3253 3254 0
-3254 3276 0
-419 -3254 0
-398 3255 0
-3255 3277 0
-399 -3255 3256 0
-3256 3278 0
-400 -3256 3257 0
-3257 3279 0
-401 -3257 3258 0
-3258 3280 0
-402 -3258 3259 0
-3259 3281 0
-403 -3259 3260 0
-3260 3282 0
-404 -3260 3261 0
-3261 3283 0
-405 -3261 3262 0
-3262 3284 0
-406 -3262 3263 0
-3263 3285 0
-407 -3263 3264 0
-3264 3286 0
-408 -3264 3265 0
-3265 3287 0
-409 -3265 3266 0
-3266 3288 0
-410 -3266 3267 0
-3267 3289 0
-411 -3267 3268 0
-3268 3290 0
-412 -3268 3269 0
-3269 3291 0
-413 -3269 3270 0
-3270 3292 0
-414 -3270 3271 0
-3271 3293 0
-415 -3271 3272 0
-3272 3294 0
-416 -3272 3273 0
-3273 3295 0
-417 -3273 3274 0
-3274 3296 0
-418 -3274 3275 0
-3275 3297 0
-419 -3275 3276 0
-3276 3298 0
-420 -3276 0
-399 3277 0
-3277 3299 0
-400 -3277 3278 0
-3278 3300 0
-401 -3278 3279 0
-3279 3301 0
-402 -3279 3280 0
-3280 3302 0
-403 -3280 3281 0
-3281 3303 0
-404 -3281 3282 0
-3282 3304 0
-405 -3282 3283 0
-3283 3305 0
-406 -3283 3284 0
-3284 3306 0
-407 -3284 3285 0
-3285 3307 0
-408 -3285 3286 0
-3286 3308 0
-409 -3286 3287 0
-3287 3309 0
-410 -3287 3288 0
-3288 3310 0
-411 -3288 3289 0
-3289 3311 0
-412 -3289 3290 0
-3290 3312 0
-413 -3290 3291 0
-3291 3313 0
-414 -3291 3292 0
-3292 3314 0
-415 -3292 3293 0
-3293 3315 0
-416 -3293 3294 0
-3294 3316 0
-417 -3294 3295 0
-3295 3317 0
-418 -3295 3296 0
-3296 3318 0
-419 -3296 3297 0
-3297 3319 0
-420 -3297 3298 0
-3298 3320 0
-421 -3298 0
-400 3299 0
-3299 3321 0
-401 -3299 3300 0
-3300 3322 0
-402 -3300 3301 0
-3301 3323 0
-403 -3301 3302 0
-3302 3324 0
-404 -3302 3303 0
-3303 3325 0
-405 -3303 3304 0
-3304 3326 0
-406 -3304 3305 0
-3305 3327 0
-407 -3305 3306 0
-3306 3328 0
-408 -3306 3307 0
-3307 3329 0
-409 -3307 3308 0
-3308 3330 0
-410 -3308 3309 0
-3309 3331 0
-411 -3309 3310 0
-3310 3332 0
-412 -3310 3311 0
-3311 3333 0
-413 -3311 3312 0
-3312 3334 0
-414 -3312 3313 0
-3313 3335 0
-415 -3313 3314 0
-3314 3336 0
-416 -3314 3315 0
-3315 3337 0
-417 -3315 3316 0
-3316 3338 0
-418 -3316 3317 0
-3317 3339 0
-419 -3317 3318 0
-3318 3340 0
-420 -3318 3319 0
-3319 3341 0
-421 -3319 3320 0
-3320 3342 0
-422 -3320 0
-401 3321 0
-3321 3343 0
-402 -3321 3322 0
-3322 3344 0
-403 -3322 3323 0
-3323 3345 0
-404 -3323 3324 0
-3324 3346 0
-405 -3324 3325 0
-3325 3347 0
-406 -3325 3326 0
-3326 3348 0
-407 -3326 3327 0
-3327 3349 0
-408 -3327 3328 0
-3328 3350 0
-409 -3328 3329 0
-3329 3351 0
-410 -3329 3330 0
-3330 3352 0
-411 -3330 3331 0
-3331 3353 0
-412 -3331 3332 0
-3332 3354 0
-413 -3332 3333 0
-3333 3355 0
-414 -3333 3334 0
-3334 3356 0
-415 -3334 3335 0
-3335 3357 0
-416 -3335 3336 0
-3336 3358 0
-417 -3336 3337 0
-3337 3359 0
-418 -3337 3338 0
-3338 3360 0
-419 -3338 3339 0
-3339 3361 0
-420 -3339 3340 0
-3340 3362 0
-421 -3340 3341 0
-3341 3363 0
-422 -3341 3342 0
-3342 3364 0
-423 -3342 0
-402 3343 0
-3343 3365 0
-403 -3343 3344 0
-3344 3366 0
-404 -3344 3345 0
-3345 3367 0
-405 -3345 3346 0
-3346 3368 0
-406 -3346 3347 0
-3347 3369 0
-407 -3347 3348 0
-3348 3370 0
-408 -3348 3349 0
-3349 3371 0
-409 -3349 3350 0
-3350 3372 0
-410 -3350 3351 0
-3351 3373 0
-411 -3351 3352 0
-3352 3374 0
-412 -3352 3353 0
-3353 3375 0
-413 -3353 3354 0
-3354 3376 0
-414 -3354 3355 0
-3355 3377 0
-415 -3355 3356 0
-3356 3378 0
-416 -3356 3357 0
-3357 3379 0
-417 -3357 3358 0
-3358 3380 0
-418 -3358 3359 0
-3359 3381 0
-419 -3359 3360 0
-3360 3382 0
-420 -3360 3361 0
-3361 3383 0
-421 -3361 3362 0
-3362 3384 0
-422 -3362 3363 0
-3363 3385 0
-423 -3363 3364 0
-3364 3386 0
-424 -3364 0
-403 3365 0
-3365 3387 0
-404 -3365 3366 0
-3366 3388 0
-405 -3366 3367 0
-3367 3389 0
-406 -3367 3368 0
-3368 3390 0
-407 -3368 3369 0
-3369 3391 0
-408 -3369 3370 0
-3370 3392 0
-409 -3370 3371 0
-3371 3393 0
-410 -3371 3372 0
-3372 3394 0
-411 -3372 3373 0
-3373 3395 0
-412 -3373 3374 0
-3374 3396 0
-413 -3374 3375 0
-3375 3397 0
-414 -3375 3376 0
-3376 3398 0
-415 -3376 3377 0
-3377 3399 0
-416 -3377 3378 0
-3378 3400 0
-417 -3378 3379 0
-3379 3401 0
-418 -3379 3380 0
-3380 3402 0
-419 -3380 3381 0
-3381 3403 0
-420 -3381 3382 0
-3382 3404 0
-421 -3382 3383 0
-3383 3405 0
-422 -3383 3384 0
-3384 3406 0
-423 -3384 3385 0
-3385 3407 0
-424 -3385 3386 0
-3386 3408 0
-425 -3386 0
-404 3387 0
-3387 3409 0
-405 -3387 3388 0
-3388 3410 0
-406 -3388 3389 0
-3389 3411 0
-407 -3389 3390 0
-3390 3412 0
-408 -3390 3391 0
-3391 3413 0
-409 -3391 3392 0
-3392 3414 0
-410 -3392 3393 0
-3393 3415 0
-411 -3393 3394 0
-3394 3416 0
-412 -3394 3395 0
-3395 3417 0
-413 -3395 3396 0
-3396 3418 0
-414 -3396 3397 0
-3397 3419 0
-415 -3397 3398 0
-3398 3420 0
-416 -3398 3399 0
-3399 3421 0
-417 -3399 3400 0
-3400 3422 0
-418 -3400 3401 0
-3401 3423 0
-419 -3401 3402 0
-3402 3424 0
-420 -3402 3403 0
-3403 3425 0
-421 -3403 3404 0
-3404 3426 0
-422 -3404 3405 0
-3405 3427 0
-423 -3405 3406 0
-3406 3428 0
-424 -3406 3407 0
-3407 3429 0
-425 -3407 3408 0
-3408 3430 0
-426 -3408 0
-405 3409 0
-3409 3431 0
-406 -3409 3410 0
-3410 3432 0
-407 -3410 3411 0
-3411 3433 0
-408 -3411 3412 0
-3412 3434 0
-409 -3412 3413 0
-3413 3435 0
-410 -3413 3414 0
-3414 3436 0
-411 -3414 3415 0
-3415 3437 0
-412 -3415 3416 0
-3416 3438 0
-413 -3416 3417 0
-3417 3439 0
-414 -3417 3418 0
-3418 3440 0
-415 -3418 3419 0
-3419 3441 0
-416 -3419 3420 0
-3420 3442 0
-417 -3420 3421 0
-3421 3443 0
-418 -3421 3422 0
-3422 3444 0
-419 -3422 3423 0
-3423 3445 0
-420 -3423 3424 0
-3424 3446 0
-421 -3424 3425 0
-3425 3447 0
-422 -3425 3426 0
-3426 3448 0
-423 -3426 3427 0
-3427 3449 0
-424 -3427 3428 0
-3428 3450 0
-425 -3428 3429 0
-3429 3451 0
-426 -3429 3430 0
-3430 3452 0
-427 -3430 0
-406 3431 0
-3431 3453 0
-407 -3431 3432 0
-3432 3454 0
-408 -3432 3433 0
-3433 3455 0
-409 -3433 3434 0
-3434 3456 0
-410 -3434 3435 0
-3435 3457 0
-411 -3435 3436 0
-3436 3458 0
-412 -3436 3437 0
-3437 3459 0
-413 -3437 3438 0
-3438 3460 0
-414 -3438 3439 0
-3439 3461 0
-415 -3439 3440 0
-3440 3462 0
-416 -3440 3441 0
-3441 3463 0
-417 -3441 3442 0
-3442 3464 0
-418 -3442 3443 0
-3443 3465 0
-419 -3443 3444 0
-3444 3466 0
-420 -3444 3445 0
-3445 3467 0
-421 -3445 3446 0
-3446 3468 0
-422 -3446 3447 0
-3447 3469 0
-423 -3447 3448 0
-3448 3470 0
-424 -3448 3449 0
-3449 3471 0
-425 -3449 3450 0
-3450 3472 0
-426 -3450 3451 0
-3451 3473 0
-427 -3451 3452 0
-3452 3474 0
-428 -3452 0
-407 3453 0
-3453 3475 0
-408 -3453 3454 0
-3454 3476 0
-409 -3454 3455 0
-3455 3477 0
-410 -3455 3456 0
-3456 3478 0
-411 -3456 3457 0
-3457 3479 0
-412 -3457 3458 0
-3458 3480 0
-413 -3458 3459 0
-3459 3481 0
-414 -3459 3460 0
-3460 3482 0
-415 -3460 3461 0
-3461 3483 0
-416 -3461 3462 0
-3462 3484 0
-417 -3462 3463 0
-3463 3485 0
-418 -3463 3464 0
-3464 3486 0
-419 -3464 3465 0
-3465 3487 0
-420 -3465 3466 0
-3466 3488 0
-421 -3466 3467 0
-3467 3489 0
-422 -3467 3468 0
-3468 3490 0
-423 -3468 3469 0
-3469 3491 0
-424 -3469 3470 0
-3470 3492 0
-425 -3470 3471 0
-3471 3493 0
-426 -3471 3472 0
-3472 3494 0
-427 -3472 3473 0
-3473 3495 0
-428 -3473 3474 0
-3474 3496 0
-429 -3474 0
-408 3475 0
-3475 3497 0
-409 -3475 3476 0
-3476 3498 0
-410 -3476 3477 0
-3477 3499 0
-411 -3477 3478 0
-3478 3500 0
-412 -3478 3479 0
-3479 3501 0
-413 -3479 3480 0
-3480 3502 0
-414 -3480 3481 0
-3481 3503 0
-415 -3481 3482 0
-3482 3504 0
-416 -3482 3483 0
-3483 3505 0
-417 -3483 3484 0
-3484 3506 0
-418 -3484 3485 0
-3485 3507 0
-419 -3485 3486 0
-3486 3508 0
-420 -3486 3487 0
-3487 3509 0
-421 -3487 3488 0
-3488 3510 0
-422 -3488 3489 0
-3489 3511 0
-423 -3489 3490 0
-3490 3512 0
-424 -3490 3491 0
-3491 3513 0
-425 -3491 3492 0
-3492 3514 0
-426 -3492 3493 0
-3493 3515 0
-427 -3493 3494 0
-3494 3516 0
-428 -3494 3495 0
-3495 3517 0
-429 -3495 3496 0
-3496 3518 0
-430 -3496 0
-409 3497 0
-3497 3519 0
-410 -3497 3498 0
-3498 3520 0
-411 -3498 3499 0
-3499 3521 0
-412 -3499 3500 0
-3500 3522 0
-413 -3500 3501 0
-3501 3523 0
-414 -3501 3502 0
-3502 3524 0
-415 -3502 3503 0
-3503 3525 0
-416 -3503 3504 0
-3504 3526 0
-417 -3504 3505 0
-3505 3527 0
-418 -3505 3506 0
-3506 3528 0
-419 -3506 3507 0
-3507 3529 0
-420 -3507 3508 0
-3508 3530 0
-421 -3508 3509 0
-3509 3531 0
-422 -3509 3510 0
-3510 3532 0
-423 -3510 3511 0
-3511 3533 0
-424 -3511 3512 0
-3512 3534 0
-425 -3512 3513 0
-3513 3535 0
-426 -3513 3514 0
-3514 3536 0
-427 -3514 3515 0
-3515 3537 0
-428 -3515 3516 0
-3516 3538 0
-429 -3516 3517 0
-3517 3539 0
-430 -3517 3518 0
-3518 3540 0
-431 -3518 0
-410 3519 0
-3519 3541 0
-411 -3519 3520 0
-3520 3542 0
-412 -3520 3521 0
-3521 3543 0
-413 -3521 3522 0
-3522 3544 0
-414 -3522 3523 0
-3523 3545 0
-415 -3523 3524 0
-3524 3546 0
-416 -3524 3525 0
-3525 3547 0
-417 -3525 3526 0
-3526 3548 0
-418 -3526 3527 0
-3527 3549 0
-419 -3527 3528 0
-3528 3550 0
-420 -3528 3529 0
-3529 3551 0
-421 -3529 3530 0
-3530 3552 0
-422 -3530 3531 0
-3531 3553 0
-423 -3531 3532 0
-3532 3554 0
-424 -3532 3533 0
-3533 3555 0
-425 -3533 3534 0
-3534 3556 0
-426 -3534 3535 0
-3535 3557 0
-427 -3535 3536 0
-3536 3558 0
-428 -3536 3537 0
-3537 3559 0
-429 -3537 3538 0
-3538 3560 0
-430 -3538 3539 0
-3539 3561 0
-431 -3539 3540 0
-3540 3562 0
-432 -3540 0
-411 3541 0
-3541 3563 0
-412 -3541 3542 0
-3542 3564 0
-413 -3542 3543 0
-3543 3565 0
-414 -3543 3544 0
-3544 3566 0
-415 -3544 3545 0
-3545 3567 0
-416 -3545 3546 0
-3546 3568 0
-417 -3546 3547 0
-3547 3569 0
-418 -3547 3548 0
-3548 3570 0
-419 -3548 3549 0
-3549 3571 0
-420 -3549 3550 0
-3550 3572 0
-421 -3550 3551 0
-3551 3573 0
-422 -3551 3552 0
-3552 3574 0
-423 -3552 3553 0
-3553 3575 0
-424 -3553 3554 0
-3554 3576 0
-425 -3554 3555 0
-3555 3577 0
-426 -3555 3556 0
-3556 3578 0
-427 -3556 3557 0
-3557 3579 0
-428 -3557 3558 0
-3558 3580 0
-429 -3558 3559 0
-3559 3581 0
-430 -3559 3560 0
-3560 3582 0
-431 -3560 3561 0
-3561 3583 0
-432 -3561 3562 0
-3562 3584 0
-433 -3562 0
-412 3563 0
-3563 3585 0
-413 -3563 3564 0
-3564 3586 0
-414 -3564 3565 0
-3565 3587 0
-415 -3565 3566 0
-3566 3588 0
-416 -3566 3567 0
-3567 3589 0
-417 -3567 3568 0
-3568 3590 0
-418 -3568 3569 0
-3569 3591 0
-419 -3569 3570 0
-3570 3592 0
-420 -3570 3571 0
-3571 3593 0
-421 -3571 3572 0
-3572 3594 0
-422 -3572 3573 0
-3573 3595 0
-423 -3573 3574 0
-3574 3596 0
-424 -3574 3575 0
-3575 3597 0
-425 -3575 3576 0
-3576 3598 0
-426 -3576 3577 0
-3577 3599 0
-427 -3577 3578 0
-3578 3600 0
-428 -3578 3579 0
-3579 3601 0
-429 -3579 3580 0
-3580 3602 0
-430 -3580 3581 0
-3581 3603 0
-431 -3581 3582 0
-3582 3604 0
-432 -3582 3583 0
-3583 3605 0
-433 -3583 3584 0
-3584 3606 0
-434 -3584 0
-413 3585 0
-3585 3607 0
-414 -3585 3586 0
-3586 3608 0
-415 -3586 3587 0
-3587 3609 0
-416 -3587 3588 0
-3588 3610 0
-417 -3588 3589 0
-3589 3611 0
-418 -3589 3590 0
-3590 3612 0
-419 -3590 3591 0
-3591 3613 0
-420 -3591 3592 0
-3592 3614 0
-421 -3592 3593 0
-3593 3615 0
-422 -3593 3594 0
-3594 3616 0
-423 -3594 3595 0
-3595 3617 0
-424 -3595 3596 0
-3596 3618 0
-425 -3596 3597 0
-3597 3619 0
-426 -3597 3598 0
-3598 3620 0
-427 -3598 3599 0
-3599 3621 0
-428 -3599 3600 0
-3600 3622 0
-429 -3600 3601 0
-3601 3623 0
-430 -3601 3602 0
-3602 3624 0
-431 -3602 3603 0
-3603 3625 0
-432 -3603 3604 0
-3604 3626 0
-433 -3604 3605 0
-3605 3627 0
-434 -3605 3606 0
-3606 3628 0
-435 -3606 0
-414 3607 0
-3607 3629 0
-415 -3607 3608 0
-3608 3630 0
-416 -3608 3609 0
-3609 3631 0
-417 -3609 3610 0
-3610 3632 0
-418 -3610 3611 0
-3611 3633 0
-419 -3611 3612 0
-3612 3634 0
-420 -3612 3613 0
-3613 3635 0
-421 -3613 3614 0
-3614 3636 0
-422 -3614 3615 0
-3615 3637 0
-423 -3615 3616 0
-3616 3638 0
-424 -3616 3617 0
-3617 3639 0
-425 -3617 3618 0
-3618 3640 0
-426 -3618 3619 0
-3619 3641 0
-427 -3619 3620 0
-3620 3642 0
-428 -3620 3621 0
-3621 3643 0
-429 -3621 3622 0
-3622 3644 0
-430 -3622 3623 0
-3623 3645 0
-431 -3623 3624 0
-3624 3646 0
-432 -3624 3625 0
-3625 3647 0
-433 -3625 3626 0
-3626 3648 0
-434 -3626 3627 0
-3627 3649 0
-435 -3627 3628 0
-3628 3650 0
-436 -3628 0
-415 3629 0
-3629 3651 0
-416 -3629 3630 0
-3630 3652 0
-417 -3630 3631 0
-3631 3653 0
-418 -3631 3632 0
-3632 3654 0
-419 -3632 3633 0
-3633 3655 0
-420 -3633 3634 0
-3634 3656 0
-421 -3634 3635 0
-3635 3657 0
-422 -3635 3636 0
-3636 3658 0
-423 -3636 3637 0
-3637 3659 0
-424 -3637 3638 0
-3638 3660 0
-425 -3638 3639 0
-3639 3661 0
-426 -3639 3640 0
-3640 3662 0
-427 -3640 3641 0
-3641 3663 0
-428 -3641 3642 0
-3642 3664 0
-429 -3642 3643 0
-3643 3665 0
-430 -3643 3644 0
-3644 3666 0
-431 -3644 3645 0
-3645 3667 0
-432 -3645 3646 0
-3646 3668 0
-433 -3646 3647 0
-3647 3669 0
-434 -3647 3648 0
-3648 3670 0
-435 -3648 3649 0
-3649 3671 0
-436 -3649 3650 0
-3650 3672 0
-437 -3650 0
-416 3651 0
-3651 3673 0
-417 -3651 3652 0
-3652 3674 0
-418 -3652 3653 0
-3653 3675 0
-419 -3653 3654 0
-3654 3676 0
-420 -3654 3655 0
-3655 3677 0
-421 -3655 3656 0
-3656 3678 0
-422 -3656 3657 0
-3657 3679 0
-423 -3657 3658 0
-3658 3680 0
-424 -3658 3659 0
-3659 3681 0
-425 -3659 3660 0
-3660 3682 0
-426 -3660 3661 0
-3661 3683 0
-427 -3661 3662 0
-3662 3684 0
-428 -3662 3663 0
-3663 3685 0
-429 -3663 3664 0
-3664 3686 0
-430 -3664 3665 0
-3665 3687 0
-431 -3665 3666 0
-3666 3688 0
-432 -3666 3667 0
-3667 3689 0
-433 -3667 3668 0
-3668 3690 0
-434 -3668 3669 0
-3669 3691 0
-435 -3669 3670 0
-3670 3692 0
-436 -3670 3671 0
-3671 3693 0
-437 -3671 3672 0
-3672 3694 0
-438 -3672 0
-417 3673 0
-3673 3695 0
-418 -3673 3674 0
-3674 3696 0
-419 -3674 3675 0
-3675 3697 0
-420 -3675 3676 0
-3676 3698 0
-421 -3676 3677 0
-3677 3699 0
-422 -3677 3678 0
-3678 3700 0
-423 -3678 3679 0
-3679 3701 0
-424 -3679 3680 0
-3680 3702 0
-425 -3680 3681 0
-3681 3703 0
-426 -3681 3682 0
-3682 3704 0
-427 -3682 3683 0
-3683 3705 0
-428 -3683 3684 0
-3684 3706 0
-429 -3684 3685 0
-3685 3707 0
-430 -3685 3686 0
-3686 3708 0
-431 -3686 3687 0
-3687 3709 0
-432 -3687 3688 0
-3688 3710 0
-433 -3688 3689 0
-3689 3711 0
-434 -3689 3690 0
-3690 3712 0
-435 -3690 3691 0
-3691 3713 0
-436 -3691 3692 0
-3692 3714 0
-437 -3692 3693 0
-3693 3715 0
-438 -3693 3694 0
-3694 3716 0
-439 -3694 0
-418 3695 0
-3695 3717 0
-419 -3695 3696 0
-3696 3718 0
-420 -3696 3697 0
-3697 3719 0
-421 -3697 3698 0
-3698 3720 0
-422 -3698 3699 0
-3699 3721 0
-423 -3699 3700 0
-3700 3722 0
-424 -3700 3701 0
-3701 3723 0
-425 -3701 3702 0
-3702 3724 0
-426 -3702 3703 0
-3703 3725 0
-427 -3703 3704 0
-3704 3726 0
-428 -3704 3705 0
-3705 3727 0
-429 -3705 3706 0
-3706 3728 0
-430 -3706 3707 0
-3707 3729 0
-431 -3707 3708 0
-3708 3730 0
-432 -3708 3709 0
-3709 3731 0
-433 -3709 3710 0
-3710 3732 0
-434 -3710 3711 0
-3711 3733 0
-435 -3711 3712 0
-3712 3734 0
-436 -3712 3713 0
-3713 3735 0
-437 -3713 3714 0
-3714 3736 0
-438 -3714 3715 0
-3715 3737 0
-439 -3715 3716 0
-3716 3738 0
-440 -3716 0
-419 3717 0
-3717 3739 0
-420 -3717 3718 0
-3718 3740 0
-421 -3718 3719 0
-3719 3741 0
-422 -3719 3720 0
-3720 3742 0
-423 -3720 3721 0
-3721 3743 0
-424 -3721 3722 0
-3722 3744 0
-425 -3722 3723 0
-3723 3745 0
-426 -3723 3724 0
-3724 3746 0
-427 -3724 3725 0
-3725 3747 0
-428 -3725 3726 0
-3726 3748 0
-429 -3726 3727 0
-3727 3749 0
-430 -3727 3728 0
-3728 3750 0
-431 -3728 3729 0
-3729 3751 0
-432 -3729 3730 0
-3730 3752 0
-433 -3730 3731 0
-3731 3753 0
-434 -3731 3732 0
-3732 3754 0
-435 -3732 3733 0
-3733 3755 0
-436 -3733 3734 0
-3734 3756 0
-437 -3734 3735 0
-3735 3757 0
-438 -3735 3736 0
-3736 3758 0
-439 -3736 3737 0
-3737 3759 0
-440 -3737 3738 0
-3738 3760 0
-441 -3738 0
-420 3739 0
-3739 3761 0
-421 -3739 3740 0
-3740 3762 0
-422 -3740 3741 0
-3741 3763 0
-423 -3741 3742 0
-3742 3764 0
-424 -3742 3743 0
-3743 3765 0
-425 -3743 3744 0
-3744 3766 0
-426 -3744 3745 0
-3745 3767 0
-427 -3745 3746 0
-3746 3768 0
-428 -3746 3747 0
-3747 3769 0
-429 -3747 3748 0
-3748 3770 0
-430 -3748 3749 0
-3749 3771 0
-431 -3749 3750 0
-3750 3772 0
-432 -3750 3751 0
-3751 3773 0
-433 -3751 3752 0
-3752 3774 0
-434 -3752 3753 0
-3753 3775 0
-435 -3753 3754 0
-3754 3776 0
-436 -3754 3755 0
-3755 3777 0
-437 -3755 3756 0
-3756 3778 0
-438 -3756 3757 0
-3757 3779 0
-439 -3757 3758 0
-3758 3780 0
-440 -3758 3759 0
-3759 3781 0
-441 -3759 3760 0
-3760 3782 0
-442 -3760 0
-421 3761 0
-3761 3783 0
-422 -3761 3762 0
-3762 3784 0
-423 -3762 3763 0
-3763 3785 0
-424 -3763 3764 0
-3764 3786 0
-425 -3764 3765 0
-3765 3787 0
-426 -3765 3766 0
-3766 3788 0
-427 -3766 3767 0
-3767 3789 0
-428 -3767 3768 0
-3768 3790 0
-429 -3768 3769 0
-3769 3791 0
-430 -3769 3770 0
-3770 3792 0
-431 -3770 3771 0
-3771 3793 0
-432 -3771 3772 0
-3772 3794 0
-433 -3772 3773 0
-3773 3795 0
-434 -3773 3774 0
-3774 3796 0
-435 -3774 3775 0
-3775 3797 0
-436 -3775 3776 0
-3776 3798 0
-437 -3776 3777 0
-3777 3799 0
-438 -3777 3778 0
-3778 3800 0
-439 -3778 3779 0
-3779 3801 0
-440 -3779 3780 0
-3780 3802 0
-441 -3780 3781 0
-3781 3803 0
-442 -3781 3782 0
-3782 3804 0
-443 -3782 0
-422 3783 0
-3783 3805 0
-423 -3783 3784 0
-3784 3806 0
-424 -3784 3785 0
-3785 3807 0
-425 -3785 3786 0
-3786 3808 0
-426 -3786 3787 0
-3787 3809 0
-427 -3787 3788 0
-3788 3810 0
-428 -3788 3789 0
-3789 3811 0
-429 -3789 3790 0
-3790 3812 0
-430 -3790 3791 0
-3791 3813 0
-431 -3791 3792 0
-3792 3814 0
-432 -3792 3793 0
-3793 3815 0
-433 -3793 3794 0
-3794 3816 0
-434 -3794 3795 0
-3795 3817 0
-435 -3795 3796 0
-3796 3818 0
-436 -3796 3797 0
-3797 3819 0
-437 -3797 3798 0
-3798 3820 0
-438 -3798 3799 0
-3799 3821 0
-439 -3799 3800 0
-3800 3822 0
-440 -3800 3801 0
-3801 3823 0
-441 -3801 3802 0
-3802 3824 0
-442 -3802 3803 0
-3803 3825 0
-443 -3803 3804 0
-3804 3826 0
-444 -3804 0
-423 3805 0
-3805 3827 0
-424 -3805 3806 0
-3806 3828 0
-425 -3806 3807 0
-3807 3829 0
-426 -3807 3808 0
-3808 3830 0
-427 -3808 3809 0
-3809 3831 0
-428 -3809 3810 0
-3810 3832 0
-429 -3810 3811 0
-3811 3833 0
-430 -3811 3812 0
-3812 3834 0
-431 -3812 3813 0
-3813 3835 0
-432 -3813 3814 0
-3814 3836 0
-433 -3814 3815 0
-3815 3837 0
-434 -3815 3816 0
-3816 3838 0
-435 -3816 3817 0
-3817 3839 0
-436 -3817 3818 0
-3818 3840 0
-437 -3818 3819 0
-3819 3841 0
-438 -3819 3820 0
-3820 3842 0
-439 -3820 3821 0
-3821 3843 0
-440 -3821 3822 0
-3822 3844 0
-441 -3822 3823 0
-3823 3845 0
-442 -3823 3824 0
-3824 3846 0
-443 -3824 3825 0
-3825 3847 0
-444 -3825 3826 0
-3826 3848 0
-445 -3826 0
-424 3827 0
-3827 3849 0
-425 -3827 3828 0
-3828 3850 0
-426 -3828 3829 0
-3829 3851 0
-427 -3829 3830 0
-3830 3852 0
-428 -3830 3831 0
-3831 3853 0
-429 -3831 3832 0
-3832 3854 0
-430 -3832 3833 0
-3833 3855 0
-431 -3833 3834 0
-3834 3856 0
-432 -3834 3835 0
-3835 3857 0
-433 -3835 3836 0
-3836 3858 0
-434 -3836 3837 0
-3837 3859 0
-435 -3837 3838 0
-3838 3860 0
-436 -3838 3839 0
-3839 3861 0
-437 -3839 3840 0
-3840 3862 0
-438 -3840 3841 0
-3841 3863 0
-439 -3841 3842 0
-3842 3864 0
-440 -3842 3843 0
-3843 3865 0
-441 -3843 3844 0
-3844 3866 0
-442 -3844 3845 0
-3845 3867 0
-443 -3845 3846 0
-3846 3868 0
-444 -3846 3847 0
-3847 3869 0
-445 -3847 3848 0
-3848 3870 0
-446 -3848 0
-425 3849 0
-3849 3871 0
-426 -3849 3850 0
-3850 3872 0
-427 -3850 3851 0
-3851 3873 0
-428 -3851 3852 0
-3852 3874 0
-429 -3852 3853 0
-3853 3875 0
-430 -3853 3854 0
-3854 3876 0
-431 -3854 3855 0
-3855 3877 0
-432 -3855 3856 0
-3856 3878 0
-433 -3856 3857 0
-3857 3879 0
-434 -3857 3858 0
-3858 3880 0
-435 -3858 3859 0
-3859 3881 0
-436 -3859 3860 0
-3860 3882 0
-437 -3860 3861 0
-3861 3883 0
-438 -3861 3862 0
-3862 3884 0
-439 -3862 3863 0
-3863 3885 0
-440 -3863 3864 0
-3864 3886 0
-441 -3864 3865 0
-3865 3887 0
-442 -3865 3866 0
-3866 3888 0
-443 -3866 3867 0
-3867 3889 0
-444 -3867 3868 0
-3868 3890 0
-445 -3868 3869 0
-3869 3891 0
-446 -3869 3870 0
-3870 3892 0
-447 -3870 0
-426 3871 0
-3871 3893 0
-427 -3871 3872 0
-3872 3894 0
-428 -3872 3873 0
-3873 3895 0
-429 -3873 3874 0
-3874 3896 0
-430 -3874 3875 0
-3875 3897 0
-431 -3875 3876 0
-3876 3898 0
-432 -3876 3877 0
-3877 3899 0
-433 -3877 3878 0
-3878 3900 0
-434 -3878 3879 0
-3879 3901 0
-435 -3879 3880 0
-3880 3902 0
-436 -3880 3881 0
-3881 3903 0
-437 -3881 3882 0
-3882 3904 0
-438 -3882 3883 0
-3883 3905 0
-439 -3883 3884 0
-3884 3906 0
-440 -3884 3885 0
-3885 3907 0
-441 -3885 3886 0
-3886 3908 0
-442 -3886 3887 0
-3887 3909 0
-443 -3887 3888 0
-3888 3910 0
-444 -3888 3889 0
-3889 3911 0
-445 -3889 3890 0
-3890 3912 0
-446 -3890 3891 0
-3891 3913 0
-447 -3891 3892 0
-3892 3914 0
-448 -3892 0
-427 3893 0
-3893 3915 0
-428 -3893 3894 0
-3894 3916 0
-429 -3894 3895 0
-3895 3917 0
-430 -3895 3896 0
-3896 3918 0
-431 -3896 3897 0
-3897 3919 0
-432 -3897 3898 0
-3898 3920 0
-433 -3898 3899 0
-3899 3921 0
-434 -3899 3900 0
-3900 3922 0
-435 -3900 3901 0
-3901 3923 0
-436 -3901 3902 0
-3902 3924 0
-437 -3902 3903 0
-3903 3925 0
-438 -3903 3904 0
-3904 3926 0
-439 -3904 3905 0
-3905 3927 0
-440 -3905 3906 0
-3906 3928 0
-441 -3906 3907 0
-3907 3929 0
-442 -3907 3908 0
-3908 3930 0
-443 -3908 3909 0
-3909 3931 0
-444 -3909 3910 0
-3910 3932 0
-445 -3910 3911 0
-3911 3933 0
-446 -3911 3912 0
-3912 3934 0
-447 -3912 3913 0
-3913 3935 0
-448 -3913 3914 0
-3914 3936 0
-449 -3914 0
-428 3915 0
-3915 3937 0
-429 -3915 3916 0
-3916 3938 0
-430 -3916 3917 0
-3917 3939 0
-431 -3917 3918 0
-3918 3940 0
-432 -3918 3919 0
-3919 3941 0
-433 -3919 3920 0
-3920 3942 0
-434 -3920 3921 0
-3921 3943 0
-435 -3921 3922 0
-3922 3944 0
-436 -3922 3923 0
-3923 3945 0
-437 -3923 3924 0
-3924 3946 0
-438 -3924 3925 0
-3925 3947 0
-439 -3925 3926 0
-3926 3948 0
-440 -3926 3927 0
-3927 3949 0
-441 -3927 3928 0
-3928 3950 0
-442 -3928 3929 0
-3929 3951 0
-443 -3929 3930 0
-3930 3952 0
-444 -3930 3931 0
-3931 3953 0
-445 -3931 3932 0
-3932 3954 0
-446 -3932 3933 0
-3933 3955 0
-447 -3933 3934 0
-3934 3956 0
-448 -3934 3935 0
-3935 3957 0
-449 -3935 3936 0
-3936 3958 0
-450 -3936 0
-429 3937 0
-3937 3959 0
-430 -3937 3938 0
-3938 3960 0
-431 -3938 3939 0
-3939 3961 0
-432 -3939 3940 0
-3940 3962 0
-433 -3940 3941 0
-3941 3963 0
-434 -3941 3942 0
-3942 3964 0
-435 -3942 3943 0
-3943 3965 0
-436 -3943 3944 0
-3944 3966 0
-437 -3944 3945 0
-3945 3967 0
-438 -3945 3946 0
-3946 3968 0
-439 -3946 3947 0
-3947 3969 0
-440 -3947 3948 0
-3948 3970 0
-441 -3948 3949 0
-3949 3971 0
-442 -3949 3950 0
-3950 3972 0
-443 -3950 3951 0
-3951 3973 0
-444 -3951 3952 0
-3952 3974 0
-445 -3952 3953 0
-3953 3975 0
-446 -3953 3954 0
-3954 3976 0
-447 -3954 3955 0
-3955 3977 0
-448 -3955 3956 0
-3956 3978 0
-449 -3956 3957 0
-3957 3979 0
-450 -3957 3958 0
-3958 3980 0
-451 -3958 0
-430 3959 0
-3959 3981 0
-431 -3959 3960 0
-3960 3982 0
-432 -3960 3961 0
-3961 3983 0
-433 -3961 3962 0
-3962 3984 0
-434 -3962 3963 0
-3963 3985 0
-435 -3963 3964 0
-3964 3986 0
-436 -3964 3965 0
-3965 3987 0
-437 -3965 3966 0
-3966 3988 0
-438 -3966 3967 0
-3967 3989 0
-439 -3967 3968 0
-3968 3990 0
-440 -3968 3969 0
-3969 3991 0
-441 -3969 3970 0
-3970 3992 0
-442 -3970 3971 0
-3971 3993 0
-443 -3971 3972 0
-3972 3994 0
-444 -3972 3973 0
-3973 3995 0
-445 -3973 3974 0
-3974 3996 0
-446 -3974 3975 0
-3975 3997 0
-447 -3975 3976 0
-3976 3998 0
-448 -3976 3977 0
-3977 3999 0
-449 -3977 3978 0
-3978 4000 0
-450 -3978 3979 0
-3979 4001 0
-451 -3979 3980 0
-3980 4002 0
-452 -3980 0
-431 3981 0
-3981 4003 0
-432 -3981 3982 0
-3982 4004 0
-433 -3982 3983 0
-3983 4005 0
-434 -3983 3984 0
-3984 4006 0
-435 -3984 3985 0
-3985 4007 0
-436 -3985 3986 0
-3986 4008 0
-437 -3986 3987 0
-3987 4009 0
-438 -3987 3988 0
-3988 4010 0
-439 -3988 3989 0
-3989 4011 0
-440 -3989 3990 0
-3990 4012 0
-441 -3990 3991 0
-3991 4013 0
-442 -3991 3992 0
-3992 4014 0
-443 -3992 3993 0
-3993 4015 0
-444 -3993 3994 0
-3994 4016 0
-445 -3994 3995 0
-3995 4017 0
-446 -3995 3996 0
-3996 4018 0
-447 -3996 3997 0
-3997 4019 0
-448 -3997 3998 0
-3998 4020 0
-449 -3998 3999 0
-3999 4021 0
-450 -3999 4000 0
-4000 4022 0
-451 -4000 4001 0
-4001 4023 0
-452 -4001 4002 0
-4002 4024 0
-453 -4002 0
-432 4003 0
-4003 4025 0
-433 -4003 4004 0
-4004 4026 0
-434 -4004 4005 0
-4005 4027 0
-435 -4005 4006 0
-4006 4028 0
-436 -4006 4007 0
-4007 4029 0
-437 -4007 4008 0
-4008 4030 0
-438 -4008 4009 0
-4009 4031 0
-439 -4009 4010 0
-4010 4032 0
-440 -4010 4011 0
-4011 4033 0
-441 -4011 4012 0
-4012 4034 0
-442 -4012 4013 0
-4013 4035 0
-443 -4013 4014 0
-4014 4036 0
-444 -4014 4015 0
-4015 4037 0
-445 -4015 4016 0
-4016 4038 0
-446 -4016 4017 0
-4017 4039 0
-447 -4017 4018 0
-4018 4040 0
-448 -4018 4019 0
-4019 4041 0
-449 -4019 4020 0
-4020 4042 0
-450 -4020 4021 0
-4021 4043 0
-451 -4021 4022 0
-4022 4044 0
-452 -4022 4023 0
-4023 4045 0
-453 -4023 4024 0
-4024 4046 0
-454 -4024 0
-433 4025 0
-4025 4047 0
-434 -4025 4026 0
-4026 4048 0
-435 -4026 4027 0
-4027 4049 0
-436 -4027 4028 0
-4028 4050 0
-437 -4028 4029 0
-4029 4051 0
-438 -4029 4030 0
-4030 4052 0
-439 -4030 4031 0
-4031 4053 0
-440 -4031 4032 0
-4032 4054 0
-441 -4032 4033 0
-4033 4055 0
-442 -4033 4034 0
-4034 4056 0
-443 -4034 4035 0
-4035 4057 0
-444 -4035 4036 0
-4036 4058 0
-445 -4036 4037 0
-4037 4059 0
-446 -4037 4038 0
-4038 4060 0
-447 -4038 4039 0
-4039 4061 0
-448 -4039 4040 0
-4040 4062 0
-449 -4040 4041 0
-4041 4063 0
-450 -4041 4042 0
-4042 4064 0
-451 -4042 4043 0
-4043 4065 0
-452 -4043 4044 0
-4044 4066 0
-453 -4044 4045 0
-4045 4067 0
-454 -4045 4046 0
-4046 4068 0
-455 -4046 0
-434 4047 0
-4047 4069 0
-435 -4047 4048 0
-4048 4070 0
-436 -4048 4049 0
-4049 4071 0
-437 -4049 4050 0
-4050 4072 0
-438 -4050 4051 0
-4051 4073 0
-439 -4051 4052 0
-4052 4074 0
-440 -4052 4053 0
-4053 4075 0
-441 -4053 4054 0
-4054 4076 0
-442 -4054 4055 0
-4055 4077 0
-443 -4055 4056 0
-4056 4078 0
-444 -4056 4057 0
-4057 4079 0
-445 -4057 4058 0
-4058 4080 0
-446 -4058 4059 0
-4059 4081 0
-447 -4059 4060 0
-4060 4082 0
-448 -4060 4061 0
-4061 4083 0
-449 -4061 4062 0
-4062 4084 0
-450 -4062 4063 0
-4063 4085 0
-451 -4063 4064 0
-4064 4086 0
-452 -4064 4065 0
-4065 4087 0
-453 -4065 4066 0
-4066 4088 0
-454 -4066 4067 0
-4067 4089 0
-455 -4067 4068 0
-4068 4090 0
-456 -4068 0
-435 4069 0
-4069 4091 0
-436 -4069 4070 0
-4070 4092 0
-437 -4070 4071 0
-4071 4093 0
-438 -4071 4072 0
-4072 4094 0
-439 -4072 4073 0
-4073 4095 0
-440 -4073 4074 0
-4074 4096 0
-441 -4074 4075 0
-4075 4097 0
-442 -4075 4076 0
-4076 4098 0
-443 -4076 4077 0
-4077 4099 0
-444 -4077 4078 0
-4078 4100 0
-445 -4078 4079 0
-4079 4101 0
-446 -4079 4080 0
-4080 4102 0
-447 -4080 4081 0
-4081 4103 0
-448 -4081 4082 0
-4082 4104 0
-449 -4082 4083 0
-4083 4105 0
-450 -4083 4084 0
-4084 4106 0
-451 -4084 4085 0
-4085 4107 0
-452 -4085 4086 0
-4086 4108 0
-453 -4086 4087 0
-4087 4109 0
-454 -4087 4088 0
-4088 4110 0
-455 -4088 4089 0
-4089 4111 0
-456 -4089 4090 0
-4090 4112 0
-457 -4090 0
-436 4091 0
-4091 4113 0
-437 -4091 4092 0
-4092 4114 0
-438 -4092 4093 0
-4093 4115 0
-439 -4093 4094 0
-4094 4116 0
-440 -4094 4095 0
-4095 4117 0
-441 -4095 4096 0
-4096 4118 0
-442 -4096 4097 0
-4097 4119 0
-443 -4097 4098 0
-4098 4120 0
-444 -4098 4099 0
-4099 4121 0
-445 -4099 4100 0
-4100 4122 0
-446 -4100 4101 0
-4101 4123 0
-447 -4101 4102 0
-4102 4124 0
-448 -4102 4103 0
-4103 4125 0
-449 -4103 4104 0
-4104 4126 0
-450 -4104 4105 0
-4105 4127 0
-451 -4105 4106 0
-4106 4128 0
-452 -4106 4107 0
-4107 4129 0
-453 -4107 4108 0
-4108 4130 0
-454 -4108 4109 0
-4109 4131 0
-455 -4109 4110 0
-4110 4132 0
-456 -4110 4111 0
-4111 4133 0
-457 -4111 4112 0
-4112 4134 0
-458 -4112 0
-437 4113 0
-4113 4135 0
-438 -4113 4114 0
-4114 4136 0
-439 -4114 4115 0
-4115 4137 0
-440 -4115 4116 0
-4116 4138 0
-441 -4116 4117 0
-4117 4139 0
-442 -4117 4118 0
-4118 4140 0
-443 -4118 4119 0
-4119 4141 0
-444 -4119 4120 0
-4120 4142 0
-445 -4120 4121 0
-4121 4143 0
-446 -4121 4122 0
-4122 4144 0
-447 -4122 4123 0
-4123 4145 0
-448 -4123 4124 0
-4124 4146 0
-449 -4124 4125 0
-4125 4147 0
-450 -4125 4126 0
-4126 4148 0
-451 -4126 4127 0
-4127 4149 0
-452 -4127 4128 0
-4128 4150 0
-453 -4128 4129 0
-4129 4151 0
-454 -4129 4130 0
-4130 4152 0
-455 -4130 4131 0
-4131 4153 0
-456 -4131 4132 0
-4132 4154 0
-457 -4132 4133 0
-4133 4155 0
-458 -4133 4134 0
-4134 4156 0
-459 -4134 0
-438 4135 0
-4135 4157 0
-439 -4135 4136 0
-4136 4158 0
-440 -4136 4137 0
-4137 4159 0
-441 -4137 4138 0
-4138 4160 0
-442 -4138 4139 0
-4139 4161 0
-443 -4139 4140 0
-4140 4162 0
-444 -4140 4141 0
-4141 4163 0
-445 -4141 4142 0
-4142 4164 0
-446 -4142 4143 0
-4143 4165 0
-447 -4143 4144 0
-4144 4166 0
-448 -4144 4145 0
-4145 4167 0
-449 -4145 4146 0
-4146 4168 0
-450 -4146 4147 0
-4147 4169 0
-451 -4147 4148 0
-4148 4170 0
-452 -4148 4149 0
-4149 4171 0
-453 -4149 4150 0
-4150 4172 0
-454 -4150 4151 0
-4151 4173 0
-455 -4151 4152 0
-4152 4174 0
-456 -4152 4153 0
-4153 4175 0
-457 -4153 4154 0
-4154 4176 0
-458 -4154 4155 0
-4155 4177 0
-459 -4155 4156 0
-4156 4178 0
-460 -4156 0
-439 4157 0
-4157 4179 0
-440 -4157 4158 0
-4158 4180 0
-441 -4158 4159 0
-4159 4181 0
-442 -4159 4160 0
-4160 4182 0
-443 -4160 4161 0
-4161 4183 0
-444 -4161 4162 0
-4162 4184 0
-445 -4162 4163 0
-4163 4185 0
-446 -4163 4164 0
-4164 4186 0
-447 -4164 4165 0
-4165 4187 0
-448 -4165 4166 0
-4166 4188 0
-449 -4166 4167 0
-4167 4189 0
-450 -4167 4168 0
-4168 4190 0
-451 -4168 4169 0
-4169 4191 0
-452 -4169 4170 0
-4170 4192 0
-453 -4170 4171 0
-4171 4193 0
-454 -4171 4172 0
-4172 4194 0
-455 -4172 4173 0
-4173 4195 0
-456 -4173 4174 0
-4174 4196 0
-457 -4174 4175 0
-4175 4197 0
-458 -4175 4176 0
-4176 4198 0
-459 -4176 4177 0
-4177 4199 0
-460 -4177 4178 0
-4178 4200 0
-461 -4178 0
-440 4179 0
-4179 4201 0
-441 -4179 4180 0
-4180 4202 0
-442 -4180 4181 0
-4181 4203 0
-443 -4181 4182 0
-4182 4204 0
-444 -4182 4183 0
-4183 4205 0
-445 -4183 4184 0
-4184 4206 0
-446 -4184 4185 0
-4185 4207 0
-447 -4185 4186 0
-4186 4208 0
-448 -4186 4187 0
-4187 4209 0
-449 -4187 4188 0
-4188 4210 0
-450 -4188 4189 0
-4189 4211 0
-451 -4189 4190 0
-4190 4212 0
-452 -4190 4191 0
-4191 4213 0
-453 -4191 4192 0
-4192 4214 0
-454 -4192 4193 0
-4193 4215 0
-455 -4193 4194 0
-4194 4216 0
-456 -4194 4195 0
-4195 4217 0
-457 -4195 4196 0
-4196 4218 0
-458 -4196 4197 0
-4197 4219 0
-459 -4197 4198 0
-4198 4220 0
-460 -4198 4199 0
-4199 4221 0
-461 -4199 4200 0
-4200 4222 0
-462 -4200 0
-441 4201 0
-4201 4223 0
-442 -4201 4202 0
-4202 4224 0
-443 -4202 4203 0
-4203 4225 0
-444 -4203 4204 0
-4204 4226 0
-445 -4204 4205 0
-4205 4227 0
-446 -4205 4206 0
-4206 4228 0
-447 -4206 4207 0
-4207 4229 0
-448 -4207 4208 0
-4208 4230 0
-449 -4208 4209 0
-4209 4231 0
-450 -4209 4210 0
-4210 4232 0
-451 -4210 4211 0
-4211 4233 0
-452 -4211 4212 0
-4212 4234 0
-453 -4212 4213 0
-4213 4235 0
-454 -4213 4214 0
-4214 4236 0
-455 -4214 4215 0
-4215 4237 0
-456 -4215 4216 0
-4216 4238 0
-457 -4216 4217 0
-4217 4239 0
-458 -4217 4218 0
-4218 4240 0
-459 -4218 4219 0
-4219 4241 0
-460 -4219 4220 0
-4220 4242 0
-461 -4220 4221 0
-4221 4243 0
-462 -4221 4222 0
-4222 4244 0
-463 -4222 0
-442 4223 0
-4223 4245 0
-443 -4223 4224 0
-4224 4246 0
-444 -4224 4225 0
-4225 4247 0
-445 -4225 4226 0
-4226 4248 0
-446 -4226 4227 0
-4227 4249 0
-447 -4227 4228 0
-4228 4250 0
-448 -4228 4229 0
-4229 4251 0
-449 -4229 4230 0
-4230 4252 0
-450 -4230 4231 0
-4231 4253 0
-451 -4231 4232 0
-4232 4254 0
-452 -4232 4233 0
-4233 4255 0
-453 -4233 4234 0
-4234 4256 0
-454 -4234 4235 0
-4235 4257 0
-455 -4235 4236 0
-4236 4258 0
-456 -4236 4237 0
-4237 4259 0
-457 -4237 4238 0
-4238 4260 0
-458 -4238 4239 0
-4239 4261 0
-459 -4239 4240 0
-4240 4262 0
-460 -4240 4241 0
-4241 4263 0
-461 -4241 4242 0
-4242 4264 0
-462 -4242 4243 0
-4243 4265 0
-463 -4243 4244 0
-4244 4266 0
-464 -4244 0
-443 4245 0
-4245 4267 0
-444 -4245 4246 0
-4246 4268 0
-445 -4246 4247 0
-4247 4269 0
-446 -4247 4248 0
-4248 4270 0
-447 -4248 4249 0
-4249 4271 0
-448 -4249 4250 0
-4250 4272 0
-449 -4250 4251 0
-4251 4273 0
-450 -4251 4252 0
-4252 4274 0
-451 -4252 4253 0
-4253 4275 0
-452 -4253 4254 0
-4254 4276 0
-453 -4254 4255 0
-4255 4277 0
-454 -4255 4256 0
-4256 4278 0
-455 -4256 4257 0
-4257 4279 0
-456 -4257 4258 0
-4258 4280 0
-457 -4258 4259 0
-4259 4281 0
-458 -4259 4260 0
-4260 4282 0
-459 -4260 4261 0
-4261 4283 0
-460 -4261 4262 0
-4262 4284 0
-461 -4262 4263 0
-4263 4285 0
-462 -4263 4264 0
-4264 4286 0
-463 -4264 4265 0
-4265 4287 0
-464 -4265 4266 0
-4266 4288 0
-465 -4266 0
-444 4267 0
-4267 4289 0
-445 -4267 4268 0
-4268 4290 0
-446 -4268 4269 0
-4269 4291 0
-447 -4269 4270 0
-4270 4292 0
-448 -4270 4271 0
-4271 4293 0
-449 -4271 4272 0
-4272 4294 0
-450 -4272 4273 0
-4273 4295 0
-451 -4273 4274 0
-4274 4296 0
-452 -4274 4275 0
-4275 4297 0
-453 -4275 4276 0
-4276 4298 0
-454 -4276 4277 0
-4277 4299 0
-455 -4277 4278 0
-4278 4300 0
-456 -4278 4279 0
-4279 4301 0
-457 -4279 4280 0
-4280 4302 0
-458 -4280 4281 0
-4281 4303 0
-459 -4281 4282 0
-4282 4304 0
-460 -4282 4283 0
-4283 4305 0
-461 -4283 4284 0
-4284 4306 0
-462 -4284 4285 0
-4285 4307 0
-463 -4285 4286 0
-4286 4308 0
-464 -4286 4287 0
-4287 4309 0
-465 -4287 4288 0
-4288 4310 0
-466 -4288 0
-445 4289 0
-4289 4311 0
-446 -4289 4290 0
-4290 4312 0
-447 -4290 4291 0
-4291 4313 0
-448 -4291 4292 0
-4292 4314 0
-449 -4292 4293 0
-4293 4315 0
-450 -4293 4294 0
-4294 4316 0
-451 -4294 4295 0
-4295 4317 0
-452 -4295 4296 0
-4296 4318 0
-453 -4296 4297 0
-4297 4319 0
-454 -4297 4298 0
-4298 4320 0
-455 -4298 4299 0
-4299 4321 0
-456 -4299 4300 0
-4300 4322 0
-457 -4300 4301 0
-4301 4323 0
-458 -4301 4302 0
-4302 4324 0
-459 -4302 4303 0
-4303 4325 0
-460 -4303 4304 0
-4304 4326 0
-461 -4304 4305 0
-4305 4327 0
-462 -4305 4306 0
-4306 4328 0
-463 -4306 4307 0
-4307 4329 0
-464 -4307 4308 0
-4308 4330 0
-465 -4308 4309 0
-4309 4331 0
-466 -4309 4310 0
-4310 4332 0
-467 -4310 0
-446 4311 0
-4311 4333 0
-447 -4311 4312 0
-4312 4334 0
-448 -4312 4313 0
-4313 4335 0
-449 -4313 4314 0
-4314 4336 0
-450 -4314 4315 0
-4315 4337 0
-451 -4315 4316 0
-4316 4338 0
-452 -4316 4317 0
-4317 4339 0
-453 -4317 4318 0
-4318 4340 0
-454 -4318 4319 0
-4319 4341 0
-455 -4319 4320 0
-4320 4342 0
-456 -4320 4321 0
-4321 4343 0
-457 -4321 4322 0
-4322 4344 0
-458 -4322 4323 0
-4323 4345 0
-459 -4323 4324 0
-4324 4346 0
-460 -4324 4325 0
-4325 4347 0
-461 -4325 4326 0
-4326 4348 0
-462 -4326 4327 0
-4327 4349 0
-463 -4327 4328 0
-4328 4350 0
-464 -4328 4329 0
-4329 4351 0
-465 -4329 4330 0
-4330 4352 0
-466 -4330 4331 0
-4331 4353 0
-467 -4331 4332 0
-4332 4354 0
-468 -4332 0
-447 4333 0
-4333 4355 0
-448 -4333 4334 0
-4334 4356 0
-449 -4334 4335 0
-4335 4357 0
-450 -4335 4336 0
-4336 4358 0
-451 -4336 4337 0
-4337 4359 0
-452 -4337 4338 0
-4338 4360 0
-453 -4338 4339 0
-4339 4361 0
-454 -4339 4340 0
-4340 4362 0
-455 -4340 4341 0
-4341 4363 0
-456 -4341 4342 0
-4342 4364 0
-457 -4342 4343 0
-4343 4365 0
-458 -4343 4344 0
-4344 4366 0
-459 -4344 4345 0
-4345 4367 0
-460 -4345 4346 0
-4346 4368 0
-461 -4346 4347 0
-4347 4369 0
-462 -4347 4348 0
-4348 4370 0
-463 -4348 4349 0
-4349 4371 0
-464 -4349 4350 0
-4350 4372 0
-465 -4350 4351 0
-4351 4373 0
-466 -4351 4352 0
-4352 4374 0
-467 -4352 4353 0
-4353 4375 0
-468 -4353 4354 0
-4354 4376 0
-469 -4354 0
-448 4355 0
-4355 4377 0
-449 -4355 4356 0
-4356 4378 0
-450 -4356 4357 0
-4357 4379 0
-451 -4357 4358 0
-4358 4380 0
-452 -4358 4359 0
-4359 4381 0
-453 -4359 4360 0
-4360 4382 0
-454 -4360 4361 0
-4361 4383 0
-455 -4361 4362 0
-4362 4384 0
-456 -4362 4363 0
-4363 4385 0
-457 -4363 4364 0
-4364 4386 0
-458 -4364 4365 0
-4365 4387 0
-459 -4365 4366 0
-4366 4388 0
-460 -4366 4367 0
-4367 4389 0
-461 -4367 4368 0
-4368 4390 0
-462 -4368 4369 0
-4369 4391 0
-463 -4369 4370 0
-4370 4392 0
-464 -4370 4371 0
-4371 4393 0
-465 -4371 4372 0
-4372 4394 0
-466 -4372 4373 0
-4373 4395 0
-467 -4373 4374 0
-4374 4396 0
-468 -4374 4375 0
-4375 4397 0
-469 -4375 4376 0
-4376 4398 0
-470 -4376 0
-449 4377 0
-4377 4399 0
-450 -4377 4378 0
-4378 4400 0
-451 -4378 4379 0
-4379 4401 0
-452 -4379 4380 0
-4380 4402 0
-453 -4380 4381 0
-4381 4403 0
-454 -4381 4382 0
-4382 4404 0
-455 -4382 4383 0
-4383 4405 0
-456 -4383 4384 0
-4384 4406 0
-457 -4384 4385 0
-4385 4407 0
-458 -4385 4386 0
-4386 4408 0
-459 -4386 4387 0
-4387 4409 0
-460 -4387 4388 0
-4388 4410 0
-461 -4388 4389 0
-4389 4411 0
-462 -4389 4390 0
-4390 4412 0
-463 -4390 4391 0
-4391 4413 0
-464 -4391 4392 0
-4392 4414 0
-465 -4392 4393 0
-4393 4415 0
-466 -4393 4394 0
-4394 4416 0
-467 -4394 4395 0
-4395 4417 0
-468 -4395 4396 0
-4396 4418 0
-469 -4396 4397 0
-4397 4419 0
-470 -4397 4398 0
-4398 4420 0
-471 -4398 0
-450 4399 0
-4399 4421 0
-451 -4399 4400 0
-4400 4422 0
-452 -4400 4401 0
-4401 4423 0
-453 -4401 4402 0
-4402 4424 0
-454 -4402 4403 0
-4403 4425 0
-455 -4403 4404 0
-4404 4426 0
-456 -4404 4405 0
-4405 4427 0
-457 -4405 4406 0
-4406 4428 0
-458 -4406 4407 0
-4407 4429 0
-459 -4407 4408 0
-4408 4430 0
-460 -4408 4409 0
-4409 4431 0
-461 -4409 4410 0
-4410 4432 0
-462 -4410 4411 0
-4411 4433 0
-463 -4411 4412 0
-4412 4434 0
-464 -4412 4413 0
-4413 4435 0
-465 -4413 4414 0
-4414 4436 0
-466 -4414 4415 0
-4415 4437 0
-467 -4415 4416 0
-4416 4438 0
-468 -4416 4417 0
-4417 4439 0
-469 -4417 4418 0
-4418 4440 0
-470 -4418 4419 0
-4419 4441 0
-471 -4419 4420 0
-4420 4442 0
-472 -4420 0
-451 4421 0
-4421 4443 0
-452 -4421 4422 0
-4422 4444 0
-453 -4422 4423 0
-4423 4445 0
-454 -4423 4424 0
-4424 4446 0
-455 -4424 4425 0
-4425 4447 0
-456 -4425 4426 0
-4426 4448 0
-457 -4426 4427 0
-4427 4449 0
-458 -4427 4428 0
-4428 4450 0
-459 -4428 4429 0
-4429 4451 0
-460 -4429 4430 0
-4430 4452 0
-461 -4430 4431 0
-4431 4453 0
-462 -4431 4432 0
-4432 4454 0
-463 -4432 4433 0
-4433 4455 0
-464 -4433 4434 0
-4434 4456 0
-465 -4434 4435 0
-4435 4457 0
-466 -4435 4436 0
-4436 4458 0
-467 -4436 4437 0
-4437 4459 0
-468 -4437 4438 0
-4438 4460 0
-469 -4438 4439 0
-4439 4461 0
-470 -4439 4440 0
-4440 4462 0
-471 -4440 4441 0
-4441 4463 0
-472 -4441 4442 0
-4442 4464 0
-473 -4442 0
-452 4443 0
-4443 4465 0
-453 -4443 4444 0
-4444 4466 0
-454 -4444 4445 0
-4445 4467 0
-455 -4445 4446 0
-4446 4468 0
-456 -4446 4447 0
-4447 4469 0
-457 -4447 4448 0
-4448 4470 0
-458 -4448 4449 0
-4449 4471 0
-459 -4449 4450 0
-4450 4472 0
-460 -4450 4451 0
-4451 4473 0
-461 -4451 4452 0
-4452 4474 0
-462 -4452 4453 0
-4453 4475 0
-463 -4453 4454 0
-4454 4476 0
-464 -4454 4455 0
-4455 4477 0
-465 -4455 4456 0
-4456 4478 0
-466 -4456 4457 0
-4457 4479 0
-467 -4457 4458 0
-4458 4480 0
-468 -4458 4459 0
-4459 4481 0
-469 -4459 4460 0
-4460 4482 0
-470 -4460 4461 0
-4461 4483 0
-471 -4461 4462 0
-4462 4484 0
-472 -4462 4463 0
-4463 4485 0
-473 -4463 4464 0
-4464 4486 0
-474 -4464 0
-453 4465 0
-4465 4487 0
-454 -4465 4466 0
-4466 4488 0
-455 -4466 4467 0
-4467 4489 0
-456 -4467 4468 0
-4468 4490 0
-457 -4468 4469 0
-4469 4491 0
-458 -4469 4470 0
-4470 4492 0
-459 -4470 4471 0
-4471 4493 0
-460 -4471 4472 0
-4472 4494 0
-461 -4472 4473 0
-4473 4495 0
-462 -4473 4474 0
-4474 4496 0
-463 -4474 4475 0
-4475 4497 0
-464 -4475 4476 0
-4476 4498 0
-465 -4476 4477 0
-4477 4499 0
-466 -4477 4478 0
-4478 4500 0
-467 -4478 4479 0
-4479 4501 0
-468 -4479 4480 0
-4480 4502 0
-469 -4480 4481 0
-4481 4503 0
-470 -4481 4482 0
-4482 4504 0
-471 -4482 4483 0
-4483 4505 0
-472 -4483 4484 0
-4484 4506 0
-473 -4484 4485 0
-4485 4507 0
-474 -4485 4486 0
-4486 4508 0
-475 -4486 0
-454 4487 0
-4487 4509 0
-455 -4487 4488 0
-4488 4510 0
-456 -4488 4489 0
-4489 4511 0
-457 -4489 4490 0
-4490 4512 0
-458 -4490 4491 0
-4491 4513 0
-459 -4491 4492 0
-4492 4514 0
-460 -4492 4493 0
-4493 4515 0
-461 -4493 4494 0
-4494 4516 0
-462 -4494 4495 0
-4495 4517 0
-463 -4495 4496 0
-4496 4518 0
-464 -4496 4497 0
-4497 4519 0
-465 -4497 4498 0
-4498 4520 0
-466 -4498 4499 0
-4499 4521 0
-467 -4499 4500 0
-4500 4522 0
-468 -4500 4501 0
-4501 4523 0
-469 -4501 4502 0
-4502 4524 0
-470 -4502 4503 0
-4503 4525 0
-471 -4503 4504 0
-4504 4526 0
-472 -4504 4505 0
-4505 4527 0
-473 -4505 4506 0
-4506 4528 0
-474 -4506 4507 0
-4507 4529 0
-475 -4507 4508 0
-4508 4530 0
-476 -4508 0
-455 4509 0
-4509 4531 0
-456 -4509 4510 0
-4510 4532 0
-457 -4510 4511 0
-4511 4533 0
-458 -4511 4512 0
-4512 4534 0
-459 -4512 4513 0
-4513 4535 0
-460 -4513 4514 0
-4514 4536 0
-461 -4514 4515 0
-4515 4537 0
-462 -4515 4516 0
-4516 4538 0
-463 -4516 4517 0
-4517 4539 0
-464 -4517 4518 0
-4518 4540 0
-465 -4518 4519 0
-4519 4541 0
-466 -4519 4520 0
-4520 4542 0
-467 -4520 4521 0
-4521 4543 0
-468 -4521 4522 0
-4522 4544 0
-469 -4522 4523 0
-4523 4545 0
-470 -4523 4524 0
-4524 4546 0
-471 -4524 4525 0
-4525 4547 0
-472 -4525 4526 0
-4526 4548 0
-473 -4526 4527 0
-4527 4549 0
-474 -4527 4528 0
-4528 4550 0
-475 -4528 4529 0
-4529 4551 0
-476 -4529 4530 0
-4530 4552 0
-477 -4530 0
-456 4531 0
-4531 4553 0
-457 -4531 4532 0
-4532 4554 0
-458 -4532 4533 0
-4533 4555 0
-459 -4533 4534 0
-4534 4556 0
-460 -4534 4535 0
-4535 4557 0
-461 -4535 4536 0
-4536 4558 0
-462 -4536 4537 0
-4537 4559 0
-463 -4537 4538 0
-4538 4560 0
-464 -4538 4539 0
-4539 4561 0
-465 -4539 4540 0
-4540 4562 0
-466 -4540 4541 0
-4541 4563 0
-467 -4541 4542 0
-4542 4564 0
-468 -4542 4543 0
-4543 4565 0
-469 -4543 4544 0
-4544 4566 0
-470 -4544 4545 0
-4545 4567 0
-471 -4545 4546 0
-4546 4568 0
-472 -4546 4547 0
-4547 4569 0
-473 -4547 4548 0
-4548 4570 0
-474 -4548 4549 0
-4549 4571 0
-475 -4549 4550 0
-4550 4572 0
-476 -4550 4551 0
-4551 4573 0
-477 -4551 4552 0
-4552 4574 0
-478 -4552 0
-457 4553 0
-4553 4575 0
-458 -4553 4554 0
-4554 4576 0
-459 -4554 4555 0
-4555 4577 0
-460 -4555 4556 0
-4556 4578 0
-461 -4556 4557 0
-4557 4579 0
-462 -4557 4558 0
-4558 4580 0
-463 -4558 4559 0
-4559 4581 0
-464 -4559 4560 0
-4560 4582 0
-465 -4560 4561 0
-4561 4583 0
-466 -4561 4562 0
-4562 4584 0
-467 -4562 4563 0
-4563 4585 0
-468 -4563 4564 0
-4564 4586 0
-469 -4564 4565 0
-4565 4587 0
-470 -4565 4566 0
-4566 4588 0
-471 -4566 4567 0
-4567 4589 0
-472 -4567 4568 0
-4568 4590 0
-473 -4568 4569 0
-4569 4591 0
-474 -4569 4570 0
-4570 4592 0
-475 -4570 4571 0
-4571 4593 0
-476 -4571 4572 0
-4572 4594 0
-477 -4572 4573 0
-4573 4595 0
-478 -4573 4574 0
-4574 4596 0
-479 -4574 0
-458 4575 0
-4575 4597 0
-459 -4575 4576 0
-4576 4598 0
-460 -4576 4577 0
-4577 4599 0
-461 -4577 4578 0
-4578 4600 0
-462 -4578 4579 0
-4579 4601 0
-463 -4579 4580 0
-4580 4602 0
-464 -4580 4581 0
-4581 4603 0
-465 -4581 4582 0
-4582 4604 0
-466 -4582 4583 0
-4583 4605 0
-467 -4583 4584 0
-4584 4606 0
-468 -4584 4585 0
-4585 4607 0
-469 -4585 4586 0
-4586 4608 0
-470 -4586 4587 0
-4587 4609 0
-471 -4587 4588 0
-4588 4610 0
-472 -4588 4589 0
-4589 4611 0
-473 -4589 4590 0
-4590 4612 0
-474 -4590 4591 0
-4591 4613 0
-475 -4591 4592 0
-4592 4614 0
-476 -4592 4593 0
-4593 4615 0
-477 -4593 4594 0
-4594 4616 0
-478 -4594 4595 0
-4595 4617 0
-479 -4595 4596 0
-4596 4618 0
-480 -4596 0
-459 4597 0
-4597 4619 0
-460 -4597 4598 0
-4598 4620 0
-461 -4598 4599 0
-4599 4621 0
-462 -4599 4600 0
-4600 4622 0
-463 -4600 4601 0
-4601 4623 0
-464 -4601 4602 0
-4602 4624 0
-465 -4602 4603 0
-4603 4625 0
-466 -4603 4604 0
-4604 4626 0
-467 -4604 4605 0
-4605 4627 0
-468 -4605 4606 0
-4606 4628 0
-469 -4606 4607 0
-4607 4629 0
-470 -4607 4608 0
-4608 4630 0
-471 -4608 4609 0
-4609 4631 0
-472 -4609 4610 0
-4610 4632 0
-473 -4610 4611 0
-4611 4633 0
-474 -4611 4612 0
-4612 4634 0
-475 -4612 4613 0
-4613 4635 0
-476 -4613 4614 0
-4614 4636 0
-477 -4614 4615 0
-4615 4637 0
-478 -4615 4616 0
-4616 4638 0
-479 -4616 4617 0
-4617 4639 0
-480 -4617 4618 0
-4618 4640 0
-481 -4618 0
-460 4619 0
-4619 4641 0
-461 -4619 4620 0
-4620 4642 0
-462 -4620 4621 0
-4621 4643 0
-463 -4621 4622 0
-4622 4644 0
-464 -4622 4623 0
-4623 4645 0
-465 -4623 4624 0
-4624 4646 0
-466 -4624 4625 0
-4625 4647 0
-467 -4625 4626 0
-4626 4648 0
-468 -4626 4627 0
-4627 4649 0
-469 -4627 4628 0
-4628 4650 0
-470 -4628 4629 0
-4629 4651 0
-471 -4629 4630 0
-4630 4652 0
-472 -4630 4631 0
-4631 4653 0
-473 -4631 4632 0
-4632 4654 0
-474 -4632 4633 0
-4633 4655 0
-475 -4633 4634 0
-4634 4656 0
-476 -4634 4635 0
-4635 4657 0
-477 -4635 4636 0
-4636 4658 0
-478 -4636 4637 0
-4637 4659 0
-479 -4637 4638 0
-4638 4660 0
-480 -4638 4639 0
-4639 4661 0
-481 -4639 4640 0
-4640 4662 0
-482 -4640 0
-461 4641 0
-4641 4663 0
-462 -4641 4642 0
-4642 4664 0
-463 -4642 4643 0
-4643 4665 0
-464 -4643 4644 0
-4644 4666 0
-465 -4644 4645 0
-4645 4667 0
-466 -4645 4646 0
-4646 4668 0
-467 -4646 4647 0
-4647 4669 0
-468 -4647 4648 0
-4648 4670 0
-469 -4648 4649 0
-4649 4671 0
-470 -4649 4650 0
-4650 4672 0
-471 -4650 4651 0
-4651 4673 0
-472 -4651 4652 0
-4652 4674 0
-473 -4652 4653 0
-4653 4675 0
-474 -4653 4654 0
-4654 4676 0
-475 -4654 4655 0
-4655 4677 0
-476 -4655 4656 0
-4656 4678 0
-477 -4656 4657 0
-4657 4679 0
-478 -4657 4658 0
-4658 4680 0
-479 -4658 4659 0
-4659 4681 0
-480 -4659 4660 0
-4660 4682 0
-481 -4660 4661 0
-4661 4683 0
-482 -4661 4662 0
-4662 4684 0
-483 -4662 0
-462 4663 0
-4663 4685 0
-463 -4663 4664 0
-4664 4686 0
-464 -4664 4665 0
-4665 4687 0
-465 -4665 4666 0
-4666 4688 0
-466 -4666 4667 0
-4667 4689 0
-467 -4667 4668 0
-4668 4690 0
-468 -4668 4669 0
-4669 4691 0
-469 -4669 4670 0
-4670 4692 0
-470 -4670 4671 0
-4671 4693 0
-471 -4671 4672 0
-4672 4694 0
-472 -4672 4673 0
-4673 4695 0
-473 -4673 4674 0
-4674 4696 0
-474 -4674 4675 0
-4675 4697 0
-475 -4675 4676 0
-4676 4698 0
-476 -4676 4677 0
-4677 4699 0
-477 -4677 4678 0
-4678 4700 0
-478 -4678 4679 0
-4679 4701 0
-479 -4679 4680 0
-4680 4702 0
-480 -4680 4681 0
-4681 4703 0
-481 -4681 4682 0
-4682 4704 0
-482 -4682 4683 0
-4683 4705 0
-483 -4683 4684 0
-4684 4706 0
-484 -4684 0
-463 4685 0
-4685 4707 0
-464 -4685 4686 0
-4686 4708 0
-465 -4686 4687 0
-4687 4709 0
-466 -4687 4688 0
-4688 4710 0
-467 -4688 4689 0
-4689 4711 0
-468 -4689 4690 0
-4690 4712 0
-469 -4690 4691 0
-4691 4713 0
-470 -4691 4692 0
-4692 4714 0
-471 -4692 4693 0
-4693 4715 0
-472 -4693 4694 0
-4694 4716 0
-473 -4694 4695 0
-4695 4717 0
-474 -4695 4696 0
-4696 4718 0
-475 -4696 4697 0
-4697 4719 0
-476 -4697 4698 0
-4698 4720 0
-477 -4698 4699 0
-4699 4721 0
-478 -4699 4700 0
-4700 4722 0
-479 -4700 4701 0
-4701 4723 0
-480 -4701 4702 0
-4702 4724 0
-481 -4702 4703 0
-4703 4725 0
-482 -4703 4704 0
-4704 4726 0
-483 -4704 4705 0
-4705 4727 0
-484 -4705 4706 0
-4706 4728 0
-485 -4706 0
-464 4707 0
-4707 4729 0
-465 -4707 4708 0
-4708 4730 0
-466 -4708 4709 0
-4709 4731 0
-467 -4709 4710 0
-4710 4732 0
-468 -4710 4711 0
-4711 4733 0
-469 -4711 4712 0
-4712 4734 0
-470 -4712 4713 0
-4713 4735 0
-471 -4713 4714 0
-4714 4736 0
-472 -4714 4715 0
-4715 4737 0
-473 -4715 4716 0
-4716 4738 0
-474 -4716 4717 0
-4717 4739 0
-475 -4717 4718 0
-4718 4740 0
-476 -4718 4719 0
-4719 4741 0
-477 -4719 4720 0
-4720 4742 0
-478 -4720 4721 0
-4721 4743 0
-479 -4721 4722 0
-4722 4744 0
-480 -4722 4723 0
-4723 4745 0
-481 -4723 4724 0
-4724 4746 0
-482 -4724 4725 0
-4725 4747 0
-483 -4725 4726 0
-4726 4748 0
-484 -4726 4727 0
-4727 4749 0
-485 -4727 4728 0
-4728 4750 0
-486 -4728 0
-465 4729 0
-4729 4751 0
-466 -4729 4730 0
-4730 4752 0
-467 -4730 4731 0
-4731 4753 0
-468 -4731 4732 0
-4732 4754 0
-469 -4732 4733 0
-4733 4755 0
-470 -4733 4734 0
-4734 4756 0
-471 -4734 4735 0
-4735 4757 0
-472 -4735 4736 0
-4736 4758 0
-473 -4736 4737 0
-4737 4759 0
-474 -4737 4738 0
-4738 4760 0
-475 -4738 4739 0
-4739 4761 0
-476 -4739 4740 0
-4740 4762 0
-477 -4740 4741 0
-4741 4763 0
-478 -4741 4742 0
-4742 4764 0
-479 -4742 4743 0
-4743 4765 0
-480 -4743 4744 0
-4744 4766 0
-481 -4744 4745 0
-4745 4767 0
-482 -4745 4746 0
-4746 4768 0
-483 -4746 4747 0
-4747 4769 0
-484 -4747 4748 0
-4748 4770 0
-485 -4748 4749 0
-4749 4771 0
-486 -4749 4750 0
-4750 4772 0
-487 -4750 0
-466 4751 0
-4751 4773 0
-467 -4751 4752 0
-4752 4774 0
-468 -4752 4753 0
-4753 4775 0
-469 -4753 4754 0
-4754 4776 0
-470 -4754 4755 0
-4755 4777 0
-471 -4755 4756 0
-4756 4778 0
-472 -4756 4757 0
-4757 4779 0
-473 -4757 4758 0
-4758 4780 0
-474 -4758 4759 0
-4759 4781 0
-475 -4759 4760 0
-4760 4782 0
-476 -4760 4761 0
-4761 4783 0
-477 -4761 4762 0
-4762 4784 0
-478 -4762 4763 0
-4763 4785 0
-479 -4763 4764 0
-4764 4786 0
-480 -4764 4765 0
-4765 4787 0
-481 -4765 4766 0
-4766 4788 0
-482 -4766 4767 0
-4767 4789 0
-483 -4767 4768 0
-4768 4790 0
-484 -4768 4769 0
-4769 4791 0
-485 -4769 4770 0
-4770 4792 0
-486 -4770 4771 0
-4771 4793 0
-487 -4771 4772 0
-4772 4794 0
-488 -4772 0
-467 4773 0
-4773 4795 0
-468 -4773 4774 0
-4774 4796 0
-469 -4774 4775 0
-4775 4797 0
-470 -4775 4776 0
-4776 4798 0
-471 -4776 4777 0
-4777 4799 0
-472 -4777 4778 0
-4778 4800 0
-473 -4778 4779 0
-4779 4801 0
-474 -4779 4780 0
-4780 4802 0
-475 -4780 4781 0
-4781 4803 0
-476 -4781 4782 0
-4782 4804 0
-477 -4782 4783 0
-4783 4805 0
-478 -4783 4784 0
-4784 4806 0
-479 -4784 4785 0
-4785 4807 0
-480 -4785 4786 0
-4786 4808 0
-481 -4786 4787 0
-4787 4809 0
-482 -4787 4788 0
-4788 4810 0
-483 -4788 4789 0
-4789 4811 0
-484 -4789 4790 0
-4790 4812 0
-485 -4790 4791 0
-4791 4813 0
-486 -4791 4792 0
-4792 4814 0
-487 -4792 4793 0
-4793 4815 0
-488 -4793 4794 0
-4794 4816 0
-489 -4794 0
-468 4795 0
-4795 4817 0
-469 -4795 4796 0
-4796 4818 0
-470 -4796 4797 0
-4797 4819 0
-471 -4797 4798 0
-4798 4820 0
-472 -4798 4799 0
-4799 4821 0
-473 -4799 4800 0
-4800 4822 0
-474 -4800 4801 0
-4801 4823 0
-475 -4801 4802 0
-4802 4824 0
-476 -4802 4803 0
-4803 4825 0
-477 -4803 4804 0
-4804 4826 0
-478 -4804 4805 0
-4805 4827 0
-479 -4805 4806 0
-4806 4828 0
-480 -4806 4807 0
-4807 4829 0
-481 -4807 4808 0
-4808 4830 0
-482 -4808 4809 0
-4809 4831 0
-483 -4809 4810 0
-4810 4832 0
-484 -4810 4811 0
-4811 4833 0
-485 -4811 4812 0
-4812 4834 0
-486 -4812 4813 0
-4813 4835 0
-487 -4813 4814 0
-4814 4836 0
-488 -4814 4815 0
-4815 4837 0
-489 -4815 4816 0
-4816 4838 0
-490 -4816 0
-469 4817 0
-4817 4839 0
-470 -4817 4818 0
-4818 4840 0
-471 -4818 4819 0
-4819 4841 0
-472 -4819 4820 0
-4820 4842 0
-473 -4820 4821 0
-4821 4843 0
-474 -4821 4822 0
-4822 4844 0
-475 -4822 4823 0
-4823 4845 0
-476 -4823 4824 0
-4824 4846 0
-477 -4824 4825 0
-4825 4847 0
-478 -4825 4826 0
-4826 4848 0
-479 -4826 4827 0
-4827 4849 0
-480 -4827 4828 0
-4828 4850 0
-481 -4828 4829 0
-4829 4851 0
-482 -4829 4830 0
-4830 4852 0
-483 -4830 4831 0
-4831 4853 0
-484 -4831 4832 0
-4832 4854 0
-485 -4832 4833 0
-4833 4855 0
-486 -4833 4834 0
-4834 4856 0
-487 -4834 4835 0
-4835 4857 0
-488 -4835 4836 0
-4836 4858 0
-489 -4836 4837 0
-4837 4859 0
-490 -4837 4838 0
-4838 4860 0
-491 -4838 0
-470 4839 0
-4839 4861 0
-471 -4839 4840 0
-4840 4862 0
-472 -4840 4841 0
-4841 4863 0
-473 -4841 4842 0
-4842 4864 0
-474 -4842 4843 0
-4843 4865 0
-475 -4843 4844 0
-4844 4866 0
-476 -4844 4845 0
-4845 4867 0
-477 -4845 4846 0
-4846 4868 0
-478 -4846 4847 0
-4847 4869 0
-479 -4847 4848 0
-4848 4870 0
-480 -4848 4849 0
-4849 4871 0
-481 -4849 4850 0
-4850 4872 0
-482 -4850 4851 0
-4851 4873 0
-483 -4851 4852 0
-4852 4874 0
-484 -4852 4853 0
-4853 4875 0
-485 -4853 4854 0
-4854 4876 0
-486 -4854 4855 0
-4855 4877 0
-487 -4855 4856 0
-4856 4878 0
-488 -4856 4857 0
-4857 4879 0
-489 -4857 4858 0
-4858 4880 0
-490 -4858 4859 0
-4859 4881 0
-491 -4859 4860 0
-4860 4882 0
-492 -4860 0
-471 4861 0
-4861 4883 0
-472 -4861 4862 0
-4862 4884 0
-473 -4862 4863 0
-4863 4885 0
-474 -4863 4864 0
-4864 4886 0
-475 -4864 4865 0
-4865 4887 0
-476 -4865 4866 0
-4866 4888 0
-477 -4866 4867 0
-4867 4889 0
-478 -4867 4868 0
-4868 4890 0
-479 -4868 4869 0
-4869 4891 0
-480 -4869 4870 0
-4870 4892 0
-481 -4870 4871 0
-4871 4893 0
-482 -4871 4872 0
-4872 4894 0
-483 -4872 4873 0
-4873 4895 0
-484 -4873 4874 0
-4874 4896 0
-485 -4874 4875 0
-4875 4897 0
-486 -4875 4876 0
-4876 4898 0
-487 -4876 4877 0
-4877 4899 0
-488 -4877 4878 0
-4878 4900 0
-489 -4878 4879 0
-4879 4901 0
-490 -4879 4880 0
-4880 4902 0
-491 -4880 4881 0
-4881 4903 0
-492 -4881 4882 0
-4882 4904 0
-493 -4882 0
-472 4883 0
-4883 4905 0
-473 -4883 4884 0
-4884 4906 0
-474 -4884 4885 0
-4885 4907 0
-475 -4885 4886 0
-4886 4908 0
-476 -4886 4887 0
-4887 4909 0
-477 -4887 4888 0
-4888 4910 0
-478 -4888 4889 0
-4889 4911 0
-479 -4889 4890 0
-4890 4912 0
-480 -4890 4891 0
-4891 4913 0
-481 -4891 4892 0
-4892 4914 0
-482 -4892 4893 0
-4893 4915 0
-483 -4893 4894 0
-4894 4916 0
-484 -4894 4895 0
-4895 4917 0
-485 -4895 4896 0
-4896 4918 0
-486 -4896 4897 0
-4897 4919 0
-487 -4897 4898 0
-4898 4920 0
-488 -4898 4899 0
-4899 4921 0
-489 -4899 4900 0
-4900 4922 0
-490 -4900 4901 0
-4901 4923 0
-491 -4901 4902 0
-4902 4924 0
-492 -4902 4903 0
-4903 4925 0
-493 -4903 4904 0
-4904 4926 0
-494 -4904 0
-473 4905 0
-4905 4927 0
-474 -4905 4906 0
-4906 4928 0
-475 -4906 4907 0
-4907 4929 0
-476 -4907 4908 0
-4908 4930 0
-477 -4908 4909 0
-4909 4931 0
-478 -4909 4910 0
-4910 4932 0
-479 -4910 4911 0
-4911 4933 0
-480 -4911 4912 0
-4912 4934 0
-481 -4912 4913 0
-4913 4935 0
-482 -4913 4914 0
-4914 4936 0
-483 -4914 4915 0
-4915 4937 0
-484 -4915 4916 0
-4916 4938 0
-485 -4916 4917 0
-4917 4939 0
-486 -4917 4918 0
-4918 4940 0
-487 -4918 4919 0
-4919 4941 0
-488 -4919 4920 0
-4920 4942 0
-489 -4920 4921 0
-4921 4943 0
-490 -4921 4922 0
-4922 4944 0
-491 -4922 4923 0
-4923 4945 0
-492 -4923 4924 0
-4924 4946 0
-493 -4924 4925 0
-4925 4947 0
-494 -4925 4926 0
-4926 4948 0
-495 -4926 0
-474 4927 0
-4927 4949 0
-475 -4927 4928 0
-4928 4950 0
-476 -4928 4929 0
-4929 4951 0
-477 -4929 4930 0
-4930 4952 0
-478 -4930 4931 0
-4931 4953 0
-479 -4931 4932 0
-4932 4954 0
-480 -4932 4933 0
-4933 4955 0
-481 -4933 4934 0
-4934 4956 0
-482 -4934 4935 0
-4935 4957 0
-483 -4935 4936 0
-4936 4958 0
-484 -4936 4937 0
-4937 4959 0
-485 -4937 4938 0
-4938 4960 0
-486 -4938 4939 0
-4939 4961 0
-487 -4939 4940 0
-4940 4962 0
-488 -4940 4941 0
-4941 4963 0
-489 -4941 4942 0
-4942 4964 0
-490 -4942 4943 0
-4943 4965 0
-491 -4943 4944 0
-4944 4966 0
-492 -4944 4945 0
-4945 4967 0
-493 -4945 4946 0
-4946 4968 0
-494 -4946 4947 0
-4947 4969 0
-495 -4947 4948 0
-4948 4970 0
-496 -4948 0
-475 4949 0
-4949 4971 0
-476 -4949 4950 0
-4950 4972 0
-477 -4950 4951 0
-4951 4973 0
-478 -4951 4952 0
-4952 4974 0
-479 -4952 4953 0
-4953 4975 0
-480 -4953 4954 0
-4954 4976 0
-481 -4954 4955 0
-4955 4977 0
-482 -4955 4956 0
-4956 4978 0
-483 -4956 4957 0
-4957 4979 0
-484 -4957 4958 0
-4958 4980 0
-485 -4958 4959 0
-4959 4981 0
-486 -4959 4960 0
-4960 4982 0
-487 -4960 4961 0
-4961 4983 0
-488 -4961 4962 0
-4962 4984 0
-489 -4962 4963 0
-4963 4985 0
-490 -4963 4964 0
-4964 4986 0
-491 -4964 4965 0
-4965 4987 0
-492 -4965 4966 0
-4966 4988 0
-493 -4966 4967 0
-4967 4989 0
-494 -4967 4968 0
-4968 4990 0
-495 -4968 4969 0
-4969 4991 0
-496 -4969 4970 0
-4970 4992 0
-497 -4970 0
-476 4971 0
-4971 4993 0
-477 -4971 4972 0
-4972 4994 0
-478 -4972 4973 0
-4973 4995 0
-479 -4973 4974 0
-4974 4996 0
-480 -4974 4975 0
-4975 4997 0
-481 -4975 4976 0
-4976 4998 0
-482 -4976 4977 0
-4977 4999 0
-483 -4977 4978 0
-4978 5000 0
-484 -4978 4979 0
-4979 5001 0
-485 -4979 4980 0
-4980 5002 0
-486 -4980 4981 0
-4981 5003 0
-487 -4981 4982 0
-4982 5004 0
-488 -4982 4983 0
-4983 5005 0
-489 -4983 4984 0
-4984 5006 0
-490 -4984 4985 0
-4985 5007 0
-491 -4985 4986 0
-4986 5008 0
-492 -4986 4987 0
-4987 5009 0
-493 -4987 4988 0
-4988 5010 0
-494 -4988 4989 0
-4989 5011 0
-495 -4989 4990 0
-4990 5012 0
-496 -4990 4991 0
-4991 5013 0
-497 -4991 4992 0
-4992 5014 0
-498 -4992 0
-477 4993 0
-4993 5015 0
-478 -4993 4994 0
-4994 5016 0
-479 -4994 4995 0
-4995 5017 0
-480 -4995 4996 0
-4996 5018 0
-481 -4996 4997 0
-4997 5019 0
-482 -4997 4998 0
-4998 5020 0
-483 -4998 4999 0
-4999 5021 0
-484 -4999 5000 0
-5000 5022 0
-485 -5000 5001 0
-5001 5023 0
-486 -5001 5002 0
-5002 5024 0
-487 -5002 5003 0
-5003 5025 0
-488 -5003 5004 0
-5004 5026 0
-489 -5004 5005 0
-5005 5027 0
-490 -5005 5006 0
-5006 5028 0
-491 -5006 5007 0
-5007 5029 0
-492 -5007 5008 0
-5008 5030 0
-493 -5008 5009 0
-5009 5031 0
-494 -5009 5010 0
-5010 5032 0
-495 -5010 5011 0
-5011 5033 0
-496 -5011 5012 0
-5012 5034 0
-497 -5012 5013 0
-5013 5035 0
-498 -5013 5014 0
-5014 5036 0
-499 -5014 0
-478 5015 0
-5015 5037 0
-479 -5015 5016 0
-5016 5038 0
-480 -5016 5017 0
-5017 5039 0
-481 -5017 5018 0
-5018 5040 0
-482 -5018 5019 0
-5019 5041 0
-483 -5019 5020 0
-5020 5042 0
-484 -5020 5021 0
-5021 5043 0
-485 -5021 5022 0
-5022 5044 0
-486 -5022 5023 0
-5023 5045 0
-487 -5023 5024 0
-5024 5046 0
-488 -5024 5025 0
-5025 5047 0
-489 -5025 5026 0
-5026 5048 0
-490 -5026 5027 0
-5027 5049 0
-491 -5027 5028 0
-5028 5050 0
-492 -5028 5029 0
-5029 5051 0
-493 -5029 5030 0
-5030 5052 0
-494 -5030 5031 0
-5031 5053 0
-495 -5031 5032 0
-5032 5054 0
-496 -5032 5033 0
-5033 5055 0
-497 -5033 5034 0
-5034 5056 0
-498 -5034 5035 0
-5035 5057 0
-499 -5035 5036 0
-5036 5058 0
-500 -5036 0
-479 5037 0
-5037 5059 0
-480 -5037 5038 0
-5038 5060 0
-481 -5038 5039 0
-5039 5061 0
-482 -5039 5040 0
-5040 5062 0
-483 -5040 5041 0
-5041 5063 0
-484 -5041 5042 0
-5042 5064 0
-485 -5042 5043 0
-5043 5065 0
-486 -5043 5044 0
-5044 5066 0
-487 -5044 5045 0
-5045 5067 0
-488 -5045 5046 0
-5046 5068 0
-489 -5046 5047 0
-5047 5069 0
-490 -5047 5048 0
-5048 5070 0
-491 -5048 5049 0
-5049 5071 0
-492 -5049 5050 0
-5050 5072 0
-493 -5050 5051 0
-5051 5073 0
-494 -5051 5052 0
-5052 5074 0
-495 -5052 5053 0
-5053 5075 0
-496 -5053 5054 0
-5054 5076 0
-497 -5054 5055 0
-5055 5077 0
-498 -5055 5056 0
-5056 5078 0
-499 -5056 5057 0
-5057 5079 0
-500 -5057 5058 0
-5058 5080 0
-501 -5058 0
-480 5059 0
-5059 5081 0
-481 -5059 5060 0
-5060 5082 0
-482 -5060 5061 0
-5061 5083 0
-483 -5061 5062 0
-5062 5084 0
-484 -5062 5063 0
-5063 5085 0
-485 -5063 5064 0
-5064 5086 0
-486 -5064 5065 0
-5065 5087 0
-487 -5065 5066 0
-5066 5088 0
-488 -5066 5067 0
-5067 5089 0
-489 -5067 5068 0
-5068 5090 0
-490 -5068 5069 0
-5069 5091 0
-491 -5069 5070 0
-5070 5092 0
-492 -5070 5071 0
-5071 5093 0
-493 -5071 5072 0
-5072 5094 0
-494 -5072 5073 0
-5073 5095 0
-495 -5073 5074 0
-5074 5096 0
-496 -5074 5075 0
-5075 5097 0
-497 -5075 5076 0
-5076 5098 0
-498 -5076 5077 0
-5077 5099 0
-499 -5077 5078 0
-5078 5100 0
-500 -5078 5079 0
-5079 5101 0
-501 -5079 5080 0
-5080 5102 0
-502 -5080 0
-481 5081 0
-5081 5103 0
-482 -5081 5082 0
-5082 5104 0
-483 -5082 5083 0
-5083 5105 0
-484 -5083 5084 0
-5084 5106 0
-485 -5084 5085 0
-5085 5107 0
-486 -5085 5086 0
-5086 5108 0
-487 -5086 5087 0
-5087 5109 0
-488 -5087 5088 0
-5088 5110 0
-489 -5088 5089 0
-5089 5111 0
-490 -5089 5090 0
-5090 5112 0
-491 -5090 5091 0
-5091 5113 0
-492 -5091 5092 0
-5092 5114 0
-493 -5092 5093 0
-5093 5115 0
-494 -5093 5094 0
-5094 5116 0
-495 -5094 5095 0
-5095 5117 0
-496 -5095 5096 0
-5096 5118 0
-497 -5096 5097 0
-5097 5119 0
-498 -5097 5098 0
-5098 5120 0
-499 -5098 5099 0
-5099 5121 0
-500 -5099 5100 0
-5100 5122 0
-501 -5100 5101 0
-5101 5123 0
-502 -5101 5102 0
-5102 5124 0
-503 -5102 0
-482 5103 0
-5103 5125 0
-483 -5103 5104 0
-5104 5126 0
-484 -5104 5105 0
-5105 5127 0
-485 -5105 5106 0
-5106 5128 0
-486 -5106 5107 0
-5107 5129 0
-487 -5107 5108 0
-5108 5130 0
-488 -5108 5109 0
-5109 5131 0
-489 -5109 5110 0
-5110 5132 0
-490 -5110 5111 0
-5111 5133 0
-491 -5111 5112 0
-5112 5134 0
-492 -5112 5113 0
-5113 5135 0
-493 -5113 5114 0
-5114 5136 0
-494 -5114 5115 0
-5115 5137 0
-495 -5115 5116 0
-5116 5138 0
-496 -5116 5117 0
-5117 5139 0
-497 -5117 5118 0
-5118 5140 0
-498 -5118 5119 0
-5119 5141 0
-499 -5119 5120 0
-5120 5142 0
-500 -5120 5121 0
-5121 5143 0
-501 -5121 5122 0
-5122 5144 0
-502 -5122 5123 0
-5123 5145 0
-503 -5123 5124 0
-5124 5146 0
-504 -5124 0
-483 5125 0
-5125 5147 0
-484 -5125 5126 0
-5126 5148 0
-485 -5126 5127 0
-5127 5149 0
-486 -5127 5128 0
-5128 5150 0
-487 -5128 5129 0
-5129 5151 0
-488 -5129 5130 0
-5130 5152 0
-489 -5130 5131 0
-5131 5153 0
-490 -5131 5132 0
-5132 5154 0
-491 -5132 5133 0
-5133 5155 0
-492 -5133 5134 0
-5134 5156 0
-493 -5134 5135 0
-5135 5157 0
-494 -5135 5136 0
-5136 5158 0
-495 -5136 5137 0
-5137 5159 0
-496 -5137 5138 0
-5138 5160 0
-497 -5138 5139 0
-5139 5161 0
-498 -5139 5140 0
-5140 5162 0
-499 -5140 5141 0
-5141 5163 0
-500 -5141 5142 0
-5142 5164 0
-501 -5142 5143 0
-5143 5165 0
-502 -5143 5144 0
-5144 5166 0
-503 -5144 5145 0
-5145 5167 0
-504 -5145 5146 0
-5146 5168 0
-505 -5146 0
-484 5147 0
-5147 5169 0
-485 -5147 5148 0
-5148 5170 0
-486 -5148 5149 0
-5149 5171 0
-487 -5149 5150 0
-5150 5172 0
-488 -5150 5151 0
-5151 5173 0
-489 -5151 5152 0
-5152 5174 0
-490 -5152 5153 0
-5153 5175 0
-491 -5153 5154 0
-5154 5176 0
-492 -5154 5155 0
-5155 5177 0
-493 -5155 5156 0
-5156 5178 0
-494 -5156 5157 0
-5157 5179 0
-495 -5157 5158 0
-5158 5180 0
-496 -5158 5159 0
-5159 5181 0
-497 -5159 5160 0
-5160 5182 0
-498 -5160 5161 0
-5161 5183 0
-499 -5161 5162 0
-5162 5184 0
-500 -5162 5163 0
-5163 5185 0
-501 -5163 5164 0
-5164 5186 0
-502 -5164 5165 0
-5165 5187 0
-503 -5165 5166 0
-5166 5188 0
-504 -5166 5167 0
-5167 5189 0
-505 -5167 5168 0
-5168 5190 0
-506 -5168 0
-485 5169 0
-5169 5191 0
-486 -5169 5170 0
-5170 5192 0
-487 -5170 5171 0
-5171 5193 0
-488 -5171 5172 0
-5172 5194 0
-489 -5172 5173 0
-5173 5195 0
-490 -5173 5174 0
-5174 5196 0
-491 -5174 5175 0
-5175 5197 0
-492 -5175 5176 0
-5176 5198 0
-493 -5176 5177 0
-5177 5199 0
-494 -5177 5178 0
-5178 5200 0
-495 -5178 5179 0
-5179 5201 0
-496 -5179 5180 0
-5180 5202 0
-497 -5180 5181 0
-5181 5203 0
-498 -5181 5182 0
-5182 5204 0
-499 -5182 5183 0
-5183 5205 0
-500 -5183 5184 0
-5184 5206 0
-501 -5184 5185 0
-5185 5207 0
-502 -5185 5186 0
-5186 5208 0
-503 -5186 5187 0
-5187 5209 0
-504 -5187 5188 0
-5188 5210 0
-505 -5188 5189 0
-5189 5211 0
-506 -5189 5190 0
-5190 5212 0
-507 -5190 0
-486 5191 0
-5191 5213 0
-487 -5191 5192 0
-5192 5214 0
-488 -5192 5193 0
-5193 5215 0
-489 -5193 5194 0
-5194 5216 0
-490 -5194 5195 0
-5195 5217 0
-491 -5195 5196 0
-5196 5218 0
-492 -5196 5197 0
-5197 5219 0
-493 -5197 5198 0
-5198 5220 0
-494 -5198 5199 0
-5199 5221 0
-495 -5199 5200 0
-5200 5222 0
-496 -5200 5201 0
-5201 5223 0
-497 -5201 5202 0
-5202 5224 0
-498 -5202 5203 0
-5203 5225 0
-499 -5203 5204 0
-5204 5226 0
-500 -5204 5205 0
-5205 5227 0
-501 -5205 5206 0
-5206 5228 0
-502 -5206 5207 0
-5207 5229 0
-503 -5207 5208 0
-5208 5230 0
-504 -5208 5209 0
-5209 5231 0
-505 -5209 5210 0
-5210 5232 0
-506 -5210 5211 0
-5211 5233 0
-507 -5211 5212 0
-5212 5234 0
-508 -5212 0
-487 5213 0
-5213 5235 0
-488 -5213 5214 0
-5214 5236 0
-489 -5214 5215 0
-5215 5237 0
-490 -5215 5216 0
-5216 5238 0
-491 -5216 5217 0
-5217 5239 0
-492 -5217 5218 0
-5218 5240 0
-493 -5218 5219 0
-5219 5241 0
-494 -5219 5220 0
-5220 5242 0
-495 -5220 5221 0
-5221 5243 0
-496 -5221 5222 0
-5222 5244 0
-497 -5222 5223 0
-5223 5245 0
-498 -5223 5224 0
-5224 5246 0
-499 -5224 5225 0
-5225 5247 0
-500 -5225 5226 0
-5226 5248 0
-501 -5226 5227 0
-5227 5249 0
-502 -5227 5228 0
-5228 5250 0
-503 -5228 5229 0
-5229 5251 0
-504 -5229 5230 0
-5230 5252 0
-505 -5230 5231 0
-5231 5253 0
-506 -5231 5232 0
-5232 5254 0
-507 -5232 5233 0
-5233 5255 0
-508 -5233 5234 0
-5234 5256 0
-509 -5234 0
-488 5235 0
-5235 5257 0
-489 -5235 5236 0
-5236 5258 0
-490 -5236 5237 0
-5237 5259 0
-491 -5237 5238 0
-5238 5260 0
-492 -5238 5239 0
-5239 5261 0
-493 -5239 5240 0
-5240 5262 0
-494 -5240 5241 0
-5241 5263 0
-495 -5241 5242 0
-5242 5264 0
-496 -5242 5243 0
-5243 5265 0
-497 -5243 5244 0
-5244 5266 0
-498 -5244 5245 0
-5245 5267 0
-499 -5245 5246 0
-5246 5268 0
-500 -5246 5247 0
-5247 5269 0
-501 -5247 5248 0
-5248 5270 0
-502 -5248 5249 0
-5249 5271 0
-503 -5249 5250 0
-5250 5272 0
-504 -5250 5251 0
-5251 5273 0
-505 -5251 5252 0
-5252 5274 0
-506 -5252 5253 0
-5253 5275 0
-507 -5253 5254 0
-5254 5276 0
-508 -5254 5255 0
-5255 5277 0
-509 -5255 5256 0
-5256 5278 0
-510 -5256 0
-489 5257 0
-5257 5279 0
-490 -5257 5258 0
-5258 5280 0
-491 -5258 5259 0
-5259 5281 0
-492 -5259 5260 0
-5260 5282 0
-493 -5260 5261 0
-5261 5283 0
-494 -5261 5262 0
-5262 5284 0
-495 -5262 5263 0
-5263 5285 0
-496 -5263 5264 0
-5264 5286 0
-497 -5264 5265 0
-5265 5287 0
-498 -5265 5266 0
-5266 5288 0
-499 -5266 5267 0
-5267 5289 0
-500 -5267 5268 0
-5268 5290 0
-501 -5268 5269 0
-5269 5291 0
-502 -5269 5270 0
-5270 5292 0
-503 -5270 5271 0
-5271 5293 0
-504 -5271 5272 0
-5272 5294 0
-505 -5272 5273 0
-5273 5295 0
-506 -5273 5274 0
-5274 5296 0
-507 -5274 5275 0
-5275 5297 0
-508 -5275 5276 0
-5276 5298 0
-509 -5276 5277 0
-5277 5299 0
-510 -5277 5278 0
-5278 5300 0
-511 -5278 0
-490 5279 0
-5279 5301 0
-491 -5279 5280 0
-5280 5302 0
-492 -5280 5281 0
-5281 5303 0
-493 -5281 5282 0
-5282 5304 0
-494 -5282 5283 0
-5283 5305 0
-495 -5283 5284 0
-5284 5306 0
-496 -5284 5285 0
-5285 5307 0
-497 -5285 5286 0
-5286 5308 0
-498 -5286 5287 0
-5287 5309 0
-499 -5287 5288 0
-5288 5310 0
-500 -5288 5289 0
-5289 5311 0
-501 -5289 5290 0
-5290 5312 0
-502 -5290 5291 0
-5291 5313 0
-503 -5291 5292 0
-5292 5314 0
-504 -5292 5293 0
-5293 5315 0
-505 -5293 5294 0
-5294 5316 0
-506 -5294 5295 0
-5295 5317 0
-507 -5295 5296 0
-5296 5318 0
-508 -5296 5297 0
-5297 5319 0
-509 -5297 5298 0
-5298 5320 0
-510 -5298 5299 0
-5299 5321 0
-511 -5299 5300 0
-5300 5322 0
-512 -5300 0
-491 5301 0
-5301 5323 0
-492 -5301 5302 0
-5302 5324 0
-493 -5302 5303 0
-5303 5325 0
-494 -5303 5304 0
-5304 5326 0
-495 -5304 5305 0
-5305 5327 0
-496 -5305 5306 0
-5306 5328 0
-497 -5306 5307 0
-5307 5329 0
-498 -5307 5308 0
-5308 5330 0
-499 -5308 5309 0
-5309 5331 0
-500 -5309 5310 0
-5310 5332 0
-501 -5310 5311 0
-5311 5333 0
-502 -5311 5312 0
-5312 5334 0
-503 -5312 5313 0
-5313 5335 0
-504 -5313 5314 0
-5314 5336 0
-505 -5314 5315 0
-5315 5337 0
-506 -5315 5316 0
-5316 5338 0
-507 -5316 5317 0
-5317 5339 0
-508 -5317 5318 0
-5318 5340 0
-509 -5318 5319 0
-5319 5341 0
-510 -5319 5320 0
-5320 5342 0
-511 -5320 5321 0
-5321 5343 0
-512 -5321 5322 0
-5322 5344 0
-513 -5322 0
-492 5323 0
-5323 5345 0
-493 -5323 5324 0
-5324 5346 0
-494 -5324 5325 0
-5325 5347 0
-495 -5325 5326 0
-5326 5348 0
-496 -5326 5327 0
-5327 5349 0
-497 -5327 5328 0
-5328 5350 0
-498 -5328 5329 0
-5329 5351 0
-499 -5329 5330 0
-5330 5352 0
-500 -5330 5331 0
-5331 5353 0
-501 -5331 5332 0
-5332 5354 0
-502 -5332 5333 0
-5333 5355 0
-503 -5333 5334 0
-5334 5356 0
-504 -5334 5335 0
-5335 5357 0
-505 -5335 5336 0
-5336 5358 0
-506 -5336 5337 0
-5337 5359 0
-507 -5337 5338 0
-5338 5360 0
-508 -5338 5339 0
-5339 5361 0
-509 -5339 5340 0
-5340 5362 0
-510 -5340 5341 0
-5341 5363 0
-511 -5341 5342 0
-5342 5364 0
-512 -5342 5343 0
-5343 5365 0
-513 -5343 5344 0
-5344 5366 0
-514 -5344 0
-493 5345 0
-5345 5367 0
-494 -5345 5346 0
-5346 5368 0
-495 -5346 5347 0
-5347 5369 0
-496 -5347 5348 0
-5348 5370 0
-497 -5348 5349 0
-5349 5371 0
-498 -5349 5350 0
-5350 5372 0
-499 -5350 5351 0
-5351 5373 0
-500 -5351 5352 0
-5352 5374 0
-501 -5352 5353 0
-5353 5375 0
-502 -5353 5354 0
-5354 5376 0
-503 -5354 5355 0
-5355 5377 0
-504 -5355 5356 0
-5356 5378 0
-505 -5356 5357 0
-5357 5379 0
-506 -5357 5358 0
-5358 5380 0
-507 -5358 5359 0
-5359 5381 0
-508 -5359 5360 0
-5360 5382 0
-509 -5360 5361 0
-5361 5383 0
-510 -5361 5362 0
-5362 5384 0
-511 -5362 5363 0
-5363 5385 0
-512 -5363 5364 0
-5364 5386 0
-513 -5364 5365 0
-5365 5387 0
-514 -5365 5366 0
-5366 5388 0
-515 -5366 0
-494 5367 0
-5367 5389 0
-495 -5367 5368 0
-5368 5390 0
-496 -5368 5369 0
-5369 5391 0
-497 -5369 5370 0
-5370 5392 0
-498 -5370 5371 0
-5371 5393 0
-499 -5371 5372 0
-5372 5394 0
-500 -5372 5373 0
-5373 5395 0
-501 -5373 5374 0
-5374 5396 0
-502 -5374 5375 0
-5375 5397 0
-503 -5375 5376 0
-5376 5398 0
-504 -5376 5377 0
-5377 5399 0
-505 -5377 5378 0
-5378 5400 0
-506 -5378 5379 0
-5379 5401 0
-507 -5379 5380 0
-5380 5402 0
-508 -5380 5381 0
-5381 5403 0
-509 -5381 5382 0
-5382 5404 0
-510 -5382 5383 0
-5383 5405 0
-511 -5383 5384 0
-5384 5406 0
-512 -5384 5385 0
-5385 5407 0
-513 -5385 5386 0
-5386 5408 0
-514 -5386 5387 0
-5387 5409 0
-515 -5387 5388 0
-5388 5410 0
-516 -5388 0
-495 5389 0
-5389 5411 0
-496 -5389 5390 0
-5390 5412 0
-497 -5390 5391 0
-5391 5413 0
-498 -5391 5392 0
-5392 5414 0
-499 -5392 5393 0
-5393 5415 0
-500 -5393 5394 0
-5394 5416 0
-501 -5394 5395 0
-5395 5417 0
-502 -5395 5396 0
-5396 5418 0
-503 -5396 5397 0
-5397 5419 0
-504 -5397 5398 0
-5398 5420 0
-505 -5398 5399 0
-5399 5421 0
-506 -5399 5400 0
-5400 5422 0
-507 -5400 5401 0
-5401 5423 0
-508 -5401 5402 0
-5402 5424 0
-509 -5402 5403 0
-5403 5425 0
-510 -5403 5404 0
-5404 5426 0
-511 -5404 5405 0
-5405 5427 0
-512 -5405 5406 0
-5406 5428 0
-513 -5406 5407 0
-5407 5429 0
-514 -5407 5408 0
-5408 5430 0
-515 -5408 5409 0
-5409 5431 0
-516 -5409 5410 0
-5410 5432 0
-517 -5410 0
-496 5411 0
-5411 5433 0
-497 -5411 5412 0
-5412 5434 0
-498 -5412 5413 0
-5413 5435 0
-499 -5413 5414 0
-5414 5436 0
-500 -5414 5415 0
-5415 5437 0
-501 -5415 5416 0
-5416 5438 0
-502 -5416 5417 0
-5417 5439 0
-503 -5417 5418 0
-5418 5440 0
-504 -5418 5419 0
-5419 5441 0
-505 -5419 5420 0
-5420 5442 0
-506 -5420 5421 0
-5421 5443 0
-507 -5421 5422 0
-5422 5444 0
-508 -5422 5423 0
-5423 5445 0
-509 -5423 5424 0
-5424 5446 0
-510 -5424 5425 0
-5425 5447 0
-511 -5425 5426 0
-5426 5448 0
-512 -5426 5427 0
-5427 5449 0
-513 -5427 5428 0
-5428 5450 0
-514 -5428 5429 0
-5429 5451 0
-515 -5429 5430 0
-5430 5452 0
-516 -5430 5431 0
-5431 5453 0
-517 -5431 5432 0
-5432 5454 0
-518 -5432 0
-497 5433 0
-5433 5455 0
-498 -5433 5434 0
-5434 5456 0
-499 -5434 5435 0
-5435 5457 0
-500 -5435 5436 0
-5436 5458 0
-501 -5436 5437 0
-5437 5459 0
-502 -5437 5438 0
-5438 5460 0
-503 -5438 5439 0
-5439 5461 0
-504 -5439 5440 0
-5440 5462 0
-505 -5440 5441 0
-5441 5463 0
-506 -5441 5442 0
-5442 5464 0
-507 -5442 5443 0
-5443 5465 0
-508 -5443 5444 0
-5444 5466 0
-509 -5444 5445 0
-5445 5467 0
-510 -5445 5446 0
-5446 5468 0
-511 -5446 5447 0
-5447 5469 0
-512 -5447 5448 0
-5448 5470 0
-513 -5448 5449 0
-5449 5471 0
-514 -5449 5450 0
-5450 5472 0
-515 -5450 5451 0
-5451 5473 0
-516 -5451 5452 0
-5452 5474 0
-517 -5452 5453 0
-5453 5475 0
-518 -5453 5454 0
-5454 5476 0
-519 -5454 0
-498 5455 0
-5455 5477 0
-499 -5455 5456 0
-5456 5478 0
-500 -5456 5457 0
-5457 5479 0
-501 -5457 5458 0
-5458 5480 0
-502 -5458 5459 0
-5459 5481 0
-503 -5459 5460 0
-5460 5482 0
-504 -5460 5461 0
-5461 5483 0
-505 -5461 5462 0
-5462 5484 0
-506 -5462 5463 0
-5463 5485 0
-507 -5463 5464 0
-5464 5486 0
-508 -5464 5465 0
-5465 5487 0
-509 -5465 5466 0
-5466 5488 0
-510 -5466 5467 0
-5467 5489 0
-511 -5467 5468 0
-5468 5490 0
-512 -5468 5469 0
-5469 5491 0
-513 -5469 5470 0
-5470 5492 0
-514 -5470 5471 0
-5471 5493 0
-515 -5471 5472 0
-5472 5494 0
-516 -5472 5473 0
-5473 5495 0
-517 -5473 5474 0
-5474 5496 0
-518 -5474 5475 0
-5475 5497 0
-519 -5475 5476 0
-5476 5498 0
-520 -5476 0
-499 5477 0
-5477 5499 0
-500 -5477 5478 0
-5478 5500 0
-501 -5478 5479 0
-5479 5501 0
-502 -5479 5480 0
-5480 5502 0
-503 -5480 5481 0
-5481 5503 0
-504 -5481 5482 0
-5482 5504 0
-505 -5482 5483 0
-5483 5505 0
-506 -5483 5484 0
-5484 5506 0
-507 -5484 5485 0
-5485 5507 0
-508 -5485 5486 0
-5486 5508 0
-509 -5486 5487 0
-5487 5509 0
-510 -5487 5488 0
-5488 5510 0
-511 -5488 5489 0
-5489 5511 0
-512 -5489 5490 0
-5490 5512 0
-513 -5490 5491 0
-5491 5513 0
-514 -5491 5492 0
-5492 5514 0
-515 -5492 5493 0
-5493 5515 0
-516 -5493 5494 0
-5494 5516 0
-517 -5494 5495 0
-5495 5517 0
-518 -5495 5496 0
-5496 5518 0
-519 -5496 5497 0
-5497 5519 0
-520 -5497 5498 0
-5498 5520 0
-521 -5498 0
-500 5499 0
-5499 5521 0
-501 -5499 5500 0
-5500 5522 0
-502 -5500 5501 0
-5501 5523 0
-503 -5501 5502 0
-5502 5524 0
-504 -5502 5503 0
-5503 5525 0
-505 -5503 5504 0
-5504 5526 0
-506 -5504 5505 0
-5505 5527 0
-507 -5505 5506 0
-5506 5528 0
-508 -5506 5507 0
-5507 5529 0
-509 -5507 5508 0
-5508 5530 0
-510 -5508 5509 0
-5509 5531 0
-511 -5509 5510 0
-5510 5532 0
-512 -5510 5511 0
-5511 5533 0
-513 -5511 5512 0
-5512 5534 0
-514 -5512 5513 0
-5513 5535 0
-515 -5513 5514 0
-5514 5536 0
-516 -5514 5515 0
-5515 5537 0
-517 -5515 5516 0
-5516 5538 0
-518 -5516 5517 0
-5517 5539 0
-519 -5517 5518 0
-5518 5540 0
-520 -5518 5519 0
-5519 5541 0
-521 -5519 5520 0
-5520 5542 0
-522 -5520 0
-501 5521 0
-5521 5543 0
-502 -5521 5522 0
-5522 5544 0
-503 -5522 5523 0
-5523 5545 0
-504 -5523 5524 0
-5524 5546 0
-505 -5524 5525 0
-5525 5547 0
-506 -5525 5526 0
-5526 5548 0
-507 -5526 5527 0
-5527 5549 0
-508 -5527 5528 0
-5528 5550 0
-509 -5528 5529 0
-5529 5551 0
-510 -5529 5530 0
-5530 5552 0
-511 -5530 5531 0
-5531 5553 0
-512 -5531 5532 0
-5532 5554 0
-513 -5532 5533 0
-5533 5555 0
-514 -5533 5534 0
-5534 5556 0
-515 -5534 5535 0
-5535 5557 0
-516 -5535 5536 0
-5536 5558 0
-517 -5536 5537 0
-5537 5559 0
-518 -5537 5538 0
-5538 5560 0
-519 -5538 5539 0
-5539 5561 0
-520 -5539 5540 0
-5540 5562 0
-521 -5540 5541 0
-5541 5563 0
-522 -5541 5542 0
-5542 5564 0
-523 -5542 0
-502 5543 0
-5543 5565 0
-503 -5543 5544 0
-5544 5566 0
-504 -5544 5545 0
-5545 5567 0
-505 -5545 5546 0
-5546 5568 0
-506 -5546 5547 0
-5547 5569 0
-507 -5547 5548 0
-5548 5570 0
-508 -5548 5549 0
-5549 5571 0
-509 -5549 5550 0
-5550 5572 0
-510 -5550 5551 0
-5551 5573 0
-511 -5551 5552 0
-5552 5574 0
-512 -5552 5553 0
-5553 5575 0
-513 -5553 5554 0
-5554 5576 0
-514 -5554 5555 0
-5555 5577 0
-515 -5555 5556 0
-5556 5578 0
-516 -5556 5557 0
-5557 5579 0
-517 -5557 5558 0
-5558 5580 0
-518 -5558 5559 0
-5559 5581 0
-519 -5559 5560 0
-5560 5582 0
-520 -5560 5561 0
-5561 5583 0
-521 -5561 5562 0
-5562 5584 0
-522 -5562 5563 0
-5563 5585 0
-523 -5563 5564 0
-5564 5586 0
-524 -5564 0
-503 5565 0
-5565 5587 0
-504 -5565 5566 0
-5566 5588 0
-505 -5566 5567 0
-5567 5589 0
-506 -5567 5568 0
-5568 5590 0
-507 -5568 5569 0
-5569 5591 0
-508 -5569 5570 0
-5570 5592 0
-509 -5570 5571 0
-5571 5593 0
-510 -5571 5572 0
-5572 5594 0
-511 -5572 5573 0
-5573 5595 0
-512 -5573 5574 0
-5574 5596 0
-513 -5574 5575 0
-5575 5597 0
-514 -5575 5576 0
-5576 5598 0
-515 -5576 5577 0
-5577 5599 0
-516 -5577 5578 0
-5578 5600 0
-517 -5578 5579 0
-5579 5601 0
-518 -5579 5580 0
-5580 5602 0
-519 -5580 5581 0
-5581 5603 0
-520 -5581 5582 0
-5582 5604 0
-521 -5582 5583 0
-5583 5605 0
-522 -5583 5584 0
-5584 5606 0
-523 -5584 5585 0
-5585 5607 0
-524 -5585 5586 0
-5586 5608 0
-525 -5586 0
-504 5587 0
-5587 5609 0
-505 -5587 5588 0
-5588 5610 0
-506 -5588 5589 0
-5589 5611 0
-507 -5589 5590 0
-5590 5612 0
-508 -5590 5591 0
-5591 5613 0
-509 -5591 5592 0
-5592 5614 0
-510 -5592 5593 0
-5593 5615 0
-511 -5593 5594 0
-5594 5616 0
-512 -5594 5595 0
-5595 5617 0
-513 -5595 5596 0
-5596 5618 0
-514 -5596 5597 0
-5597 5619 0
-515 -5597 5598 0
-5598 5620 0
-516 -5598 5599 0
-5599 5621 0
-517 -5599 5600 0
-5600 5622 0
-518 -5600 5601 0
-5601 5623 0
-519 -5601 5602 0
-5602 5624 0
-520 -5602 5603 0
-5603 5625 0
-521 -5603 5604 0
-5604 5626 0
-522 -5604 5605 0
-5605 5627 0
-523 -5605 5606 0
-5606 5628 0
-524 -5606 5607 0
-5607 5629 0
-525 -5607 5608 0
-5608 5630 0
-526 -5608 0
-505 5609 0
-5609 5631 0
-506 -5609 5610 0
-5610 5632 0
-507 -5610 5611 0
-5611 5633 0
-508 -5611 5612 0
-5612 5634 0
-509 -5612 5613 0
-5613 5635 0
-510 -5613 5614 0
-5614 5636 0
-511 -5614 5615 0
-5615 5637 0
-512 -5615 5616 0
-5616 5638 0
-513 -5616 5617 0
-5617 5639 0
-514 -5617 5618 0
-5618 5640 0
-515 -5618 5619 0
-5619 5641 0
-516 -5619 5620 0
-5620 5642 0
-517 -5620 5621 0
-5621 5643 0
-518 -5621 5622 0
-5622 5644 0
-519 -5622 5623 0
-5623 5645 0
-520 -5623 5624 0
-5624 5646 0
-521 -5624 5625 0
-5625 5647 0
-522 -5625 5626 0
-5626 5648 0
-523 -5626 5627 0
-5627 5649 0
-524 -5627 5628 0
-5628 5650 0
-525 -5628 5629 0
-5629 5651 0
-526 -5629 5630 0
-5630 5652 0
-527 -5630 0
-506 5631 0
-5631 5653 0
-507 -5631 5632 0
-5632 5654 0
-508 -5632 5633 0
-5633 5655 0
-509 -5633 5634 0
-5634 5656 0
-510 -5634 5635 0
-5635 5657 0
-511 -5635 5636 0
-5636 5658 0
-512 -5636 5637 0
-5637 5659 0
-513 -5637 5638 0
-5638 5660 0
-514 -5638 5639 0
-5639 5661 0
-515 -5639 5640 0
-5640 5662 0
-516 -5640 5641 0
-5641 5663 0
-517 -5641 5642 0
-5642 5664 0
-518 -5642 5643 0
-5643 5665 0
-519 -5643 5644 0
-5644 5666 0
-520 -5644 5645 0
-5645 5667 0
-521 -5645 5646 0
-5646 5668 0
-522 -5646 5647 0
-5647 5669 0
-523 -5647 5648 0
-5648 5670 0
-524 -5648 5649 0
-5649 5671 0
-525 -5649 5650 0
-5650 5672 0
-526 -5650 5651 0
-5651 5673 0
-527 -5651 5652 0
-5652 5674 0
-528 -5652 0
-507 5653 0
-5653 5675 0
-508 -5653 5654 0
-5654 5676 0
-509 -5654 5655 0
-5655 5677 0
-510 -5655 5656 0
-5656 5678 0
-511 -5656 5657 0
-5657 5679 0
-512 -5657 5658 0
-5658 5680 0
-513 -5658 5659 0
-5659 5681 0
-514 -5659 5660 0
-5660 5682 0
-515 -5660 5661 0
-5661 5683 0
-516 -5661 5662 0
-5662 5684 0
-517 -5662 5663 0
-5663 5685 0
-518 -5663 5664 0
-5664 5686 0
-519 -5664 5665 0
-5665 5687 0
-520 -5665 5666 0
-5666 5688 0
-521 -5666 5667 0
-5667 5689 0
-522 -5667 5668 0
-5668 5690 0
-523 -5668 5669 0
-5669 5691 0
-524 -5669 5670 0
-5670 5692 0
-525 -5670 5671 0
-5671 5693 0
-526 -5671 5672 0
-5672 5694 0
-527 -5672 5673 0
-5673 5695 0
-528 -5673 5674 0
-5674 5696 0
-529 -5674 0
-508 5675 0
-5675 5697 0
-509 -5675 5676 0
-5676 5698 0
-510 -5676 5677 0
-5677 5699 0
-511 -5677 5678 0
-5678 5700 0
-512 -5678 5679 0
-5679 5701 0
-513 -5679 5680 0
-5680 5702 0
-514 -5680 5681 0
-5681 5703 0
-515 -5681 5682 0
-5682 5704 0
-516 -5682 5683 0
-5683 5705 0
-517 -5683 5684 0
-5684 5706 0
-518 -5684 5685 0
-5685 5707 0
-519 -5685 5686 0
-5686 5708 0
-520 -5686 5687 0
-5687 5709 0
-521 -5687 5688 0
-5688 5710 0
-522 -5688 5689 0
-5689 5711 0
-523 -5689 5690 0
-5690 5712 0
-524 -5690 5691 0
-5691 5713 0
-525 -5691 5692 0
-5692 5714 0
-526 -5692 5693 0
-5693 5715 0
-527 -5693 5694 0
-5694 5716 0
-528 -5694 5695 0
-5695 5717 0
-529 -5695 5696 0
-5696 5718 0
-530 -5696 0
-509 5697 0
-5697 5719 0
-510 -5697 5698 0
-5698 5720 0
-511 -5698 5699 0
-5699 5721 0
-512 -5699 5700 0
-5700 5722 0
-513 -5700 5701 0
-5701 5723 0
-514 -5701 5702 0
-5702 5724 0
-515 -5702 5703 0
-5703 5725 0
-516 -5703 5704 0
-5704 5726 0
-517 -5704 5705 0
-5705 5727 0
-518 -5705 5706 0
-5706 5728 0
-519 -5706 5707 0
-5707 5729 0
-520 -5707 5708 0
-5708 5730 0
-521 -5708 5709 0
-5709 5731 0
-522 -5709 5710 0
-5710 5732 0
-523 -5710 5711 0
-5711 5733 0
-524 -5711 5712 0
-5712 5734 0
-525 -5712 5713 0
-5713 5735 0
-526 -5713 5714 0
-5714 5736 0
-527 -5714 5715 0
-5715 5737 0
-528 -5715 5716 0
-5716 5738 0
-529 -5716 5717 0
-5717 5739 0
-530 -5717 5718 0
-5718 5740 0
-531 -5718 0
-510 5719 0
-5719 5741 0
-511 -5719 5720 0
-5720 5742 0
-512 -5720 5721 0
-5721 5743 0
-513 -5721 5722 0
-5722 5744 0
-514 -5722 5723 0
-5723 5745 0
-515 -5723 5724 0
-5724 5746 0
-516 -5724 5725 0
-5725 5747 0
-517 -5725 5726 0
-5726 5748 0
-518 -5726 5727 0
-5727 5749 0
-519 -5727 5728 0
-5728 5750 0
-520 -5728 5729 0
-5729 5751 0
-521 -5729 5730 0
-5730 5752 0
-522 -5730 5731 0
-5731 5753 0
-523 -5731 5732 0
-5732 5754 0
-524 -5732 5733 0
-5733 5755 0
-525 -5733 5734 0
-5734 5756 0
-526 -5734 5735 0
-5735 5757 0
-527 -5735 5736 0
-5736 5758 0
-528 -5736 5737 0
-5737 5759 0
-529 -5737 5738 0
-5738 5760 0
-530 -5738 5739 0
-5739 5761 0
-531 -5739 5740 0
-5740 5762 0
-532 -5740 0
-511 5741 0
-5741 5763 0
-512 -5741 5742 0
-5742 5764 0
-513 -5742 5743 0
-5743 5765 0
-514 -5743 5744 0
-5744 5766 0
-515 -5744 5745 0
-5745 5767 0
-516 -5745 5746 0
-5746 5768 0
-517 -5746 5747 0
-5747 5769 0
-518 -5747 5748 0
-5748 5770 0
-519 -5748 5749 0
-5749 5771 0
-520 -5749 5750 0
-5750 5772 0
-521 -5750 5751 0
-5751 5773 0
-522 -5751 5752 0
-5752 5774 0
-523 -5752 5753 0
-5753 5775 0
-524 -5753 5754 0
-5754 5776 0
-525 -5754 5755 0
-5755 5777 0
-526 -5755 5756 0
-5756 5778 0
-527 -5756 5757 0
-5757 5779 0
-528 -5757 5758 0
-5758 5780 0
-529 -5758 5759 0
-5759 5781 0
-530 -5759 5760 0
-5760 5782 0
-531 -5760 5761 0
-5761 5783 0
-532 -5761 5762 0
-5762 5784 0
-533 -5762 0
-512 5763 0
-5763 5785 0
-513 -5763 5764 0
-5764 5786 0
-514 -5764 5765 0
-5765 5787 0
-515 -5765 5766 0
-5766 5788 0
-516 -5766 5767 0
-5767 5789 0
-517 -5767 5768 0
-5768 5790 0
-518 -5768 5769 0
-5769 5791 0
-519 -5769 5770 0
-5770 5792 0
-520 -5770 5771 0
-5771 5793 0
-521 -5771 5772 0
-5772 5794 0
-522 -5772 5773 0
-5773 5795 0
-523 -5773 5774 0
-5774 5796 0
-524 -5774 5775 0
-5775 5797 0
-525 -5775 5776 0
-5776 5798 0
-526 -5776 5777 0
-5777 5799 0
-527 -5777 5778 0
-5778 5800 0
-528 -5778 5779 0
-5779 5801 0
-529 -5779 5780 0
-5780 5802 0
-530 -5780 5781 0
-5781 5803 0
-531 -5781 5782 0
-5782 5804 0
-532 -5782 5783 0
-5783 5805 0
-533 -5783 5784 0
-5784 5806 0
-534 -5784 0
-513 5785 0
-5785 5807 0
-514 -5785 5786 0
-5786 5808 0
-515 -5786 5787 0
-5787 5809 0
-516 -5787 5788 0
-5788 5810 0
-517 -5788 5789 0
-5789 5811 0
-518 -5789 5790 0
-5790 5812 0
-519 -5790 5791 0
-5791 5813 0
-520 -5791 5792 0
-5792 5814 0
-521 -5792 5793 0
-5793 5815 0
-522 -5793 5794 0
-5794 5816 0
-523 -5794 5795 0
-5795 5817 0
-524 -5795 5796 0
-5796 5818 0
-525 -5796 5797 0
-5797 5819 0
-526 -5797 5798 0
-5798 5820 0
-527 -5798 5799 0
-5799 5821 0
-528 -5799 5800 0
-5800 5822 0
-529 -5800 5801 0
-5801 5823 0
-530 -5801 5802 0
-5802 5824 0
-531 -5802 5803 0
-5803 5825 0
-532 -5803 5804 0
-5804 5826 0
-533 -5804 5805 0
-5805 5827 0
-534 -5805 5806 0
-5806 5828 0
-535 -5806 0
-514 5807 0
-5807 5829 0
-515 -5807 5808 0
-5808 5830 0
-516 -5808 5809 0
-5809 5831 0
-517 -5809 5810 0
-5810 5832 0
-518 -5810 5811 0
-5811 5833 0
-519 -5811 5812 0
-5812 5834 0
-520 -5812 5813 0
-5813 5835 0
-521 -5813 5814 0
-5814 5836 0
-522 -5814 5815 0
-5815 5837 0
-523 -5815 5816 0
-5816 5838 0
-524 -5816 5817 0
-5817 5839 0
-525 -5817 5818 0
-5818 5840 0
-526 -5818 5819 0
-5819 5841 0
-527 -5819 5820 0
-5820 5842 0
-528 -5820 5821 0
-5821 5843 0
-529 -5821 5822 0
-5822 5844 0
-530 -5822 5823 0
-5823 5845 0
-531 -5823 5824 0
-5824 5846 0
-532 -5824 5825 0
-5825 5847 0
-533 -5825 5826 0
-5826 5848 0
-534 -5826 5827 0
-5827 5849 0
-535 -5827 5828 0
-5828 5850 0
-536 -5828 0
-515 5829 0
-5829 5851 0
-516 -5829 5830 0
-5830 5852 0
-517 -5830 5831 0
-5831 5853 0
-518 -5831 5832 0
-5832 5854 0
-519 -5832 5833 0
-5833 5855 0
-520 -5833 5834 0
-5834 5856 0
-521 -5834 5835 0
-5835 5857 0
-522 -5835 5836 0
-5836 5858 0
-523 -5836 5837 0
-5837 5859 0
-524 -5837 5838 0
-5838 5860 0
-525 -5838 5839 0
-5839 5861 0
-526 -5839 5840 0
-5840 5862 0
-527 -5840 5841 0
-5841 5863 0
-528 -5841 5842 0
-5842 5864 0
-529 -5842 5843 0
-5843 5865 0
-530 -5843 5844 0
-5844 5866 0
-531 -5844 5845 0
-5845 5867 0
-532 -5845 5846 0
-5846 5868 0
-533 -5846 5847 0
-5847 5869 0
-534 -5847 5848 0
-5848 5870 0
-535 -5848 5849 0
-5849 5871 0
-536 -5849 5850 0
-5850 5872 0
-537 -5850 0
-516 5851 0
-5851 5873 0
-517 -5851 5852 0
-5852 5874 0
-518 -5852 5853 0
-5853 5875 0
-519 -5853 5854 0
-5854 5876 0
-520 -5854 5855 0
-5855 5877 0
-521 -5855 5856 0
-5856 5878 0
-522 -5856 5857 0
-5857 5879 0
-523 -5857 5858 0
-5858 5880 0
-524 -5858 5859 0
-5859 5881 0
-525 -5859 5860 0
-5860 5882 0
-526 -5860 5861 0
-5861 5883 0
-527 -5861 5862 0
-5862 5884 0
-528 -5862 5863 0
-5863 5885 0
-529 -5863 5864 0
-5864 5886 0
-530 -5864 5865 0
-5865 5887 0
-531 -5865 5866 0
-5866 5888 0
-532 -5866 5867 0
-5867 5889 0
-533 -5867 5868 0
-5868 5890 0
-534 -5868 5869 0
-5869 5891 0
-535 -5869 5870 0
-5870 5892 0
-536 -5870 5871 0
-5871 5893 0
-537 -5871 5872 0
-5872 5894 0
-538 -5872 0
-517 5873 0
-5873 5895 0
-518 -5873 5874 0
-5874 5896 0
-519 -5874 5875 0
-5875 5897 0
-520 -5875 5876 0
-5876 5898 0
-521 -5876 5877 0
-5877 5899 0
-522 -5877 5878 0
-5878 5900 0
-523 -5878 5879 0
-5879 5901 0
-524 -5879 5880 0
-5880 5902 0
-525 -5880 5881 0
-5881 5903 0
-526 -5881 5882 0
-5882 5904 0
-527 -5882 5883 0
-5883 5905 0
-528 -5883 5884 0
-5884 5906 0
-529 -5884 5885 0
-5885 5907 0
-530 -5885 5886 0
-5886 5908 0
-531 -5886 5887 0
-5887 5909 0
-532 -5887 5888 0
-5888 5910 0
-533 -5888 5889 0
-5889 5911 0
-534 -5889 5890 0
-5890 5912 0
-535 -5890 5891 0
-5891 5913 0
-536 -5891 5892 0
-5892 5914 0
-537 -5892 5893 0
-5893 5915 0
-538 -5893 5894 0
-5894 5916 0
-539 -5894 0
-518 5895 0
-5895 5917 0
-519 -5895 5896 0
-5896 5918 0
-520 -5896 5897 0
-5897 5919 0
-521 -5897 5898 0
-5898 5920 0
-522 -5898 5899 0
-5899 5921 0
-523 -5899 5900 0
-5900 5922 0
-524 -5900 5901 0
-5901 5923 0
-525 -5901 5902 0
-5902 5924 0
-526 -5902 5903 0
-5903 5925 0
-527 -5903 5904 0
-5904 5926 0
-528 -5904 5905 0
-5905 5927 0
-529 -5905 5906 0
-5906 5928 0
-530 -5906 5907 0
-5907 5929 0
-531 -5907 5908 0
-5908 5930 0
-532 -5908 5909 0
-5909 5931 0
-533 -5909 5910 0
-5910 5932 0
-534 -5910 5911 0
-5911 5933 0
-535 -5911 5912 0
-5912 5934 0
-536 -5912 5913 0
-5913 5935 0
-537 -5913 5914 0
-5914 5936 0
-538 -5914 5915 0
-5915 5937 0
-539 -5915 5916 0
-5916 5938 0
-540 -5916 0
-519 5917 0
-5917 5939 0
-520 -5917 5918 0
-5918 5940 0
-521 -5918 5919 0
-5919 5941 0
-522 -5919 5920 0
-5920 5942 0
-523 -5920 5921 0
-5921 5943 0
-524 -5921 5922 0
-5922 5944 0
-525 -5922 5923 0
-5923 5945 0
-526 -5923 5924 0
-5924 5946 0
-527 -5924 5925 0
-5925 5947 0
-528 -5925 5926 0
-5926 5948 0
-529 -5926 5927 0
-5927 5949 0
-530 -5927 5928 0
-5928 5950 0
-531 -5928 5929 0
-5929 5951 0
-532 -5929 5930 0
-5930 5952 0
-533 -5930 5931 0
-5931 5953 0
-534 -5931 5932 0
-5932 5954 0
-535 -5932 5933 0
-5933 5955 0
-536 -5933 5934 0
-5934 5956 0
-537 -5934 5935 0
-5935 5957 0
-538 -5935 5936 0
-5936 5958 0
-539 -5936 5937 0
-5937 5959 0
-540 -5937 5938 0
-5938 5960 0
-541 -5938 0
-520 5939 0
-5939 5961 0
-521 -5939 5940 0
-5940 5962 0
-522 -5940 5941 0
-5941 5963 0
-523 -5941 5942 0
-5942 5964 0
-524 -5942 5943 0
-5943 5965 0
-525 -5943 5944 0
-5944 5966 0
-526 -5944 5945 0
-5945 5967 0
-527 -5945 5946 0
-5946 5968 0
-528 -5946 5947 0
-5947 5969 0
-529 -5947 5948 0
-5948 5970 0
-530 -5948 5949 0
-5949 5971 0
-531 -5949 5950 0
-5950 5972 0
-532 -5950 5951 0
-5951 5973 0
-533 -5951 5952 0
-5952 5974 0
-534 -5952 5953 0
-5953 5975 0
-535 -5953 5954 0
-5954 5976 0
-536 -5954 5955 0
-5955 5977 0
-537 -5955 5956 0
-5956 5978 0
-538 -5956 5957 0
-5957 5979 0
-539 -5957 5958 0
-5958 5980 0
-540 -5958 5959 0
-5959 5981 0
-541 -5959 5960 0
-5960 5982 0
-542 -5960 0
-521 5961 0
-5961 5983 0
-522 -5961 5962 0
-5962 5984 0
-523 -5962 5963 0
-5963 5985 0
-524 -5963 5964 0
-5964 5986 0
-525 -5964 5965 0
-5965 5987 0
-526 -5965 5966 0
-5966 5988 0
-527 -5966 5967 0
-5967 5989 0
-528 -5967 5968 0
-5968 5990 0
-529 -5968 5969 0
-5969 5991 0
-530 -5969 5970 0
-5970 5992 0
-531 -5970 5971 0
-5971 5993 0
-532 -5971 5972 0
-5972 5994 0
-533 -5972 5973 0
-5973 5995 0
-534 -5973 5974 0
-5974 5996 0
-535 -5974 5975 0
-5975 5997 0
-536 -5975 5976 0
-5976 5998 0
-537 -5976 5977 0
-5977 5999 0
-538 -5977 5978 0
-5978 6000 0
-539 -5978 5979 0
-5979 6001 0
-540 -5979 5980 0
-5980 6002 0
-541 -5980 5981 0
-5981 6003 0
-542 -5981 5982 0
-5982 6004 0
-543 -5982 0
-522 5983 0
-5983 6005 0
-523 -5983 5984 0
-5984 6006 0
-524 -5984 5985 0
-5985 6007 0
-525 -5985 5986 0
-5986 6008 0
-526 -5986 5987 0
-5987 6009 0
-527 -5987 5988 0
-5988 6010 0
-528 -5988 5989 0
-5989 6011 0
-529 -5989 5990 0
-5990 6012 0
-530 -5990 5991 0
-5991 6013 0
-531 -5991 5992 0
-5992 6014 0
-532 -5992 5993 0
-5993 6015 0
-533 -5993 5994 0
-5994 6016 0
-534 -5994 5995 0
-5995 6017 0
-535 -5995 5996 0
-5996 6018 0
-536 -5996 5997 0
-5997 6019 0
-537 -5997 5998 0
-5998 6020 0
-538 -5998 5999 0
-5999 6021 0
-539 -5999 6000 0
-6000 6022 0
-540 -6000 6001 0
-6001 6023 0
-541 -6001 6002 0
-6002 6024 0
-542 -6002 6003 0
-6003 6025 0
-543 -6003 6004 0
-6004 6026 0
-544 -6004 0
-523 6005 0
-6005 6027 0
-524 -6005 6006 0
-6006 6028 0
-525 -6006 6007 0
-6007 6029 0
-526 -6007 6008 0
-6008 6030 0
-527 -6008 6009 0
-6009 6031 0
-528 -6009 6010 0
-6010 6032 0
-529 -6010 6011 0
-6011 6033 0
-530 -6011 6012 0
-6012 6034 0
-531 -6012 6013 0
-6013 6035 0
-532 -6013 6014 0
-6014 6036 0
-533 -6014 6015 0
-6015 6037 0
-534 -6015 6016 0
-6016 6038 0
-535 -6016 6017 0
-6017 6039 0
-536 -6017 6018 0
-6018 6040 0
-537 -6018 6019 0
-6019 6041 0
-538 -6019 6020 0
-6020 6042 0
-539 -6020 6021 0
-6021 6043 0
-540 -6021 6022 0
-6022 6044 0
-541 -6022 6023 0
-6023 6045 0
-542 -6023 6024 0
-6024 6046 0
-543 -6024 6025 0
-6025 6047 0
-544 -6025 6026 0
-6026 6048 0
-545 -6026 0
-524 6027 0
-6027 6049 0
-525 -6027 6028 0
-6028 6050 0
-526 -6028 6029 0
-6029 6051 0
-527 -6029 6030 0
-6030 6052 0
-528 -6030 6031 0
-6031 6053 0
-529 -6031 6032 0
-6032 6054 0
-530 -6032 6033 0
-6033 6055 0
-531 -6033 6034 0
-6034 6056 0
-532 -6034 6035 0
-6035 6057 0
-533 -6035 6036 0
-6036 6058 0
-534 -6036 6037 0
-6037 6059 0
-535 -6037 6038 0
-6038 6060 0
-536 -6038 6039 0
-6039 6061 0
-537 -6039 6040 0
-6040 6062 0
-538 -6040 6041 0
-6041 6063 0
-539 -6041 6042 0
-6042 6064 0
-540 -6042 6043 0
-6043 6065 0
-541 -6043 6044 0
-6044 6066 0
-542 -6044 6045 0
-6045 6067 0
-543 -6045 6046 0
-6046 6068 0
-544 -6046 6047 0
-6047 6069 0
-545 -6047 6048 0
-6048 6070 0
-546 -6048 0
-525 6049 0
-6049 6071 0
-526 -6049 6050 0
-6050 6072 0
-527 -6050 6051 0
-6051 6073 0
-528 -6051 6052 0
-6052 6074 0
-529 -6052 6053 0
-6053 6075 0
-530 -6053 6054 0
-6054 6076 0
-531 -6054 6055 0
-6055 6077 0
-532 -6055 6056 0
-6056 6078 0
-533 -6056 6057 0
-6057 6079 0
-534 -6057 6058 0
-6058 6080 0
-535 -6058 6059 0
-6059 6081 0
-536 -6059 6060 0
-6060 6082 0
-537 -6060 6061 0
-6061 6083 0
-538 -6061 6062 0
-6062 6084 0
-539 -6062 6063 0
-6063 6085 0
-540 -6063 6064 0
-6064 6086 0
-541 -6064 6065 0
-6065 6087 0
-542 -6065 6066 0
-6066 6088 0
-543 -6066 6067 0
-6067 6089 0
-544 -6067 6068 0
-6068 6090 0
-545 -6068 6069 0
-6069 6091 0
-546 -6069 6070 0
-6070 6092 0
-547 -6070 0
-526 6071 0
-6071 6093 0
-527 -6071 6072 0
-6072 6094 0
-528 -6072 6073 0
-6073 6095 0
-529 -6073 6074 0
-6074 6096 0
-530 -6074 6075 0
-6075 6097 0
-531 -6075 6076 0
-6076 6098 0
-532 -6076 6077 0
-6077 6099 0
-533 -6077 6078 0
-6078 6100 0
-534 -6078 6079 0
-6079 6101 0
-535 -6079 6080 0
-6080 6102 0
-536 -6080 6081 0
-6081 6103 0
-537 -6081 6082 0
-6082 6104 0
-538 -6082 6083 0
-6083 6105 0
-539 -6083 6084 0
-6084 6106 0
-540 -6084 6085 0
-6085 6107 0
-541 -6085 6086 0
-6086 6108 0
-542 -6086 6087 0
-6087 6109 0
-543 -6087 6088 0
-6088 6110 0
-544 -6088 6089 0
-6089 6111 0
-545 -6089 6090 0
-6090 6112 0
-546 -6090 6091 0
-6091 6113 0
-547 -6091 6092 0
-6092 6114 0
-548 -6092 0
-527 6093 0
-6093 6115 0
-528 -6093 6094 0
-6094 6116 0
-529 -6094 6095 0
-6095 6117 0
-530 -6095 6096 0
-6096 6118 0
-531 -6096 6097 0
-6097 6119 0
-532 -6097 6098 0
-6098 6120 0
-533 -6098 6099 0
-6099 6121 0
-534 -6099 6100 0
-6100 6122 0
-535 -6100 6101 0
-6101 6123 0
-536 -6101 6102 0
-6102 6124 0
-537 -6102 6103 0
-6103 6125 0
-538 -6103 6104 0
-6104 6126 0
-539 -6104 6105 0
-6105 6127 0
-540 -6105 6106 0
-6106 6128 0
-541 -6106 6107 0
-6107 6129 0
-542 -6107 6108 0
-6108 6130 0
-543 -6108 6109 0
-6109 6131 0
-544 -6109 6110 0
-6110 6132 0
-545 -6110 6111 0
-6111 6133 0
-546 -6111 6112 0
-6112 6134 0
-547 -6112 6113 0
-6113 6135 0
-548 -6113 6114 0
-6114 6136 0
-549 -6114 0
-528 6115 0
-6115 6137 0
-529 -6115 6116 0
-6116 6138 0
-530 -6116 6117 0
-6117 6139 0
-531 -6117 6118 0
-6118 6140 0
-532 -6118 6119 0
-6119 6141 0
-533 -6119 6120 0
-6120 6142 0
-534 -6120 6121 0
-6121 6143 0
-535 -6121 6122 0
-6122 6144 0
-536 -6122 6123 0
-6123 6145 0
-537 -6123 6124 0
-6124 6146 0
-538 -6124 6125 0
-6125 6147 0
-539 -6125 6126 0
-6126 6148 0
-540 -6126 6127 0
-6127 6149 0
-541 -6127 6128 0
-6128 6150 0
-542 -6128 6129 0
-6129 6151 0
-543 -6129 6130 0
-6130 6152 0
-544 -6130 6131 0
-6131 6153 0
-545 -6131 6132 0
-6132 6154 0
-546 -6132 6133 0
-6133 6155 0
-547 -6133 6134 0
-6134 6156 0
-548 -6134 6135 0
-6135 6157 0
-549 -6135 6136 0
-6136 6158 0
-550 -6136 0
-529 6137 0
-6137 6159 0
-530 -6137 6138 0
-6138 6160 0
-531 -6138 6139 0
-6139 6161 0
-532 -6139 6140 0
-6140 6162 0
-533 -6140 6141 0
-6141 6163 0
-534 -6141 6142 0
-6142 6164 0
-535 -6142 6143 0
-6143 6165 0
-536 -6143 6144 0
-6144 6166 0
-537 -6144 6145 0
-6145 6167 0
-538 -6145 6146 0
-6146 6168 0
-539 -6146 6147 0
-6147 6169 0
-540 -6147 6148 0
-6148 6170 0
-541 -6148 6149 0
-6149 6171 0
-542 -6149 6150 0
-6150 6172 0
-543 -6150 6151 0
-6151 6173 0
-544 -6151 6152 0
-6152 6174 0
-545 -6152 6153 0
-6153 6175 0
-546 -6153 6154 0
-6154 6176 0
-547 -6154 6155 0
-6155 6177 0
-548 -6155 6156 0
-6156 6178 0
-549 -6156 6157 0
-6157 6179 0
-550 -6157 6158 0
-6158 6180 0
-551 -6158 0
-530 6159 0
-6159 6181 0
-531 -6159 6160 0
-6160 6182 0
-532 -6160 6161 0
-6161 6183 0
-533 -6161 6162 0
-6162 6184 0
-534 -6162 6163 0
-6163 6185 0
-535 -6163 6164 0
-6164 6186 0
-536 -6164 6165 0
-6165 6187 0
-537 -6165 6166 0
-6166 6188 0
-538 -6166 6167 0
-6167 6189 0
-539 -6167 6168 0
-6168 6190 0
-540 -6168 6169 0
-6169 6191 0
-541 -6169 6170 0
-6170 6192 0
-542 -6170 6171 0
-6171 6193 0
-543 -6171 6172 0
-6172 6194 0
-544 -6172 6173 0
-6173 6195 0
-545 -6173 6174 0
-6174 6196 0
-546 -6174 6175 0
-6175 6197 0
-547 -6175 6176 0
-6176 6198 0
-548 -6176 6177 0
-6177 6199 0
-549 -6177 6178 0
-6178 6200 0
-550 -6178 6179 0
-6179 6201 0
-551 -6179 6180 0
-6180 6202 0
-552 -6180 0
-531 6181 0
-6181 6203 0
-532 -6181 6182 0
-6182 6204 0
-533 -6182 6183 0
-6183 6205 0
-534 -6183 6184 0
-6184 6206 0
-535 -6184 6185 0
-6185 6207 0
-536 -6185 6186 0
-6186 6208 0
-537 -6186 6187 0
-6187 6209 0
-538 -6187 6188 0
-6188 6210 0
-539 -6188 6189 0
-6189 6211 0
-540 -6189 6190 0
-6190 6212 0
-541 -6190 6191 0
-6191 6213 0
-542 -6191 6192 0
-6192 6214 0
-543 -6192 6193 0
-6193 6215 0
-544 -6193 6194 0
-6194 6216 0
-545 -6194 6195 0
-6195 6217 0
-546 -6195 6196 0
-6196 6218 0
-547 -6196 6197 0
-6197 6219 0
-548 -6197 6198 0
-6198 6220 0
-549 -6198 6199 0
-6199 6221 0
-550 -6199 6200 0
-6200 6222 0
-551 -6200 6201 0
-6201 6223 0
-552 -6201 6202 0
-6202 6224 0
-553 -6202 0
-532 6203 0
-6203 6225 0
-533 -6203 6204 0
-6204 6226 0
-534 -6204 6205 0
-6205 6227 0
-535 -6205 6206 0
-6206 6228 0
-536 -6206 6207 0
-6207 6229 0
-537 -6207 6208 0
-6208 6230 0
-538 -6208 6209 0
-6209 6231 0
-539 -6209 6210 0
-6210 6232 0
-540 -6210 6211 0
-6211 6233 0
-541 -6211 6212 0
-6212 6234 0
-542 -6212 6213 0
-6213 6235 0
-543 -6213 6214 0
-6214 6236 0
-544 -6214 6215 0
-6215 6237 0
-545 -6215 6216 0
-6216 6238 0
-546 -6216 6217 0
-6217 6239 0
-547 -6217 6218 0
-6218 6240 0
-548 -6218 6219 0
-6219 6241 0
-549 -6219 6220 0
-6220 6242 0
-550 -6220 6221 0
-6221 6243 0
-551 -6221 6222 0
-6222 6244 0
-552 -6222 6223 0
-6223 6245 0
-553 -6223 6224 0
-6224 6246 0
-554 -6224 0
-533 6225 0
-6225 6247 0
-534 -6225 6226 0
-6226 6248 0
-535 -6226 6227 0
-6227 6249 0
-536 -6227 6228 0
-6228 6250 0
-537 -6228 6229 0
-6229 6251 0
-538 -6229 6230 0
-6230 6252 0
-539 -6230 6231 0
-6231 6253 0
-540 -6231 6232 0
-6232 6254 0
-541 -6232 6233 0
-6233 6255 0
-542 -6233 6234 0
-6234 6256 0
-543 -6234 6235 0
-6235 6257 0
-544 -6235 6236 0
-6236 6258 0
-545 -6236 6237 0
-6237 6259 0
-546 -6237 6238 0
-6238 6260 0
-547 -6238 6239 0
-6239 6261 0
-548 -6239 6240 0
-6240 6262 0
-549 -6240 6241 0
-6241 6263 0
-550 -6241 6242 0
-6242 6264 0
-551 -6242 6243 0
-6243 6265 0
-552 -6243 6244 0
-6244 6266 0
-553 -6244 6245 0
-6245 6267 0
-554 -6245 6246 0
-6246 6268 0
-555 -6246 0
-534 6247 0
-6247 6269 0
-535 -6247 6248 0
-6248 6270 0
-536 -6248 6249 0
-6249 6271 0
-537 -6249 6250 0
-6250 6272 0
-538 -6250 6251 0
-6251 6273 0
-539 -6251 6252 0
-6252 6274 0
-540 -6252 6253 0
-6253 6275 0
-541 -6253 6254 0
-6254 6276 0
-542 -6254 6255 0
-6255 6277 0
-543 -6255 6256 0
-6256 6278 0
-544 -6256 6257 0
-6257 6279 0
-545 -6257 6258 0
-6258 6280 0
-546 -6258 6259 0
-6259 6281 0
-547 -6259 6260 0
-6260 6282 0
-548 -6260 6261 0
-6261 6283 0
-549 -6261 6262 0
-6262 6284 0
-550 -6262 6263 0
-6263 6285 0
-551 -6263 6264 0
-6264 6286 0
-552 -6264 6265 0
-6265 6287 0
-553 -6265 6266 0
-6266 6288 0
-554 -6266 6267 0
-6267 6289 0
-555 -6267 6268 0
-6268 6290 0
-556 -6268 0
-535 6269 0
-6269 6291 0
-536 -6269 6270 0
-6270 6292 0
-537 -6270 6271 0
-6271 6293 0
-538 -6271 6272 0
-6272 6294 0
-539 -6272 6273 0
-6273 6295 0
-540 -6273 6274 0
-6274 6296 0
-541 -6274 6275 0
-6275 6297 0
-542 -6275 6276 0
-6276 6298 0
-543 -6276 6277 0
-6277 6299 0
-544 -6277 6278 0
-6278 6300 0
-545 -6278 6279 0
-6279 6301 0
-546 -6279 6280 0
-6280 6302 0
-547 -6280 6281 0
-6281 6303 0
-548 -6281 6282 0
-6282 6304 0
-549 -6282 6283 0
-6283 6305 0
-550 -6283 6284 0
-6284 6306 0
-551 -6284 6285 0
-6285 6307 0
-552 -6285 6286 0
-6286 6308 0
-553 -6286 6287 0
-6287 6309 0
-554 -6287 6288 0
-6288 6310 0
-555 -6288 6289 0
-6289 6311 0
-556 -6289 6290 0
-6290 6312 0
-557 -6290 0
-536 6291 0
-6291 6313 0
-537 -6291 6292 0
-6292 6314 0
-538 -6292 6293 0
-6293 6315 0
-539 -6293 6294 0
-6294 6316 0
-540 -6294 6295 0
-6295 6317 0
-541 -6295 6296 0
-6296 6318 0
-542 -6296 6297 0
-6297 6319 0
-543 -6297 6298 0
-6298 6320 0
-544 -6298 6299 0
-6299 6321 0
-545 -6299 6300 0
-6300 6322 0
-546 -6300 6301 0
-6301 6323 0
-547 -6301 6302 0
-6302 6324 0
-548 -6302 6303 0
-6303 6325 0
-549 -6303 6304 0
-6304 6326 0
-550 -6304 6305 0
-6305 6327 0
-551 -6305 6306 0
-6306 6328 0
-552 -6306 6307 0
-6307 6329 0
-553 -6307 6308 0
-6308 6330 0
-554 -6308 6309 0
-6309 6331 0
-555 -6309 6310 0
-6310 6332 0
-556 -6310 6311 0
-6311 6333 0
-557 -6311 6312 0
-6312 6334 0
-558 -6312 0
-537 6313 0
-6313 6335 0
-538 -6313 6314 0
-6314 6336 0
-539 -6314 6315 0
-6315 6337 0
-540 -6315 6316 0
-6316 6338 0
-541 -6316 6317 0
-6317 6339 0
-542 -6317 6318 0
-6318 6340 0
-543 -6318 6319 0
-6319 6341 0
-544 -6319 6320 0
-6320 6342 0
-545 -6320 6321 0
-6321 6343 0
-546 -6321 6322 0
-6322 6344 0
-547 -6322 6323 0
-6323 6345 0
-548 -6323 6324 0
-6324 6346 0
-549 -6324 6325 0
-6325 6347 0
-550 -6325 6326 0
-6326 6348 0
-551 -6326 6327 0
-6327 6349 0
-552 -6327 6328 0
-6328 6350 0
-553 -6328 6329 0
-6329 6351 0
-554 -6329 6330 0
-6330 6352 0
-555 -6330 6331 0
-6331 6353 0
-556 -6331 6332 0
-6332 6354 0
-557 -6332 6333 0
-6333 6355 0
-558 -6333 6334 0
-6334 6356 0
-559 -6334 0
-538 6335 0
-539 -6335 6336 0
-540 -6336 6337 0
-541 -6337 6338 0
-542 -6338 6339 0
-543 -6339 6340 0
-544 -6340 6341 0
-545 -6341 6342 0
-546 -6342 6343 0
-547 -6343 6344 0
-548 -6344 6345 0
-549 -6345 6346 0
-550 -6346 6347 0
-551 -6347 6348 0
-552 -6348 6349 0
-553 -6349 6350 0
-554 -6350 6351 0
-555 -6351 6352 0
-556 -6352 6353 0
-557 -6353 6354 0
-558 -6354 6355 0
-559 -6355 6356 0
-560 -6356 0
