p cnf 11431 29580
-1 -2 -3 0
-1 -2 -4 0
-1 -3 -4 0
-2 -3 -4 0
2 3 4 0
1 3 4 0
1 2 4 0
1 2 3 0
-5 -6 -7 0
-5 -6 -8 0
-5 -7 -8 0
-6 -7 -8 0
6 7 8 0
5 7 8 0
5 6 8 0
5 6 7 0
-9 -10 -11 0
-9 -10 -12 0
-9 -11 -12 0
-10 -11 -12 0
10 11 12 0
9 11 12 0
9 10 12 0
9 10 11 0
-13 -14 -15 0
-13 -14 -16 0
-13 -15 -16 0
-14 -15 -16 0
14 15 16 0
13 15 16 0
13 14 16 0
13 14 15 0
-17 -18 -19 0
-17 -18 -20 0
-17 -19 -20 0
-18 -19 -20 0
18 19 20 0
17 19 20 0
17 18 20 0
17 18 19 0
-21 -22 -23 0
-21 -22 -24 0
-21 -23 -24 0
-22 -23 -24 0
22 23 24 0
21 23 24 0
21 22 24 0
21 22 23 0
-25 -26 -27 0
-25 -26 -28 0
-25 -27 -28 0
-26 -27 -28 0
26 27 28 0
25 27 28 0
25 26 28 0
25 26 27 0
-29 -30 -31 0
-29 -30 -32 0
-29 -31 -32 0
-30 -31 -32 0
30 31 32 0
29 31 32 0
29 30 32 0
29 30 31 0
-33 -34 -35 0
-33 -34 -36 0
-33 -35 -36 0
-34 -35 -36 0
34 35 36 0
33 35 36 0
33 34 36 0
33 34 35 0
-37 -38 -39 0
-37 -38 -40 0
-37 -39 -40 0
-38 -39 -40 0
38 39 40 0
37 39 40 0
37 38 40 0
37 38 39 0
-41 -42 -43 0
-41 -42 -44 0
-41 -43 -44 0
-42 -43 -44 0
42 43 44 0
41 43 44 0
41 42 44 0
41 42 43 0
-45 -46 -47 0
-45 -46 -48 0
-45 -47 -48 0
-46 -47 -48 0
46 47 48 0
45 47 48 0
45 46 48 0
45 46 47 0
-49 -50 -51 0
-49 -50 -52 0
-49 -51 -52 0
-50 -51 -52 0
50 51 52 0
49 51 52 0
49 50 52 0
49 50 51 0
-53 -54 -55 0
-53 -54 -56 0
-53 -55 -56 0
-54 -55 -56 0
54 55 56 0
53 55 56 0
53 54 56 0
53 54 55 0
-10 -49 -57 0
-10 -49 -58 0
-10 -49 -59 0
-10 -49 -60 0
-10 -57 -58 0
-10 -57 -59 0
-10 -57 -60 0
-10 -58 -59 0
-10 -58 -60 0
-10 -59 -60 0
-49 -57 -58 0
-49 -57 -59 0
-49 -57 -60 0
-49 -58 -59 0
-49 -58 -60 0
-49 -59 -60 0
-57 -58 -59 0
-57 -58 -60 0
-57 -59 -60 0
-58 -59 -60 0
49 57 58 59 60 0
10 57 58 59 60 0
10 49 58 59 60 0
10 49 57 59 60 0
10 49 57 58 60 0
10 49 57 58 59 0
-14 -53 -61 0
-14 -53 -62 0
-14 -53 -63 0
-14 -53 -64 0
-14 -61 -62 0
-14 -61 -63 0
-14 -61 -64 0
-14 -62 -63 0
-14 -62 -64 0
-14 -63 -64 0
-53 -61 -62 0
-53 -61 -63 0
-53 -61 -64 0
-53 -62 -63 0
-53 -62 -64 0
-53 -63 -64 0
-61 -62 -63 0
-61 -62 -64 0
-61 -63 -64 0
-62 -63 -64 0
53 61 62 63 64 0
14 61 62 63 64 0
14 53 62 63 64 0
14 53 61 63 64 0
14 53 61 62 64 0
14 53 61 62 63 0
-1 -18 -65 0
-1 -18 -66 0
-1 -18 -67 0
-1 -18 -68 0
-1 -65 -66 0
-1 -65 -67 0
-1 -65 -68 0
-1 -66 -67 0
-1 -66 -68 0
-1 -67 -68 0
-18 -65 -66 0
-18 -65 -67 0
-18 -65 -68 0
-18 -66 -67 0
-18 -66 -68 0
-18 -67 -68 0
-65 -66 -67 0
-65 -66 -68 0
-65 -67 -68 0
-66 -67 -68 0
18 65 66 67 68 0
1 65 66 67 68 0
1 18 66 67 68 0
1 18 65 67 68 0
1 18 65 66 68 0
1 18 65 66 67 0
-5 -22 -69 0
-5 -22 -70 0
-5 -22 -71 0
-5 -22 -72 0
-5 -69 -70 0
-5 -69 -71 0
-5 -69 -72 0
-5 -70 -71 0
-5 -70 -72 0
-5 -71 -72 0
-22 -69 -70 0
-22 -69 -71 0
-22 -69 -72 0
-22 -70 -71 0
-22 -70 -72 0
-22 -71 -72 0
-69 -70 -71 0
-69 -70 -72 0
-69 -71 -72 0
-70 -71 -72 0
22 69 70 71 72 0
5 69 70 71 72 0
5 22 70 71 72 0
5 22 69 71 72 0
5 22 69 70 72 0
5 22 69 70 71 0
-9 -26 -73 0
-9 -26 -74 0
-9 -26 -75 0
-9 -26 -76 0
-9 -73 -74 0
-9 -73 -75 0
-9 -73 -76 0
-9 -74 -75 0
-9 -74 -76 0
-9 -75 -76 0
-26 -73 -74 0
-26 -73 -75 0
-26 -73 -76 0
-26 -74 -75 0
-26 -74 -76 0
-26 -75 -76 0
-73 -74 -75 0
-73 -74 -76 0
-73 -75 -76 0
-74 -75 -76 0
26 73 74 75 76 0
9 73 74 75 76 0
9 26 74 75 76 0
9 26 73 75 76 0
9 26 73 74 76 0
9 26 73 74 75 0
-13 -30 -77 0
-13 -30 -78 0
-13 -30 -79 0
-13 -30 -80 0
-13 -77 -78 0
-13 -77 -79 0
-13 -77 -80 0
-13 -78 -79 0
-13 -78 -80 0
-13 -79 -80 0
-30 -77 -78 0
-30 -77 -79 0
-30 -77 -80 0
-30 -78 -79 0
-30 -78 -80 0
-30 -79 -80 0
-77 -78 -79 0
-77 -78 -80 0
-77 -79 -80 0
-78 -79 -80 0
30 77 78 79 80 0
13 77 78 79 80 0
13 30 78 79 80 0
13 30 77 79 80 0
13 30 77 78 80 0
13 30 77 78 79 0
-17 -34 -81 0
-17 -34 -82 0
-17 -34 -83 0
-17 -34 -84 0
-17 -81 -82 0
-17 -81 -83 0
-17 -81 -84 0
-17 -82 -83 0
-17 -82 -84 0
-17 -83 -84 0
-34 -81 -82 0
-34 -81 -83 0
-34 -81 -84 0
-34 -82 -83 0
-34 -82 -84 0
-34 -83 -84 0
-81 -82 -83 0
-81 -82 -84 0
-81 -83 -84 0
-82 -83 -84 0
34 81 82 83 84 0
17 81 82 83 84 0
17 34 82 83 84 0
17 34 81 83 84 0
17 34 81 82 84 0
17 34 81 82 83 0
-21 -38 -85 0
-21 -38 -86 0
-21 -38 -87 0
-21 -38 -88 0
-21 -85 -86 0
-21 -85 -87 0
-21 -85 -88 0
-21 -86 -87 0
-21 -86 -88 0
-21 -87 -88 0
-38 -85 -86 0
-38 -85 -87 0
-38 -85 -88 0
-38 -86 -87 0
-38 -86 -88 0
-38 -87 -88 0
-85 -86 -87 0
-85 -86 -88 0
-85 -87 -88 0
-86 -87 -88 0
38 85 86 87 88 0
21 85 86 87 88 0
21 38 86 87 88 0
21 38 85 87 88 0
21 38 85 86 88 0
21 38 85 86 87 0
-25 -42 -89 0
-25 -42 -90 0
-25 -42 -91 0
-25 -42 -92 0
-25 -89 -90 0
-25 -89 -91 0
-25 -89 -92 0
-25 -90 -91 0
-25 -90 -92 0
-25 -91 -92 0
-42 -89 -90 0
-42 -89 -91 0
-42 -89 -92 0
-42 -90 -91 0
-42 -90 -92 0
-42 -91 -92 0
-89 -90 -91 0
-89 -90 -92 0
-89 -91 -92 0
-90 -91 -92 0
42 89 90 91 92 0
25 89 90 91 92 0
25 42 90 91 92 0
25 42 89 91 92 0
25 42 89 90 92 0
25 42 89 90 91 0
-29 -46 -93 0
-29 -46 -94 0
-29 -46 -95 0
-29 -46 -96 0
-29 -93 -94 0
-29 -93 -95 0
-29 -93 -96 0
-29 -94 -95 0
-29 -94 -96 0
-29 -95 -96 0
-46 -93 -94 0
-46 -93 -95 0
-46 -93 -96 0
-46 -94 -95 0
-46 -94 -96 0
-46 -95 -96 0
-93 -94 -95 0
-93 -94 -96 0
-93 -95 -96 0
-94 -95 -96 0
46 93 94 95 96 0
29 93 94 95 96 0
29 46 94 95 96 0
29 46 93 95 96 0
29 46 93 94 96 0
29 46 93 94 95 0
-33 -50 -97 0
-33 -50 -98 0
-33 -50 -99 0
-33 -50 -100 0
-33 -97 -98 0
-33 -97 -99 0
-33 -97 -100 0
-33 -98 -99 0
-33 -98 -100 0
-33 -99 -100 0
-50 -97 -98 0
-50 -97 -99 0
-50 -97 -100 0
-50 -98 -99 0
-50 -98 -100 0
-50 -99 -100 0
-97 -98 -99 0
-97 -98 -100 0
-97 -99 -100 0
-98 -99 -100 0
50 97 98 99 100 0
33 97 98 99 100 0
33 50 98 99 100 0
33 50 97 99 100 0
33 50 97 98 100 0
33 50 97 98 99 0
-37 -54 -101 0
-37 -54 -102 0
-37 -54 -103 0
-37 -54 -104 0
-37 -101 -102 0
-37 -101 -103 0
-37 -101 -104 0
-37 -102 -103 0
-37 -102 -104 0
-37 -103 -104 0
-54 -101 -102 0
-54 -101 -103 0
-54 -101 -104 0
-54 -102 -103 0
-54 -102 -104 0
-54 -103 -104 0
-101 -102 -103 0
-101 -102 -104 0
-101 -103 -104 0
-102 -103 -104 0
54 101 102 103 104 0
37 101 102 103 104 0
37 54 102 103 104 0
37 54 101 103 104 0
37 54 101 102 104 0
37 54 101 102 103 0
-2 -41 -105 0
-2 -41 -106 0
-2 -41 -107 0
-2 -41 -108 0
-2 -105 -106 0
-2 -105 -107 0
-2 -105 -108 0
-2 -106 -107 0
-2 -106 -108 0
-2 -107 -108 0
-41 -105 -106 0
-41 -105 -107 0
-41 -105 -108 0
-41 -106 -107 0
-41 -106 -108 0
-41 -107 -108 0
-105 -106 -107 0
-105 -106 -108 0
-105 -107 -108 0
-106 -107 -108 0
41 105 106 107 108 0
2 105 106 107 108 0
2 41 106 107 108 0
2 41 105 107 108 0
2 41 105 106 108 0
2 41 105 106 107 0
-6 -45 -109 0
-6 -45 -110 0
-6 -45 -111 0
-6 -45 -112 0
-6 -109 -110 0
-6 -109 -111 0
-6 -109 -112 0
-6 -110 -111 0
-6 -110 -112 0
-6 -111 -112 0
-45 -109 -110 0
-45 -109 -111 0
-45 -109 -112 0
-45 -110 -111 0
-45 -110 -112 0
-45 -111 -112 0
-109 -110 -111 0
-109 -110 -112 0
-109 -111 -112 0
-110 -111 -112 0
45 109 110 111 112 0
6 109 110 111 112 0
6 45 110 111 112 0
6 45 109 111 112 0
6 45 109 110 112 0
6 45 109 110 111 0
-8 -55 -66 0
-8 -55 -105 0
-8 -55 -113 0
-8 -55 -114 0
-8 -55 -115 0
-8 -55 -116 0
-8 -66 -105 0
-8 -66 -113 0
-8 -66 -114 0
-8 -66 -115 0
-8 -66 -116 0
-8 -105 -113 0
-8 -105 -114 0
-8 -105 -115 0
-8 -105 -116 0
-8 -113 -114 0
-8 -113 -115 0
-8 -113 -116 0
-8 -114 -115 0
-8 -114 -116 0
-8 -115 -116 0
-55 -66 -105 0
-55 -66 -113 0
-55 -66 -114 0
-55 -66 -115 0
-55 -66 -116 0
-55 -105 -113 0
-55 -105 -114 0
-55 -105 -115 0
-55 -105 -116 0
-55 -113 -114 0
-55 -113 -115 0
-55 -113 -116 0
-55 -114 -115 0
-55 -114 -116 0
-55 -115 -116 0
-66 -105 -113 0
-66 -105 -114 0
-66 -105 -115 0
-66 -105 -116 0
-66 -113 -114 0
-66 -113 -115 0
-66 -113 -116 0
-66 -114 -115 0
-66 -114 -116 0
-66 -115 -116 0
-105 -113 -114 0
-105 -113 -115 0
-105 -113 -116 0
-105 -114 -115 0
-105 -114 -116 0
-105 -115 -116 0
-113 -114 -115 0
-113 -114 -116 0
-113 -115 -116 0
-114 -115 -116 0
55 66 105 113 114 115 116 0
8 66 105 113 114 115 116 0
8 55 105 113 114 115 116 0
8 55 66 113 114 115 116 0
8 55 66 105 114 115 116 0
8 55 66 105 113 115 116 0
8 55 66 105 113 114 116 0
8 55 66 105 113 114 115 0
-3 -12 -70 0
-3 -12 -109 0
-3 -12 -117 0
-3 -12 -118 0
-3 -12 -119 0
-3 -12 -120 0
-3 -70 -109 0
-3 -70 -117 0
-3 -70 -118 0
-3 -70 -119 0
-3 -70 -120 0
-3 -109 -117 0
-3 -109 -118 0
-3 -109 -119 0
-3 -109 -120 0
-3 -117 -118 0
-3 -117 -119 0
-3 -117 -120 0
-3 -118 -119 0
-3 -118 -120 0
-3 -119 -120 0
-12 -70 -109 0
-12 -70 -117 0
-12 -70 -118 0
-12 -70 -119 0
-12 -70 -120 0
-12 -109 -117 0
-12 -109 -118 0
-12 -109 -119 0
-12 -109 -120 0
-12 -117 -118 0
-12 -117 -119 0
-12 -117 -120 0
-12 -118 -119 0
-12 -118 -120 0
-12 -119 -120 0
-70 -109 -117 0
-70 -109 -118 0
-70 -109 -119 0
-70 -109 -120 0
-70 -117 -118 0
-70 -117 -119 0
-70 -117 -120 0
-70 -118 -119 0
-70 -118 -120 0
-70 -119 -120 0
-109 -117 -118 0
-109 -117 -119 0
-109 -117 -120 0
-109 -118 -119 0
-109 -118 -120 0
-109 -119 -120 0
-117 -118 -119 0
-117 -118 -120 0
-117 -119 -120 0
-118 -119 -120 0
12 70 109 117 118 119 120 0
3 70 109 117 118 119 120 0
3 12 109 117 118 119 120 0
3 12 70 117 118 119 120 0
3 12 70 109 118 119 120 0
3 12 70 109 117 119 120 0
3 12 70 109 117 118 120 0
3 12 70 109 117 118 119 0
-7 -16 -57 0
-7 -16 -74 0
-7 -16 -121 0
-7 -16 -122 0
-7 -16 -123 0
-7 -16 -124 0
-7 -57 -74 0
-7 -57 -121 0
-7 -57 -122 0
-7 -57 -123 0
-7 -57 -124 0
-7 -74 -121 0
-7 -74 -122 0
-7 -74 -123 0
-7 -74 -124 0
-7 -121 -122 0
-7 -121 -123 0
-7 -121 -124 0
-7 -122 -123 0
-7 -122 -124 0
-7 -123 -124 0
-16 -57 -74 0
-16 -57 -121 0
-16 -57 -122 0
-16 -57 -123 0
-16 -57 -124 0
-16 -74 -121 0
-16 -74 -122 0
-16 -74 -123 0
-16 -74 -124 0
-16 -121 -122 0
-16 -121 -123 0
-16 -121 -124 0
-16 -122 -123 0
-16 -122 -124 0
-16 -123 -124 0
-57 -74 -121 0
-57 -74 -122 0
-57 -74 -123 0
-57 -74 -124 0
-57 -121 -122 0
-57 -121 -123 0
-57 -121 -124 0
-57 -122 -123 0
-57 -122 -124 0
-57 -123 -124 0
-74 -121 -122 0
-74 -121 -123 0
-74 -121 -124 0
-74 -122 -123 0
-74 -122 -124 0
-74 -123 -124 0
-121 -122 -123 0
-121 -122 -124 0
-121 -123 -124 0
-122 -123 -124 0
16 57 74 121 122 123 124 0
7 57 74 121 122 123 124 0
7 16 74 121 122 123 124 0
7 16 57 121 122 123 124 0
7 16 57 74 122 123 124 0
7 16 57 74 121 123 124 0
7 16 57 74 121 122 124 0
7 16 57 74 121 122 123 0
-11 -20 -61 0
-11 -20 -78 0
-11 -20 -125 0
-11 -20 -126 0
-11 -20 -127 0
-11 -20 -128 0
-11 -61 -78 0
-11 -61 -125 0
-11 -61 -126 0
-11 -61 -127 0
-11 -61 -128 0
-11 -78 -125 0
-11 -78 -126 0
-11 -78 -127 0
-11 -78 -128 0
-11 -125 -126 0
-11 -125 -127 0
-11 -125 -128 0
-11 -126 -127 0
-11 -126 -128 0
-11 -127 -128 0
-20 -61 -78 0
-20 -61 -125 0
-20 -61 -126 0
-20 -61 -127 0
-20 -61 -128 0
-20 -78 -125 0
-20 -78 -126 0
-20 -78 -127 0
-20 -78 -128 0
-20 -125 -126 0
-20 -125 -127 0
-20 -125 -128 0
-20 -126 -127 0
-20 -126 -128 0
-20 -127 -128 0
-61 -78 -125 0
-61 -78 -126 0
-61 -78 -127 0
-61 -78 -128 0
-61 -125 -126 0
-61 -125 -127 0
-61 -125 -128 0
-61 -126 -127 0
-61 -126 -128 0
-61 -127 -128 0
-78 -125 -126 0
-78 -125 -127 0
-78 -125 -128 0
-78 -126 -127 0
-78 -126 -128 0
-78 -127 -128 0
-125 -126 -127 0
-125 -126 -128 0
-125 -127 -128 0
-126 -127 -128 0
20 61 78 125 126 127 128 0
11 61 78 125 126 127 128 0
11 20 78 125 126 127 128 0
11 20 61 125 126 127 128 0
11 20 61 78 126 127 128 0
11 20 61 78 125 127 128 0
11 20 61 78 125 126 128 0
11 20 61 78 125 126 127 0
-15 -24 -65 0
-15 -24 -82 0
-15 -24 -129 0
-15 -24 -130 0
-15 -24 -131 0
-15 -24 -132 0
-15 -65 -82 0
-15 -65 -129 0
-15 -65 -130 0
-15 -65 -131 0
-15 -65 -132 0
-15 -82 -129 0
-15 -82 -130 0
-15 -82 -131 0
-15 -82 -132 0
-15 -129 -130 0
-15 -129 -131 0
-15 -129 -132 0
-15 -130 -131 0
-15 -130 -132 0
-15 -131 -132 0
-24 -65 -82 0
-24 -65 -129 0
-24 -65 -130 0
-24 -65 -131 0
-24 -65 -132 0
-24 -82 -129 0
-24 -82 -130 0
-24 -82 -131 0
-24 -82 -132 0
-24 -129 -130 0
-24 -129 -131 0
-24 -129 -132 0
-24 -130 -131 0
-24 -130 -132 0
-24 -131 -132 0
-65 -82 -129 0
-65 -82 -130 0
-65 -82 -131 0
-65 -82 -132 0
-65 -129 -130 0
-65 -129 -131 0
-65 -129 -132 0
-65 -130 -131 0
-65 -130 -132 0
-65 -131 -132 0
-82 -129 -130 0
-82 -129 -131 0
-82 -129 -132 0
-82 -130 -131 0
-82 -130 -132 0
-82 -131 -132 0
-129 -130 -131 0
-129 -130 -132 0
-129 -131 -132 0
-130 -131 -132 0
24 65 82 129 130 131 132 0
15 65 82 129 130 131 132 0
15 24 82 129 130 131 132 0
15 24 65 129 130 131 132 0
15 24 65 82 130 131 132 0
15 24 65 82 129 131 132 0
15 24 65 82 129 130 132 0
15 24 65 82 129 130 131 0
-19 -28 -69 0
-19 -28 -86 0
-19 -28 -133 0
-19 -28 -134 0
-19 -28 -135 0
-19 -28 -136 0
-19 -69 -86 0
-19 -69 -133 0
-19 -69 -134 0
-19 -69 -135 0
-19 -69 -136 0
-19 -86 -133 0
-19 -86 -134 0
-19 -86 -135 0
-19 -86 -136 0
-19 -133 -134 0
-19 -133 -135 0
-19 -133 -136 0
-19 -134 -135 0
-19 -134 -136 0
-19 -135 -136 0
-28 -69 -86 0
-28 -69 -133 0
-28 -69 -134 0
-28 -69 -135 0
-28 -69 -136 0
-28 -86 -133 0
-28 -86 -134 0
-28 -86 -135 0
-28 -86 -136 0
-28 -133 -134 0
-28 -133 -135 0
-28 -133 -136 0
-28 -134 -135 0
-28 -134 -136 0
-28 -135 -136 0
-69 -86 -133 0
-69 -86 -134 0
-69 -86 -135 0
-69 -86 -136 0
-69 -133 -134 0
-69 -133 -135 0
-69 -133 -136 0
-69 -134 -135 0
-69 -134 -136 0
-69 -135 -136 0
-86 -133 -134 0
-86 -133 -135 0
-86 -133 -136 0
-86 -134 -135 0
-86 -134 -136 0
-86 -135 -136 0
-133 -134 -135 0
-133 -134 -136 0
-133 -135 -136 0
-134 -135 -136 0
28 69 86 133 134 135 136 0
19 69 86 133 134 135 136 0
19 28 86 133 134 135 136 0
19 28 69 133 134 135 136 0
19 28 69 86 134 135 136 0
19 28 69 86 133 135 136 0
19 28 69 86 133 134 136 0
19 28 69 86 133 134 135 0
-23 -32 -73 0
-23 -32 -90 0
-23 -32 -137 0
-23 -32 -138 0
-23 -32 -139 0
-23 -32 -140 0
-23 -73 -90 0
-23 -73 -137 0
-23 -73 -138 0
-23 -73 -139 0
-23 -73 -140 0
-23 -90 -137 0
-23 -90 -138 0
-23 -90 -139 0
-23 -90 -140 0
-23 -137 -138 0
-23 -137 -139 0
-23 -137 -140 0
-23 -138 -139 0
-23 -138 -140 0
-23 -139 -140 0
-32 -73 -90 0
-32 -73 -137 0
-32 -73 -138 0
-32 -73 -139 0
-32 -73 -140 0
-32 -90 -137 0
-32 -90 -138 0
-32 -90 -139 0
-32 -90 -140 0
-32 -137 -138 0
-32 -137 -139 0
-32 -137 -140 0
-32 -138 -139 0
-32 -138 -140 0
-32 -139 -140 0
-73 -90 -137 0
-73 -90 -138 0
-73 -90 -139 0
-73 -90 -140 0
-73 -137 -138 0
-73 -137 -139 0
-73 -137 -140 0
-73 -138 -139 0
-73 -138 -140 0
-73 -139 -140 0
-90 -137 -138 0
-90 -137 -139 0
-90 -137 -140 0
-90 -138 -139 0
-90 -138 -140 0
-90 -139 -140 0
-137 -138 -139 0
-137 -138 -140 0
-137 -139 -140 0
-138 -139 -140 0
32 73 90 137 138 139 140 0
23 73 90 137 138 139 140 0
23 32 90 137 138 139 140 0
23 32 73 137 138 139 140 0
23 32 73 90 138 139 140 0
23 32 73 90 137 139 140 0
23 32 73 90 137 138 140 0
23 32 73 90 137 138 139 0
-27 -36 -77 0
-27 -36 -94 0
-27 -36 -141 0
-27 -36 -142 0
-27 -36 -143 0
-27 -36 -144 0
-27 -77 -94 0
-27 -77 -141 0
-27 -77 -142 0
-27 -77 -143 0
-27 -77 -144 0
-27 -94 -141 0
-27 -94 -142 0
-27 -94 -143 0
-27 -94 -144 0
-27 -141 -142 0
-27 -141 -143 0
-27 -141 -144 0
-27 -142 -143 0
-27 -142 -144 0
-27 -143 -144 0
-36 -77 -94 0
-36 -77 -141 0
-36 -77 -142 0
-36 -77 -143 0
-36 -77 -144 0
-36 -94 -141 0
-36 -94 -142 0
-36 -94 -143 0
-36 -94 -144 0
-36 -141 -142 0
-36 -141 -143 0
-36 -141 -144 0
-36 -142 -143 0
-36 -142 -144 0
-36 -143 -144 0
-77 -94 -141 0
-77 -94 -142 0
-77 -94 -143 0
-77 -94 -144 0
-77 -141 -142 0
-77 -141 -143 0
-77 -141 -144 0
-77 -142 -143 0
-77 -142 -144 0
-77 -143 -144 0
-94 -141 -142 0
-94 -141 -143 0
-94 -141 -144 0
-94 -142 -143 0
-94 -142 -144 0
-94 -143 -144 0
-141 -142 -143 0
-141 -142 -144 0
-141 -143 -144 0
-142 -143 -144 0
36 77 94 141 142 143 144 0
27 77 94 141 142 143 144 0
27 36 94 141 142 143 144 0
27 36 77 141 142 143 144 0
27 36 77 94 142 143 144 0
27 36 77 94 141 143 144 0
27 36 77 94 141 142 144 0
27 36 77 94 141 142 143 0
-31 -40 -81 0
-31 -40 -98 0
-31 -40 -145 0
-31 -40 -146 0
-31 -40 -147 0
-31 -40 -148 0
-31 -81 -98 0
-31 -81 -145 0
-31 -81 -146 0
-31 -81 -147 0
-31 -81 -148 0
-31 -98 -145 0
-31 -98 -146 0
-31 -98 -147 0
-31 -98 -148 0
-31 -145 -146 0
-31 -145 -147 0
-31 -145 -148 0
-31 -146 -147 0
-31 -146 -148 0
-31 -147 -148 0
-40 -81 -98 0
-40 -81 -145 0
-40 -81 -146 0
-40 -81 -147 0
-40 -81 -148 0
-40 -98 -145 0
-40 -98 -146 0
-40 -98 -147 0
-40 -98 -148 0
-40 -145 -146 0
-40 -145 -147 0
-40 -145 -148 0
-40 -146 -147 0
-40 -146 -148 0
-40 -147 -148 0
-81 -98 -145 0
-81 -98 -146 0
-81 -98 -147 0
-81 -98 -148 0
-81 -145 -146 0
-81 -145 -147 0
-81 -145 -148 0
-81 -146 -147 0
-81 -146 -148 0
-81 -147 -148 0
-98 -145 -146 0
-98 -145 -147 0
-98 -145 -148 0
-98 -146 -147 0
-98 -146 -148 0
-98 -147 -148 0
-145 -146 -147 0
-145 -146 -148 0
-145 -147 -148 0
-146 -147 -148 0
40 81 98 145 146 147 148 0
31 81 98 145 146 147 148 0
31 40 98 145 146 147 148 0
31 40 81 145 146 147 148 0
31 40 81 98 146 147 148 0
31 40 81 98 145 147 148 0
31 40 81 98 145 146 148 0
31 40 81 98 145 146 147 0
-35 -44 -85 0
-35 -44 -102 0
-35 -44 -149 0
-35 -44 -150 0
-35 -44 -151 0
-35 -44 -152 0
-35 -85 -102 0
-35 -85 -149 0
-35 -85 -150 0
-35 -85 -151 0
-35 -85 -152 0
-35 -102 -149 0
-35 -102 -150 0
-35 -102 -151 0
-35 -102 -152 0
-35 -149 -150 0
-35 -149 -151 0
-35 -149 -152 0
-35 -150 -151 0
-35 -150 -152 0
-35 -151 -152 0
-44 -85 -102 0
-44 -85 -149 0
-44 -85 -150 0
-44 -85 -151 0
-44 -85 -152 0
-44 -102 -149 0
-44 -102 -150 0
-44 -102 -151 0
-44 -102 -152 0
-44 -149 -150 0
-44 -149 -151 0
-44 -149 -152 0
-44 -150 -151 0
-44 -150 -152 0
-44 -151 -152 0
-85 -102 -149 0
-85 -102 -150 0
-85 -102 -151 0
-85 -102 -152 0
-85 -149 -150 0
-85 -149 -151 0
-85 -149 -152 0
-85 -150 -151 0
-85 -150 -152 0
-85 -151 -152 0
-102 -149 -150 0
-102 -149 -151 0
-102 -149 -152 0
-102 -150 -151 0
-102 -150 -152 0
-102 -151 -152 0
-149 -150 -151 0
-149 -150 -152 0
-149 -151 -152 0
-150 -151 -152 0
44 85 102 149 150 151 152 0
35 85 102 149 150 151 152 0
35 44 102 149 150 151 152 0
35 44 85 149 150 151 152 0
35 44 85 102 150 151 152 0
35 44 85 102 149 151 152 0
35 44 85 102 149 150 152 0
35 44 85 102 149 150 151 0
-39 -48 -89 0
-39 -48 -106 0
-39 -48 -153 0
-39 -48 -154 0
-39 -48 -155 0
-39 -48 -156 0
-39 -89 -106 0
-39 -89 -153 0
-39 -89 -154 0
-39 -89 -155 0
-39 -89 -156 0
-39 -106 -153 0
-39 -106 -154 0
-39 -106 -155 0
-39 -106 -156 0
-39 -153 -154 0
-39 -153 -155 0
-39 -153 -156 0
-39 -154 -155 0
-39 -154 -156 0
-39 -155 -156 0
-48 -89 -106 0
-48 -89 -153 0
-48 -89 -154 0
-48 -89 -155 0
-48 -89 -156 0
-48 -106 -153 0
-48 -106 -154 0
-48 -106 -155 0
-48 -106 -156 0
-48 -153 -154 0
-48 -153 -155 0
-48 -153 -156 0
-48 -154 -155 0
-48 -154 -156 0
-48 -155 -156 0
-89 -106 -153 0
-89 -106 -154 0
-89 -106 -155 0
-89 -106 -156 0
-89 -153 -154 0
-89 -153 -155 0
-89 -153 -156 0
-89 -154 -155 0
-89 -154 -156 0
-89 -155 -156 0
-106 -153 -154 0
-106 -153 -155 0
-106 -153 -156 0
-106 -154 -155 0
-106 -154 -156 0
-106 -155 -156 0
-153 -154 -155 0
-153 -154 -156 0
-153 -155 -156 0
-154 -155 -156 0
48 89 106 153 154 155 156 0
39 89 106 153 154 155 156 0
39 48 106 153 154 155 156 0
39 48 89 153 154 155 156 0
39 48 89 106 154 155 156 0
39 48 89 106 153 155 156 0
39 48 89 106 153 154 156 0
39 48 89 106 153 154 155 0
-43 -52 -93 0
-43 -52 -110 0
-43 -52 -157 0
-43 -52 -158 0
-43 -52 -159 0
-43 -52 -160 0
-43 -93 -110 0
-43 -93 -157 0
-43 -93 -158 0
-43 -93 -159 0
-43 -93 -160 0
-43 -110 -157 0
-43 -110 -158 0
-43 -110 -159 0
-43 -110 -160 0
-43 -157 -158 0
-43 -157 -159 0
-43 -157 -160 0
-43 -158 -159 0
-43 -158 -160 0
-43 -159 -160 0
-52 -93 -110 0
-52 -93 -157 0
-52 -93 -158 0
-52 -93 -159 0
-52 -93 -160 0
-52 -110 -157 0
-52 -110 -158 0
-52 -110 -159 0
-52 -110 -160 0
-52 -157 -158 0
-52 -157 -159 0
-52 -157 -160 0
-52 -158 -159 0
-52 -158 -160 0
-52 -159 -160 0
-93 -110 -157 0
-93 -110 -158 0
-93 -110 -159 0
-93 -110 -160 0
-93 -157 -158 0
-93 -157 -159 0
-93 -157 -160 0
-93 -158 -159 0
-93 -158 -160 0
-93 -159 -160 0
-110 -157 -158 0
-110 -157 -159 0
-110 -157 -160 0
-110 -158 -159 0
-110 -158 -160 0
-110 -159 -160 0
-157 -158 -159 0
-157 -158 -160 0
-157 -159 -160 0
-158 -159 -160 0
52 93 110 157 158 159 160 0
43 93 110 157 158 159 160 0
43 52 110 157 158 159 160 0
43 52 93 157 158 159 160 0
43 52 93 110 158 159 160 0
43 52 93 110 157 159 160 0
43 52 93 110 157 158 160 0
43 52 93 110 157 158 159 0
-47 -56 -58 0
-47 -56 -97 0
-47 -56 -161 0
-47 -56 -162 0
-47 -56 -163 0
-47 -56 -164 0
-47 -58 -97 0
-47 -58 -161 0
-47 -58 -162 0
-47 -58 -163 0
-47 -58 -164 0
-47 -97 -161 0
-47 -97 -162 0
-47 -97 -163 0
-47 -97 -164 0
-47 -161 -162 0
-47 -161 -163 0
-47 -161 -164 0
-47 -162 -163 0
-47 -162 -164 0
-47 -163 -164 0
-56 -58 -97 0
-56 -58 -161 0
-56 -58 -162 0
-56 -58 -163 0
-56 -58 -164 0
-56 -97 -161 0
-56 -97 -162 0
-56 -97 -163 0
-56 -97 -164 0
-56 -161 -162 0
-56 -161 -163 0
-56 -161 -164 0
-56 -162 -163 0
-56 -162 -164 0
-56 -163 -164 0
-58 -97 -161 0
-58 -97 -162 0
-58 -97 -163 0
-58 -97 -164 0
-58 -161 -162 0
-58 -161 -163 0
-58 -161 -164 0
-58 -162 -163 0
-58 -162 -164 0
-58 -163 -164 0
-97 -161 -162 0
-97 -161 -163 0
-97 -161 -164 0
-97 -162 -163 0
-97 -162 -164 0
-97 -163 -164 0
-161 -162 -163 0
-161 -162 -164 0
-161 -163 -164 0
-162 -163 -164 0
56 58 97 161 162 163 164 0
47 58 97 161 162 163 164 0
47 56 97 161 162 163 164 0
47 56 58 161 162 163 164 0
47 56 58 97 162 163 164 0
47 56 58 97 161 163 164 0
47 56 58 97 161 162 164 0
47 56 58 97 161 162 163 0
-4 -51 -62 0
-4 -51 -101 0
-4 -51 -165 0
-4 -51 -166 0
-4 -51 -167 0
-4 -51 -168 0
-4 -62 -101 0
-4 -62 -165 0
-4 -62 -166 0
-4 -62 -167 0
-4 -62 -168 0
-4 -101 -165 0
-4 -101 -166 0
-4 -101 -167 0
-4 -101 -168 0
-4 -165 -166 0
-4 -165 -167 0
-4 -165 -168 0
-4 -166 -167 0
-4 -166 -168 0
-4 -167 -168 0
-51 -62 -101 0
-51 -62 -165 0
-51 -62 -166 0
-51 -62 -167 0
-51 -62 -168 0
-51 -101 -165 0
-51 -101 -166 0
-51 -101 -167 0
-51 -101 -168 0
-51 -165 -166 0
-51 -165 -167 0
-51 -165 -168 0
-51 -166 -167 0
-51 -166 -168 0
-51 -167 -168 0
-62 -101 -165 0
-62 -101 -166 0
-62 -101 -167 0
-62 -101 -168 0
-62 -165 -166 0
-62 -165 -167 0
-62 -165 -168 0
-62 -166 -167 0
-62 -166 -168 0
-62 -167 -168 0
-101 -165 -166 0
-101 -165 -167 0
-101 -165 -168 0
-101 -166 -167 0
-101 -166 -168 0
-101 -167 -168 0
-165 -166 -167 0
-165 -166 -168 0
-165 -167 -168 0
-166 -167 -168 0
51 62 101 165 166 167 168 0
4 62 101 165 166 167 168 0
4 51 101 165 166 167 168 0
4 51 62 165 166 167 168 0
4 51 62 101 166 167 168 0
4 51 62 101 165 167 168 0
4 51 62 101 165 166 168 0
4 51 62 101 165 166 167 0
-64 -111 -122 0
-64 -111 -161 0
-64 -111 -169 0
-64 -111 -170 0
-64 -111 -171 0
-64 -111 -172 0
-64 -122 -161 0
-64 -122 -169 0
-64 -122 -170 0
-64 -122 -171 0
-64 -122 -172 0
-64 -161 -169 0
-64 -161 -170 0
-64 -161 -171 0
-64 -161 -172 0
-64 -169 -170 0
-64 -169 -171 0
-64 -169 -172 0
-64 -170 -171 0
-64 -170 -172 0
-64 -171 -172 0
-111 -122 -161 0
-111 -122 -169 0
-111 -122 -170 0
-111 -122 -171 0
-111 -122 -172 0
-111 -161 -169 0
-111 -161 -170 0
-111 -161 -171 0
-111 -161 -172 0
-111 -169 -170 0
-111 -169 -171 0
-111 -169 -172 0
-111 -170 -171 0
-111 -170 -172 0
-111 -171 -172 0
-122 -161 -169 0
-122 -161 -170 0
-122 -161 -171 0
-122 -161 -172 0
-122 -169 -170 0
-122 -169 -171 0
-122 -169 -172 0
-122 -170 -171 0
-122 -170 -172 0
-122 -171 -172 0
-161 -169 -170 0
-161 -169 -171 0
-161 -169 -172 0
-161 -170 -171 0
-161 -170 -172 0
-161 -171 -172 0
-169 -170 -171 0
-169 -170 -172 0
-169 -171 -172 0
-170 -171 -172 0
111 122 161 169 170 171 172 0
64 122 161 169 170 171 172 0
64 111 161 169 170 171 172 0
64 111 122 169 170 171 172 0
64 111 122 161 170 171 172 0
64 111 122 161 169 171 172 0
64 111 122 161 169 170 172 0
64 111 122 161 169 170 171 0
-59 -68 -126 0
-59 -68 -165 0
-59 -68 -173 0
-59 -68 -174 0
-59 -68 -175 0
-59 -68 -176 0
-59 -126 -165 0
-59 -126 -173 0
-59 -126 -174 0
-59 -126 -175 0
-59 -126 -176 0
-59 -165 -173 0
-59 -165 -174 0
-59 -165 -175 0
-59 -165 -176 0
-59 -173 -174 0
-59 -173 -175 0
-59 -173 -176 0
-59 -174 -175 0
-59 -174 -176 0
-59 -175 -176 0
-68 -126 -165 0
-68 -126 -173 0
-68 -126 -174 0
-68 -126 -175 0
-68 -126 -176 0
-68 -165 -173 0
-68 -165 -174 0
-68 -165 -175 0
-68 -165 -176 0
-68 -173 -174 0
-68 -173 -175 0
-68 -173 -176 0
-68 -174 -175 0
-68 -174 -176 0
-68 -175 -176 0
-126 -165 -173 0
-126 -165 -174 0
-126 -165 -175 0
-126 -165 -176 0
-126 -173 -174 0
-126 -173 -175 0
-126 -173 -176 0
-126 -174 -175 0
-126 -174 -176 0
-126 -175 -176 0
-165 -173 -174 0
-165 -173 -175 0
-165 -173 -176 0
-165 -174 -175 0
-165 -174 -176 0
-165 -175 -176 0
-173 -174 -175 0
-173 -174 -176 0
-173 -175 -176 0
-174 -175 -176 0
68 126 165 173 174 175 176 0
59 126 165 173 174 175 176 0
59 68 165 173 174 175 176 0
59 68 126 173 174 175 176 0
59 68 126 165 174 175 176 0
59 68 126 165 173 175 176 0
59 68 126 165 173 174 176 0
59 68 126 165 173 174 175 0
-63 -72 -113 0
-63 -72 -130 0
-63 -72 -177 0
-63 -72 -178 0
-63 -72 -179 0
-63 -72 -180 0
-63 -113 -130 0
-63 -113 -177 0
-63 -113 -178 0
-63 -113 -179 0
-63 -113 -180 0
-63 -130 -177 0
-63 -130 -178 0
-63 -130 -179 0
-63 -130 -180 0
-63 -177 -178 0
-63 -177 -179 0
-63 -177 -180 0
-63 -178 -179 0
-63 -178 -180 0
-63 -179 -180 0
-72 -113 -130 0
-72 -113 -177 0
-72 -113 -178 0
-72 -113 -179 0
-72 -113 -180 0
-72 -130 -177 0
-72 -130 -178 0
-72 -130 -179 0
-72 -130 -180 0
-72 -177 -178 0
-72 -177 -179 0
-72 -177 -180 0
-72 -178 -179 0
-72 -178 -180 0
-72 -179 -180 0
-113 -130 -177 0
-113 -130 -178 0
-113 -130 -179 0
-113 -130 -180 0
-113 -177 -178 0
-113 -177 -179 0
-113 -177 -180 0
-113 -178 -179 0
-113 -178 -180 0
-113 -179 -180 0
-130 -177 -178 0
-130 -177 -179 0
-130 -177 -180 0
-130 -178 -179 0
-130 -178 -180 0
-130 -179 -180 0
-177 -178 -179 0
-177 -178 -180 0
-177 -179 -180 0
-178 -179 -180 0
72 113 130 177 178 179 180 0
63 113 130 177 178 179 180 0
63 72 130 177 178 179 180 0
63 72 113 177 178 179 180 0
63 72 113 130 178 179 180 0
63 72 113 130 177 179 180 0
63 72 113 130 177 178 180 0
63 72 113 130 177 178 179 0
-67 -76 -117 0
-67 -76 -134 0
-67 -76 -181 0
-67 -76 -182 0
-67 -76 -183 0
-67 -76 -184 0
-67 -117 -134 0
-67 -117 -181 0
-67 -117 -182 0
-67 -117 -183 0
-67 -117 -184 0
-67 -134 -181 0
-67 -134 -182 0
-67 -134 -183 0
-67 -134 -184 0
-67 -181 -182 0
-67 -181 -183 0
-67 -181 -184 0
-67 -182 -183 0
-67 -182 -184 0
-67 -183 -184 0
-76 -117 -134 0
-76 -117 -181 0
-76 -117 -182 0
-76 -117 -183 0
-76 -117 -184 0
-76 -134 -181 0
-76 -134 -182 0
-76 -134 -183 0
-76 -134 -184 0
-76 -181 -182 0
-76 -181 -183 0
-76 -181 -184 0
-76 -182 -183 0
-76 -182 -184 0
-76 -183 -184 0
-117 -134 -181 0
-117 -134 -182 0
-117 -134 -183 0
-117 -134 -184 0
-117 -181 -182 0
-117 -181 -183 0
-117 -181 -184 0
-117 -182 -183 0
-117 -182 -184 0
-117 -183 -184 0
-134 -181 -182 0
-134 -181 -183 0
-134 -181 -184 0
-134 -182 -183 0
-134 -182 -184 0
-134 -183 -184 0
-181 -182 -183 0
-181 -182 -184 0
-181 -183 -184 0
-182 -183 -184 0
76 117 134 181 182 183 184 0
67 117 134 181 182 183 184 0
67 76 134 181 182 183 184 0
67 76 117 181 182 183 184 0
67 76 117 134 182 183 184 0
67 76 117 134 181 183 184 0
67 76 117 134 181 182 184 0
67 76 117 134 181 182 183 0
-71 -80 -121 0
-71 -80 -138 0
-71 -80 -185 0
-71 -80 -186 0
-71 -80 -187 0
-71 -80 -188 0
-71 -121 -138 0
-71 -121 -185 0
-71 -121 -186 0
-71 -121 -187 0
-71 -121 -188 0
-71 -138 -185 0
-71 -138 -186 0
-71 -138 -187 0
-71 -138 -188 0
-71 -185 -186 0
-71 -185 -187 0
-71 -185 -188 0
-71 -186 -187 0
-71 -186 -188 0
-71 -187 -188 0
-80 -121 -138 0
-80 -121 -185 0
-80 -121 -186 0
-80 -121 -187 0
-80 -121 -188 0
-80 -138 -185 0
-80 -138 -186 0
-80 -138 -187 0
-80 -138 -188 0
-80 -185 -186 0
-80 -185 -187 0
-80 -185 -188 0
-80 -186 -187 0
-80 -186 -188 0
-80 -187 -188 0
-121 -138 -185 0
-121 -138 -186 0
-121 -138 -187 0
-121 -138 -188 0
-121 -185 -186 0
-121 -185 -187 0
-121 -185 -188 0
-121 -186 -187 0
-121 -186 -188 0
-121 -187 -188 0
-138 -185 -186 0
-138 -185 -187 0
-138 -185 -188 0
-138 -186 -187 0
-138 -186 -188 0
-138 -187 -188 0
-185 -186 -187 0
-185 -186 -188 0
-185 -187 -188 0
-186 -187 -188 0
80 121 138 185 186 187 188 0
71 121 138 185 186 187 188 0
71 80 138 185 186 187 188 0
71 80 121 185 186 187 188 0
71 80 121 138 186 187 188 0
71 80 121 138 185 187 188 0
71 80 121 138 185 186 188 0
71 80 121 138 185 186 187 0
-75 -84 -125 0
-75 -84 -142 0
-75 -84 -189 0
-75 -84 -190 0
-75 -84 -191 0
-75 -84 -192 0
-75 -125 -142 0
-75 -125 -189 0
-75 -125 -190 0
-75 -125 -191 0
-75 -125 -192 0
-75 -142 -189 0
-75 -142 -190 0
-75 -142 -191 0
-75 -142 -192 0
-75 -189 -190 0
-75 -189 -191 0
-75 -189 -192 0
-75 -190 -191 0
-75 -190 -192 0
-75 -191 -192 0
-84 -125 -142 0
-84 -125 -189 0
-84 -125 -190 0
-84 -125 -191 0
-84 -125 -192 0
-84 -142 -189 0
-84 -142 -190 0
-84 -142 -191 0
-84 -142 -192 0
-84 -189 -190 0
-84 -189 -191 0
-84 -189 -192 0
-84 -190 -191 0
-84 -190 -192 0
-84 -191 -192 0
-125 -142 -189 0
-125 -142 -190 0
-125 -142 -191 0
-125 -142 -192 0
-125 -189 -190 0
-125 -189 -191 0
-125 -189 -192 0
-125 -190 -191 0
-125 -190 -192 0
-125 -191 -192 0
-142 -189 -190 0
-142 -189 -191 0
-142 -189 -192 0
-142 -190 -191 0
-142 -190 -192 0
-142 -191 -192 0
-189 -190 -191 0
-189 -190 -192 0
-189 -191 -192 0
-190 -191 -192 0
84 125 142 189 190 191 192 0
75 125 142 189 190 191 192 0
75 84 142 189 190 191 192 0
75 84 125 189 190 191 192 0
75 84 125 142 190 191 192 0
75 84 125 142 189 191 192 0
75 84 125 142 189 190 192 0
75 84 125 142 189 190 191 0
-79 -88 -129 0
-79 -88 -146 0
-79 -88 -193 0
-79 -88 -194 0
-79 -88 -195 0
-79 -88 -196 0
-79 -129 -146 0
-79 -129 -193 0
-79 -129 -194 0
-79 -129 -195 0
-79 -129 -196 0
-79 -146 -193 0
-79 -146 -194 0
-79 -146 -195 0
-79 -146 -196 0
-79 -193 -194 0
-79 -193 -195 0
-79 -193 -196 0
-79 -194 -195 0
-79 -194 -196 0
-79 -195 -196 0
-88 -129 -146 0
-88 -129 -193 0
-88 -129 -194 0
-88 -129 -195 0
-88 -129 -196 0
-88 -146 -193 0
-88 -146 -194 0
-88 -146 -195 0
-88 -146 -196 0
-88 -193 -194 0
-88 -193 -195 0
-88 -193 -196 0
-88 -194 -195 0
-88 -194 -196 0
-88 -195 -196 0
-129 -146 -193 0
-129 -146 -194 0
-129 -146 -195 0
-129 -146 -196 0
-129 -193 -194 0
-129 -193 -195 0
-129 -193 -196 0
-129 -194 -195 0
-129 -194 -196 0
-129 -195 -196 0
-146 -193 -194 0
-146 -193 -195 0
-146 -193 -196 0
-146 -194 -195 0
-146 -194 -196 0
-146 -195 -196 0
-193 -194 -195 0
-193 -194 -196 0
-193 -195 -196 0
-194 -195 -196 0
88 129 146 193 194 195 196 0
79 129 146 193 194 195 196 0
79 88 146 193 194 195 196 0
79 88 129 193 194 195 196 0
79 88 129 146 194 195 196 0
79 88 129 146 193 195 196 0
79 88 129 146 193 194 196 0
79 88 129 146 193 194 195 0
-83 -92 -133 0
-83 -92 -150 0
-83 -92 -197 0
-83 -92 -198 0
-83 -92 -199 0
-83 -92 -200 0
-83 -133 -150 0
-83 -133 -197 0
-83 -133 -198 0
-83 -133 -199 0
-83 -133 -200 0
-83 -150 -197 0
-83 -150 -198 0
-83 -150 -199 0
-83 -150 -200 0
-83 -197 -198 0
-83 -197 -199 0
-83 -197 -200 0
-83 -198 -199 0
-83 -198 -200 0
-83 -199 -200 0
-92 -133 -150 0
-92 -133 -197 0
-92 -133 -198 0
-92 -133 -199 0
-92 -133 -200 0
-92 -150 -197 0
-92 -150 -198 0
-92 -150 -199 0
-92 -150 -200 0
-92 -197 -198 0
-92 -197 -199 0
-92 -197 -200 0
-92 -198 -199 0
-92 -198 -200 0
-92 -199 -200 0
-133 -150 -197 0
-133 -150 -198 0
-133 -150 -199 0
-133 -150 -200 0
-133 -197 -198 0
-133 -197 -199 0
-133 -197 -200 0
-133 -198 -199 0
-133 -198 -200 0
-133 -199 -200 0
-150 -197 -198 0
-150 -197 -199 0
-150 -197 -200 0
-150 -198 -199 0
-150 -198 -200 0
-150 -199 -200 0
-197 -198 -199 0
-197 -198 -200 0
-197 -199 -200 0
-198 -199 -200 0
92 133 150 197 198 199 200 0
83 133 150 197 198 199 200 0
83 92 150 197 198 199 200 0
83 92 133 197 198 199 200 0
83 92 133 150 198 199 200 0
83 92 133 150 197 199 200 0
83 92 133 150 197 198 200 0
83 92 133 150 197 198 199 0
-87 -96 -137 0
-87 -96 -154 0
-87 -96 -201 0
-87 -96 -202 0
-87 -96 -203 0
-87 -96 -204 0
-87 -137 -154 0
-87 -137 -201 0
-87 -137 -202 0
-87 -137 -203 0
-87 -137 -204 0
-87 -154 -201 0
-87 -154 -202 0
-87 -154 -203 0
-87 -154 -204 0
-87 -201 -202 0
-87 -201 -203 0
-87 -201 -204 0
-87 -202 -203 0
-87 -202 -204 0
-87 -203 -204 0
-96 -137 -154 0
-96 -137 -201 0
-96 -137 -202 0
-96 -137 -203 0
-96 -137 -204 0
-96 -154 -201 0
-96 -154 -202 0
-96 -154 -203 0
-96 -154 -204 0
-96 -201 -202 0
-96 -201 -203 0
-96 -201 -204 0
-96 -202 -203 0
-96 -202 -204 0
-96 -203 -204 0
-137 -154 -201 0
-137 -154 -202 0
-137 -154 -203 0
-137 -154 -204 0
-137 -201 -202 0
-137 -201 -203 0
-137 -201 -204 0
-137 -202 -203 0
-137 -202 -204 0
-137 -203 -204 0
-154 -201 -202 0
-154 -201 -203 0
-154 -201 -204 0
-154 -202 -203 0
-154 -202 -204 0
-154 -203 -204 0
-201 -202 -203 0
-201 -202 -204 0
-201 -203 -204 0
-202 -203 -204 0
96 137 154 201 202 203 204 0
87 137 154 201 202 203 204 0
87 96 154 201 202 203 204 0
87 96 137 201 202 203 204 0
87 96 137 154 202 203 204 0
87 96 137 154 201 203 204 0
87 96 137 154 201 202 204 0
87 96 137 154 201 202 203 0
-91 -100 -141 0
-91 -100 -158 0
-91 -100 -205 0
-91 -100 -206 0
-91 -100 -207 0
-91 -100 -208 0
-91 -141 -158 0
-91 -141 -205 0
-91 -141 -206 0
-91 -141 -207 0
-91 -141 -208 0
-91 -158 -205 0
-91 -158 -206 0
-91 -158 -207 0
-91 -158 -208 0
-91 -205 -206 0
-91 -205 -207 0
-91 -205 -208 0
-91 -206 -207 0
-91 -206 -208 0
-91 -207 -208 0
-100 -141 -158 0
-100 -141 -205 0
-100 -141 -206 0
-100 -141 -207 0
-100 -141 -208 0
-100 -158 -205 0
-100 -158 -206 0
-100 -158 -207 0
-100 -158 -208 0
-100 -205 -206 0
-100 -205 -207 0
-100 -205 -208 0
-100 -206 -207 0
-100 -206 -208 0
-100 -207 -208 0
-141 -158 -205 0
-141 -158 -206 0
-141 -158 -207 0
-141 -158 -208 0
-141 -205 -206 0
-141 -205 -207 0
-141 -205 -208 0
-141 -206 -207 0
-141 -206 -208 0
-141 -207 -208 0
-158 -205 -206 0
-158 -205 -207 0
-158 -205 -208 0
-158 -206 -207 0
-158 -206 -208 0
-158 -207 -208 0
-205 -206 -207 0
-205 -206 -208 0
-205 -207 -208 0
-206 -207 -208 0
100 141 158 205 206 207 208 0
91 141 158 205 206 207 208 0
91 100 158 205 206 207 208 0
91 100 141 205 206 207 208 0
91 100 141 158 206 207 208 0
91 100 141 158 205 207 208 0
91 100 141 158 205 206 208 0
91 100 141 158 205 206 207 0
-95 -104 -145 0
-95 -104 -162 0
-95 -104 -209 0
-95 -104 -210 0
-95 -104 -211 0
-95 -104 -212 0
-95 -145 -162 0
-95 -145 -209 0
-95 -145 -210 0
-95 -145 -211 0
-95 -145 -212 0
-95 -162 -209 0
-95 -162 -210 0
-95 -162 -211 0
-95 -162 -212 0
-95 -209 -210 0
-95 -209 -211 0
-95 -209 -212 0
-95 -210 -211 0
-95 -210 -212 0
-95 -211 -212 0
-104 -145 -162 0
-104 -145 -209 0
-104 -145 -210 0
-104 -145 -211 0
-104 -145 -212 0
-104 -162 -209 0
-104 -162 -210 0
-104 -162 -211 0
-104 -162 -212 0
-104 -209 -210 0
-104 -209 -211 0
-104 -209 -212 0
-104 -210 -211 0
-104 -210 -212 0
-104 -211 -212 0
-145 -162 -209 0
-145 -162 -210 0
-145 -162 -211 0
-145 -162 -212 0
-145 -209 -210 0
-145 -209 -211 0
-145 -209 -212 0
-145 -210 -211 0
-145 -210 -212 0
-145 -211 -212 0
-162 -209 -210 0
-162 -209 -211 0
-162 -209 -212 0
-162 -210 -211 0
-162 -210 -212 0
-162 -211 -212 0
-209 -210 -211 0
-209 -210 -212 0
-209 -211 -212 0
-210 -211 -212 0
104 145 162 209 210 211 212 0
95 145 162 209 210 211 212 0
95 104 162 209 210 211 212 0
95 104 145 209 210 211 212 0
95 104 145 162 210 211 212 0
95 104 145 162 209 211 212 0
95 104 145 162 209 210 212 0
95 104 145 162 209 210 211 0
-99 -108 -149 0
-99 -108 -166 0
-99 -108 -213 0
-99 -108 -214 0
-99 -108 -215 0
-99 -108 -216 0
-99 -149 -166 0
-99 -149 -213 0
-99 -149 -214 0
-99 -149 -215 0
-99 -149 -216 0
-99 -166 -213 0
-99 -166 -214 0
-99 -166 -215 0
-99 -166 -216 0
-99 -213 -214 0
-99 -213 -215 0
-99 -213 -216 0
-99 -214 -215 0
-99 -214 -216 0
-99 -215 -216 0
-108 -149 -166 0
-108 -149 -213 0
-108 -149 -214 0
-108 -149 -215 0
-108 -149 -216 0
-108 -166 -213 0
-108 -166 -214 0
-108 -166 -215 0
-108 -166 -216 0
-108 -213 -214 0
-108 -213 -215 0
-108 -213 -216 0
-108 -214 -215 0
-108 -214 -216 0
-108 -215 -216 0
-149 -166 -213 0
-149 -166 -214 0
-149 -166 -215 0
-149 -166 -216 0
-149 -213 -214 0
-149 -213 -215 0
-149 -213 -216 0
-149 -214 -215 0
-149 -214 -216 0
-149 -215 -216 0
-166 -213 -214 0
-166 -213 -215 0
-166 -213 -216 0
-166 -214 -215 0
-166 -214 -216 0
-166 -215 -216 0
-213 -214 -215 0
-213 -214 -216 0
-213 -215 -216 0
-214 -215 -216 0
108 149 166 213 214 215 216 0
99 149 166 213 214 215 216 0
99 108 166 213 214 215 216 0
99 108 149 213 214 215 216 0
99 108 149 166 214 215 216 0
99 108 149 166 213 215 216 0
99 108 149 166 213 214 216 0
99 108 149 166 213 214 215 0
-103 -112 -114 0
-103 -112 -153 0
-103 -112 -217 0
-103 -112 -218 0
-103 -112 -219 0
-103 -112 -220 0
-103 -114 -153 0
-103 -114 -217 0
-103 -114 -218 0
-103 -114 -219 0
-103 -114 -220 0
-103 -153 -217 0
-103 -153 -218 0
-103 -153 -219 0
-103 -153 -220 0
-103 -217 -218 0
-103 -217 -219 0
-103 -217 -220 0
-103 -218 -219 0
-103 -218 -220 0
-103 -219 -220 0
-112 -114 -153 0
-112 -114 -217 0
-112 -114 -218 0
-112 -114 -219 0
-112 -114 -220 0
-112 -153 -217 0
-112 -153 -218 0
-112 -153 -219 0
-112 -153 -220 0
-112 -217 -218 0
-112 -217 -219 0
-112 -217 -220 0
-112 -218 -219 0
-112 -218 -220 0
-112 -219 -220 0
-114 -153 -217 0
-114 -153 -218 0
-114 -153 -219 0
-114 -153 -220 0
-114 -217 -218 0
-114 -217 -219 0
-114 -217 -220 0
-114 -218 -219 0
-114 -218 -220 0
-114 -219 -220 0
-153 -217 -218 0
-153 -217 -219 0
-153 -217 -220 0
-153 -218 -219 0
-153 -218 -220 0
-153 -219 -220 0
-217 -218 -219 0
-217 -218 -220 0
-217 -219 -220 0
-218 -219 -220 0
112 114 153 217 218 219 220 0
103 114 153 217 218 219 220 0
103 112 153 217 218 219 220 0
103 112 114 217 218 219 220 0
103 112 114 153 218 219 220 0
103 112 114 153 217 219 220 0
103 112 114 153 217 218 220 0
103 112 114 153 217 218 219 0
-60 -107 -118 0
-60 -107 -157 0
-60 -107 -221 0
-60 -107 -222 0
-60 -107 -223 0
-60 -107 -224 0
-60 -118 -157 0
-60 -118 -221 0
-60 -118 -222 0
-60 -118 -223 0
-60 -118 -224 0
-60 -157 -221 0
-60 -157 -222 0
-60 -157 -223 0
-60 -157 -224 0
-60 -221 -222 0
-60 -221 -223 0
-60 -221 -224 0
-60 -222 -223 0
-60 -222 -224 0
-60 -223 -224 0
-107 -118 -157 0
-107 -118 -221 0
-107 -118 -222 0
-107 -118 -223 0
-107 -118 -224 0
-107 -157 -221 0
-107 -157 -222 0
-107 -157 -223 0
-107 -157 -224 0
-107 -221 -222 0
-107 -221 -223 0
-107 -221 -224 0
-107 -222 -223 0
-107 -222 -224 0
-107 -223 -224 0
-118 -157 -221 0
-118 -157 -222 0
-118 -157 -223 0
-118 -157 -224 0
-118 -221 -222 0
-118 -221 -223 0
-118 -221 -224 0
-118 -222 -223 0
-118 -222 -224 0
-118 -223 -224 0
-157 -221 -222 0
-157 -221 -223 0
-157 -221 -224 0
-157 -222 -223 0
-157 -222 -224 0
-157 -223 -224 0
-221 -222 -223 0
-221 -222 -224 0
-221 -223 -224 0
-222 -223 -224 0
107 118 157 221 222 223 224 0
60 118 157 221 222 223 224 0
60 107 157 221 222 223 224 0
60 107 118 221 222 223 224 0
60 107 118 157 222 223 224 0
60 107 118 157 221 223 224 0
60 107 118 157 221 222 224 0
60 107 118 157 221 222 223 0
-120 -167 -178 0
-120 -167 -217 0
-120 -167 -225 0
-120 -167 -226 0
-120 -167 -227 0
-120 -167 -228 0
-120 -178 -217 0
-120 -178 -225 0
-120 -178 -226 0
-120 -178 -227 0
-120 -178 -228 0
-120 -217 -225 0
-120 -217 -226 0
-120 -217 -227 0
-120 -217 -228 0
-120 -225 -226 0
-120 -225 -227 0
-120 -225 -228 0
-120 -226 -227 0
-120 -226 -228 0
-120 -227 -228 0
-167 -178 -217 0
-167 -178 -225 0
-167 -178 -226 0
-167 -178 -227 0
-167 -178 -228 0
-167 -217 -225 0
-167 -217 -226 0
-167 -217 -227 0
-167 -217 -228 0
-167 -225 -226 0
-167 -225 -227 0
-167 -225 -228 0
-167 -226 -227 0
-167 -226 -228 0
-167 -227 -228 0
-178 -217 -225 0
-178 -217 -226 0
-178 -217 -227 0
-178 -217 -228 0
-178 -225 -226 0
-178 -225 -227 0
-178 -225 -228 0
-178 -226 -227 0
-178 -226 -228 0
-178 -227 -228 0
-217 -225 -226 0
-217 -225 -227 0
-217 -225 -228 0
-217 -226 -227 0
-217 -226 -228 0
-217 -227 -228 0
-225 -226 -227 0
-225 -226 -228 0
-225 -227 -228 0
-226 -227 -228 0
167 178 217 225 226 227 228 0
120 178 217 225 226 227 228 0
120 167 217 225 226 227 228 0
120 167 178 225 226 227 228 0
120 167 178 217 226 227 228 0
120 167 178 217 225 227 228 0
120 167 178 217 225 226 228 0
120 167 178 217 225 226 227 0
-115 -124 -182 0
-115 -124 -221 0
-115 -124 -229 0
-115 -124 -230 0
-115 -124 -231 0
-115 -124 -232 0
-115 -182 -221 0
-115 -182 -229 0
-115 -182 -230 0
-115 -182 -231 0
-115 -182 -232 0
-115 -221 -229 0
-115 -221 -230 0
-115 -221 -231 0
-115 -221 -232 0
-115 -229 -230 0
-115 -229 -231 0
-115 -229 -232 0
-115 -230 -231 0
-115 -230 -232 0
-115 -231 -232 0
-124 -182 -221 0
-124 -182 -229 0
-124 -182 -230 0
-124 -182 -231 0
-124 -182 -232 0
-124 -221 -229 0
-124 -221 -230 0
-124 -221 -231 0
-124 -221 -232 0
-124 -229 -230 0
-124 -229 -231 0
-124 -229 -232 0
-124 -230 -231 0
-124 -230 -232 0
-124 -231 -232 0
-182 -221 -229 0
-182 -221 -230 0
-182 -221 -231 0
-182 -221 -232 0
-182 -229 -230 0
-182 -229 -231 0
-182 -229 -232 0
-182 -230 -231 0
-182 -230 -232 0
-182 -231 -232 0
-221 -229 -230 0
-221 -229 -231 0
-221 -229 -232 0
-221 -230 -231 0
-221 -230 -232 0
-221 -231 -232 0
-229 -230 -231 0
-229 -230 -232 0
-229 -231 -232 0
-230 -231 -232 0
124 182 221 229 230 231 232 0
115 182 221 229 230 231 232 0
115 124 221 229 230 231 232 0
115 124 182 229 230 231 232 0
115 124 182 221 230 231 232 0
115 124 182 221 229 231 232 0
115 124 182 221 229 230 232 0
115 124 182 221 229 230 231 0
-119 -128 -169 0
-119 -128 -186 0
-119 -128 -233 0
-119 -128 -234 0
-119 -128 -235 0
-119 -128 -236 0
-119 -169 -186 0
-119 -169 -233 0
-119 -169 -234 0
-119 -169 -235 0
-119 -169 -236 0
-119 -186 -233 0
-119 -186 -234 0
-119 -186 -235 0
-119 -186 -236 0
-119 -233 -234 0
-119 -233 -235 0
-119 -233 -236 0
-119 -234 -235 0
-119 -234 -236 0
-119 -235 -236 0
-128 -169 -186 0
-128 -169 -233 0
-128 -169 -234 0
-128 -169 -235 0
-128 -169 -236 0
-128 -186 -233 0
-128 -186 -234 0
-128 -186 -235 0
-128 -186 -236 0
-128 -233 -234 0
-128 -233 -235 0
-128 -233 -236 0
-128 -234 -235 0
-128 -234 -236 0
-128 -235 -236 0
-169 -186 -233 0
-169 -186 -234 0
-169 -186 -235 0
-169 -186 -236 0
-169 -233 -234 0
-169 -233 -235 0
-169 -233 -236 0
-169 -234 -235 0
-169 -234 -236 0
-169 -235 -236 0
-186 -233 -234 0
-186 -233 -235 0
-186 -233 -236 0
-186 -234 -235 0
-186 -234 -236 0
-186 -235 -236 0
-233 -234 -235 0
-233 -234 -236 0
-233 -235 -236 0
-234 -235 -236 0
128 169 186 233 234 235 236 0
119 169 186 233 234 235 236 0
119 128 186 233 234 235 236 0
119 128 169 233 234 235 236 0
119 128 169 186 234 235 236 0
119 128 169 186 233 235 236 0
119 128 169 186 233 234 236 0
119 128 169 186 233 234 235 0
-123 -132 -173 0
-123 -132 -190 0
-123 -132 -237 0
-123 -132 -238 0
-123 -132 -239 0
-123 -132 -240 0
-123 -173 -190 0
-123 -173 -237 0
-123 -173 -238 0
-123 -173 -239 0
-123 -173 -240 0
-123 -190 -237 0
-123 -190 -238 0
-123 -190 -239 0
-123 -190 -240 0
-123 -237 -238 0
-123 -237 -239 0
-123 -237 -240 0
-123 -238 -239 0
-123 -238 -240 0
-123 -239 -240 0
-132 -173 -190 0
-132 -173 -237 0
-132 -173 -238 0
-132 -173 -239 0
-132 -173 -240 0
-132 -190 -237 0
-132 -190 -238 0
-132 -190 -239 0
-132 -190 -240 0
-132 -237 -238 0
-132 -237 -239 0
-132 -237 -240 0
-132 -238 -239 0
-132 -238 -240 0
-132 -239 -240 0
-173 -190 -237 0
-173 -190 -238 0
-173 -190 -239 0
-173 -190 -240 0
-173 -237 -238 0
-173 -237 -239 0
-173 -237 -240 0
-173 -238 -239 0
-173 -238 -240 0
-173 -239 -240 0
-190 -237 -238 0
-190 -237 -239 0
-190 -237 -240 0
-190 -238 -239 0
-190 -238 -240 0
-190 -239 -240 0
-237 -238 -239 0
-237 -238 -240 0
-237 -239 -240 0
-238 -239 -240 0
132 173 190 237 238 239 240 0
123 173 190 237 238 239 240 0
123 132 190 237 238 239 240 0
123 132 173 237 238 239 240 0
123 132 173 190 238 239 240 0
123 132 173 190 237 239 240 0
123 132 173 190 237 238 240 0
123 132 173 190 237 238 239 0
-127 -136 -177 0
-127 -136 -194 0
-127 -136 -241 0
-127 -136 -242 0
-127 -136 -243 0
-127 -136 -244 0
-127 -177 -194 0
-127 -177 -241 0
-127 -177 -242 0
-127 -177 -243 0
-127 -177 -244 0
-127 -194 -241 0
-127 -194 -242 0
-127 -194 -243 0
-127 -194 -244 0
-127 -241 -242 0
-127 -241 -243 0
-127 -241 -244 0
-127 -242 -243 0
-127 -242 -244 0
-127 -243 -244 0
-136 -177 -194 0
-136 -177 -241 0
-136 -177 -242 0
-136 -177 -243 0
-136 -177 -244 0
-136 -194 -241 0
-136 -194 -242 0
-136 -194 -243 0
-136 -194 -244 0
-136 -241 -242 0
-136 -241 -243 0
-136 -241 -244 0
-136 -242 -243 0
-136 -242 -244 0
-136 -243 -244 0
-177 -194 -241 0
-177 -194 -242 0
-177 -194 -243 0
-177 -194 -244 0
-177 -241 -242 0
-177 -241 -243 0
-177 -241 -244 0
-177 -242 -243 0
-177 -242 -244 0
-177 -243 -244 0
-194 -241 -242 0
-194 -241 -243 0
-194 -241 -244 0
-194 -242 -243 0
-194 -242 -244 0
-194 -243 -244 0
-241 -242 -243 0
-241 -242 -244 0
-241 -243 -244 0
-242 -243 -244 0
136 177 194 241 242 243 244 0
127 177 194 241 242 243 244 0
127 136 194 241 242 243 244 0
127 136 177 241 242 243 244 0
127 136 177 194 242 243 244 0
127 136 177 194 241 243 244 0
127 136 177 194 241 242 244 0
127 136 177 194 241 242 243 0
-131 -140 -181 0
-131 -140 -198 0
-131 -140 -245 0
-131 -140 -246 0
-131 -140 -247 0
-131 -140 -248 0
-131 -181 -198 0
-131 -181 -245 0
-131 -181 -246 0
-131 -181 -247 0
-131 -181 -248 0
-131 -198 -245 0
-131 -198 -246 0
-131 -198 -247 0
-131 -198 -248 0
-131 -245 -246 0
-131 -245 -247 0
-131 -245 -248 0
-131 -246 -247 0
-131 -246 -248 0
-131 -247 -248 0
-140 -181 -198 0
-140 -181 -245 0
-140 -181 -246 0
-140 -181 -247 0
-140 -181 -248 0
-140 -198 -245 0
-140 -198 -246 0
-140 -198 -247 0
-140 -198 -248 0
-140 -245 -246 0
-140 -245 -247 0
-140 -245 -248 0
-140 -246 -247 0
-140 -246 -248 0
-140 -247 -248 0
-181 -198 -245 0
-181 -198 -246 0
-181 -198 -247 0
-181 -198 -248 0
-181 -245 -246 0
-181 -245 -247 0
-181 -245 -248 0
-181 -246 -247 0
-181 -246 -248 0
-181 -247 -248 0
-198 -245 -246 0
-198 -245 -247 0
-198 -245 -248 0
-198 -246 -247 0
-198 -246 -248 0
-198 -247 -248 0
-245 -246 -247 0
-245 -246 -248 0
-245 -247 -248 0
-246 -247 -248 0
140 181 198 245 246 247 248 0
131 181 198 245 246 247 248 0
131 140 198 245 246 247 248 0
131 140 181 245 246 247 248 0
131 140 181 198 246 247 248 0
131 140 181 198 245 247 248 0
131 140 181 198 245 246 248 0
131 140 181 198 245 246 247 0
-135 -144 -185 0
-135 -144 -202 0
-135 -144 -249 0
-135 -144 -250 0
-135 -144 -251 0
-135 -144 -252 0
-135 -185 -202 0
-135 -185 -249 0
-135 -185 -250 0
-135 -185 -251 0
-135 -185 -252 0
-135 -202 -249 0
-135 -202 -250 0
-135 -202 -251 0
-135 -202 -252 0
-135 -249 -250 0
-135 -249 -251 0
-135 -249 -252 0
-135 -250 -251 0
-135 -250 -252 0
-135 -251 -252 0
-144 -185 -202 0
-144 -185 -249 0
-144 -185 -250 0
-144 -185 -251 0
-144 -185 -252 0
-144 -202 -249 0
-144 -202 -250 0
-144 -202 -251 0
-144 -202 -252 0
-144 -249 -250 0
-144 -249 -251 0
-144 -249 -252 0
-144 -250 -251 0
-144 -250 -252 0
-144 -251 -252 0
-185 -202 -249 0
-185 -202 -250 0
-185 -202 -251 0
-185 -202 -252 0
-185 -249 -250 0
-185 -249 -251 0
-185 -249 -252 0
-185 -250 -251 0
-185 -250 -252 0
-185 -251 -252 0
-202 -249 -250 0
-202 -249 -251 0
-202 -249 -252 0
-202 -250 -251 0
-202 -250 -252 0
-202 -251 -252 0
-249 -250 -251 0
-249 -250 -252 0
-249 -251 -252 0
-250 -251 -252 0
144 185 202 249 250 251 252 0
135 185 202 249 250 251 252 0
135 144 202 249 250 251 252 0
135 144 185 249 250 251 252 0
135 144 185 202 250 251 252 0
135 144 185 202 249 251 252 0
135 144 185 202 249 250 252 0
135 144 185 202 249 250 251 0
-139 -148 -189 0
-139 -148 -206 0
-139 -148 -253 0
-139 -148 -254 0
-139 -148 -255 0
-139 -148 -256 0
-139 -189 -206 0
-139 -189 -253 0
-139 -189 -254 0
-139 -189 -255 0
-139 -189 -256 0
-139 -206 -253 0
-139 -206 -254 0
-139 -206 -255 0
-139 -206 -256 0
-139 -253 -254 0
-139 -253 -255 0
-139 -253 -256 0
-139 -254 -255 0
-139 -254 -256 0
-139 -255 -256 0
-148 -189 -206 0
-148 -189 -253 0
-148 -189 -254 0
-148 -189 -255 0
-148 -189 -256 0
-148 -206 -253 0
-148 -206 -254 0
-148 -206 -255 0
-148 -206 -256 0
-148 -253 -254 0
-148 -253 -255 0
-148 -253 -256 0
-148 -254 -255 0
-148 -254 -256 0
-148 -255 -256 0
-189 -206 -253 0
-189 -206 -254 0
-189 -206 -255 0
-189 -206 -256 0
-189 -253 -254 0
-189 -253 -255 0
-189 -253 -256 0
-189 -254 -255 0
-189 -254 -256 0
-189 -255 -256 0
-206 -253 -254 0
-206 -253 -255 0
-206 -253 -256 0
-206 -254 -255 0
-206 -254 -256 0
-206 -255 -256 0
-253 -254 -255 0
-253 -254 -256 0
-253 -255 -256 0
-254 -255 -256 0
148 189 206 253 254 255 256 0
139 189 206 253 254 255 256 0
139 148 206 253 254 255 256 0
139 148 189 253 254 255 256 0
139 148 189 206 254 255 256 0
139 148 189 206 253 255 256 0
139 148 189 206 253 254 256 0
139 148 189 206 253 254 255 0
-143 -152 -193 0
-143 -152 -210 0
-143 -152 -257 0
-143 -152 -258 0
-143 -152 -259 0
-143 -152 -260 0
-143 -193 -210 0
-143 -193 -257 0
-143 -193 -258 0
-143 -193 -259 0
-143 -193 -260 0
-143 -210 -257 0
-143 -210 -258 0
-143 -210 -259 0
-143 -210 -260 0
-143 -257 -258 0
-143 -257 -259 0
-143 -257 -260 0
-143 -258 -259 0
-143 -258 -260 0
-143 -259 -260 0
-152 -193 -210 0
-152 -193 -257 0
-152 -193 -258 0
-152 -193 -259 0
-152 -193 -260 0
-152 -210 -257 0
-152 -210 -258 0
-152 -210 -259 0
-152 -210 -260 0
-152 -257 -258 0
-152 -257 -259 0
-152 -257 -260 0
-152 -258 -259 0
-152 -258 -260 0
-152 -259 -260 0
-193 -210 -257 0
-193 -210 -258 0
-193 -210 -259 0
-193 -210 -260 0
-193 -257 -258 0
-193 -257 -259 0
-193 -257 -260 0
-193 -258 -259 0
-193 -258 -260 0
-193 -259 -260 0
-210 -257 -258 0
-210 -257 -259 0
-210 -257 -260 0
-210 -258 -259 0
-210 -258 -260 0
-210 -259 -260 0
-257 -258 -259 0
-257 -258 -260 0
-257 -259 -260 0
-258 -259 -260 0
152 193 210 257 258 259 260 0
143 193 210 257 258 259 260 0
143 152 210 257 258 259 260 0
143 152 193 257 258 259 260 0
143 152 193 210 258 259 260 0
143 152 193 210 257 259 260 0
143 152 193 210 257 258 260 0
143 152 193 210 257 258 259 0
-147 -156 -197 0
-147 -156 -214 0
-147 -156 -261 0
-147 -156 -262 0
-147 -156 -263 0
-147 -156 -264 0
-147 -197 -214 0
-147 -197 -261 0
-147 -197 -262 0
-147 -197 -263 0
-147 -197 -264 0
-147 -214 -261 0
-147 -214 -262 0
-147 -214 -263 0
-147 -214 -264 0
-147 -261 -262 0
-147 -261 -263 0
-147 -261 -264 0
-147 -262 -263 0
-147 -262 -264 0
-147 -263 -264 0
-156 -197 -214 0
-156 -197 -261 0
-156 -197 -262 0
-156 -197 -263 0
-156 -197 -264 0
-156 -214 -261 0
-156 -214 -262 0
-156 -214 -263 0
-156 -214 -264 0
-156 -261 -262 0
-156 -261 -263 0
-156 -261 -264 0
-156 -262 -263 0
-156 -262 -264 0
-156 -263 -264 0
-197 -214 -261 0
-197 -214 -262 0
-197 -214 -263 0
-197 -214 -264 0
-197 -261 -262 0
-197 -261 -263 0
-197 -261 -264 0
-197 -262 -263 0
-197 -262 -264 0
-197 -263 -264 0
-214 -261 -262 0
-214 -261 -263 0
-214 -261 -264 0
-214 -262 -263 0
-214 -262 -264 0
-214 -263 -264 0
-261 -262 -263 0
-261 -262 -264 0
-261 -263 -264 0
-262 -263 -264 0
156 197 214 261 262 263 264 0
147 197 214 261 262 263 264 0
147 156 214 261 262 263 264 0
147 156 197 261 262 263 264 0
147 156 197 214 262 263 264 0
147 156 197 214 261 263 264 0
147 156 197 214 261 262 264 0
147 156 197 214 261 262 263 0
-151 -160 -201 0
-151 -160 -218 0
-151 -160 -265 0
-151 -160 -266 0
-151 -160 -267 0
-151 -160 -268 0
-151 -201 -218 0
-151 -201 -265 0
-151 -201 -266 0
-151 -201 -267 0
-151 -201 -268 0
-151 -218 -265 0
-151 -218 -266 0
-151 -218 -267 0
-151 -218 -268 0
-151 -265 -266 0
-151 -265 -267 0
-151 -265 -268 0
-151 -266 -267 0
-151 -266 -268 0
-151 -267 -268 0
-160 -201 -218 0
-160 -201 -265 0
-160 -201 -266 0
-160 -201 -267 0
-160 -201 -268 0
-160 -218 -265 0
-160 -218 -266 0
-160 -218 -267 0
-160 -218 -268 0
-160 -265 -266 0
-160 -265 -267 0
-160 -265 -268 0
-160 -266 -267 0
-160 -266 -268 0
-160 -267 -268 0
-201 -218 -265 0
-201 -218 -266 0
-201 -218 -267 0
-201 -218 -268 0
-201 -265 -266 0
-201 -265 -267 0
-201 -265 -268 0
-201 -266 -267 0
-201 -266 -268 0
-201 -267 -268 0
-218 -265 -266 0
-218 -265 -267 0
-218 -265 -268 0
-218 -266 -267 0
-218 -266 -268 0
-218 -267 -268 0
-265 -266 -267 0
-265 -266 -268 0
-265 -267 -268 0
-266 -267 -268 0
160 201 218 265 266 267 268 0
151 201 218 265 266 267 268 0
151 160 218 265 266 267 268 0
151 160 201 265 266 267 268 0
151 160 201 218 266 267 268 0
151 160 201 218 265 267 268 0
151 160 201 218 265 266 268 0
151 160 201 218 265 266 267 0
-155 -164 -205 0
-155 -164 -222 0
-155 -164 -269 0
-155 -164 -270 0
-155 -164 -271 0
-155 -164 -272 0
-155 -205 -222 0
-155 -205 -269 0
-155 -205 -270 0
-155 -205 -271 0
-155 -205 -272 0
-155 -222 -269 0
-155 -222 -270 0
-155 -222 -271 0
-155 -222 -272 0
-155 -269 -270 0
-155 -269 -271 0
-155 -269 -272 0
-155 -270 -271 0
-155 -270 -272 0
-155 -271 -272 0
-164 -205 -222 0
-164 -205 -269 0
-164 -205 -270 0
-164 -205 -271 0
-164 -205 -272 0
-164 -222 -269 0
-164 -222 -270 0
-164 -222 -271 0
-164 -222 -272 0
-164 -269 -270 0
-164 -269 -271 0
-164 -269 -272 0
-164 -270 -271 0
-164 -270 -272 0
-164 -271 -272 0
-205 -222 -269 0
-205 -222 -270 0
-205 -222 -271 0
-205 -222 -272 0
-205 -269 -270 0
-205 -269 -271 0
-205 -269 -272 0
-205 -270 -271 0
-205 -270 -272 0
-205 -271 -272 0
-222 -269 -270 0
-222 -269 -271 0
-222 -269 -272 0
-222 -270 -271 0
-222 -270 -272 0
-222 -271 -272 0
-269 -270 -271 0
-269 -270 -272 0
-269 -271 -272 0
-270 -271 -272 0
164 205 222 269 270 271 272 0
155 205 222 269 270 271 272 0
155 164 222 269 270 271 272 0
155 164 205 269 270 271 272 0
155 164 205 222 270 271 272 0
155 164 205 222 269 271 272 0
155 164 205 222 269 270 272 0
155 164 205 222 269 270 271 0
-159 -168 -170 0
-159 -168 -209 0
-159 -168 -273 0
-159 -168 -274 0
-159 -168 -275 0
-159 -168 -276 0
-159 -170 -209 0
-159 -170 -273 0
-159 -170 -274 0
-159 -170 -275 0
-159 -170 -276 0
-159 -209 -273 0
-159 -209 -274 0
-159 -209 -275 0
-159 -209 -276 0
-159 -273 -274 0
-159 -273 -275 0
-159 -273 -276 0
-159 -274 -275 0
-159 -274 -276 0
-159 -275 -276 0
-168 -170 -209 0
-168 -170 -273 0
-168 -170 -274 0
-168 -170 -275 0
-168 -170 -276 0
-168 -209 -273 0
-168 -209 -274 0
-168 -209 -275 0
-168 -209 -276 0
-168 -273 -274 0
-168 -273 -275 0
-168 -273 -276 0
-168 -274 -275 0
-168 -274 -276 0
-168 -275 -276 0
-170 -209 -273 0
-170 -209 -274 0
-170 -209 -275 0
-170 -209 -276 0
-170 -273 -274 0
-170 -273 -275 0
-170 -273 -276 0
-170 -274 -275 0
-170 -274 -276 0
-170 -275 -276 0
-209 -273 -274 0
-209 -273 -275 0
-209 -273 -276 0
-209 -274 -275 0
-209 -274 -276 0
-209 -275 -276 0
-273 -274 -275 0
-273 -274 -276 0
-273 -275 -276 0
-274 -275 -276 0
168 170 209 273 274 275 276 0
159 170 209 273 274 275 276 0
159 168 209 273 274 275 276 0
159 168 170 273 274 275 276 0
159 168 170 209 274 275 276 0
159 168 170 209 273 275 276 0
159 168 170 209 273 274 276 0
159 168 170 209 273 274 275 0
-116 -163 -174 0
-116 -163 -213 0
-116 -163 -277 0
-116 -163 -278 0
-116 -163 -279 0
-116 -163 -280 0
-116 -174 -213 0
-116 -174 -277 0
-116 -174 -278 0
-116 -174 -279 0
-116 -174 -280 0
-116 -213 -277 0
-116 -213 -278 0
-116 -213 -279 0
-116 -213 -280 0
-116 -277 -278 0
-116 -277 -279 0
-116 -277 -280 0
-116 -278 -279 0
-116 -278 -280 0
-116 -279 -280 0
-163 -174 -213 0
-163 -174 -277 0
-163 -174 -278 0
-163 -174 -279 0
-163 -174 -280 0
-163 -213 -277 0
-163 -213 -278 0
-163 -213 -279 0
-163 -213 -280 0
-163 -277 -278 0
-163 -277 -279 0
-163 -277 -280 0
-163 -278 -279 0
-163 -278 -280 0
-163 -279 -280 0
-174 -213 -277 0
-174 -213 -278 0
-174 -213 -279 0
-174 -213 -280 0
-174 -277 -278 0
-174 -277 -279 0
-174 -277 -280 0
-174 -278 -279 0
-174 -278 -280 0
-174 -279 -280 0
-213 -277 -278 0
-213 -277 -279 0
-213 -277 -280 0
-213 -278 -279 0
-213 -278 -280 0
-213 -279 -280 0
-277 -278 -279 0
-277 -278 -280 0
-277 -279 -280 0
-278 -279 -280 0
163 174 213 277 278 279 280 0
116 174 213 277 278 279 280 0
116 163 213 277 278 279 280 0
116 163 174 277 278 279 280 0
116 163 174 213 278 279 280 0
116 163 174 213 277 279 280 0
116 163 174 213 277 278 280 0
116 163 174 213 277 278 279 0
-176 -223 -234 0
-176 -223 -273 0
-176 -223 -281 0
-176 -223 -282 0
-176 -223 -283 0
-176 -223 -284 0
-176 -234 -273 0
-176 -234 -281 0
-176 -234 -282 0
-176 -234 -283 0
-176 -234 -284 0
-176 -273 -281 0
-176 -273 -282 0
-176 -273 -283 0
-176 -273 -284 0
-176 -281 -282 0
-176 -281 -283 0
-176 -281 -284 0
-176 -282 -283 0
-176 -282 -284 0
-176 -283 -284 0
-223 -234 -273 0
-223 -234 -281 0
-223 -234 -282 0
-223 -234 -283 0
-223 -234 -284 0
-223 -273 -281 0
-223 -273 -282 0
-223 -273 -283 0
-223 -273 -284 0
-223 -281 -282 0
-223 -281 -283 0
-223 -281 -284 0
-223 -282 -283 0
-223 -282 -284 0
-223 -283 -284 0
-234 -273 -281 0
-234 -273 -282 0
-234 -273 -283 0
-234 -273 -284 0
-234 -281 -282 0
-234 -281 -283 0
-234 -281 -284 0
-234 -282 -283 0
-234 -282 -284 0
-234 -283 -284 0
-273 -281 -282 0
-273 -281 -283 0
-273 -281 -284 0
-273 -282 -283 0
-273 -282 -284 0
-273 -283 -284 0
-281 -282 -283 0
-281 -282 -284 0
-281 -283 -284 0
-282 -283 -284 0
223 234 273 281 282 283 284 0
176 234 273 281 282 283 284 0
176 223 273 281 282 283 284 0
176 223 234 281 282 283 284 0
176 223 234 273 282 283 284 0
176 223 234 273 281 283 284 0
176 223 234 273 281 282 284 0
176 223 234 273 281 282 283 0
-171 -180 -238 0
-171 -180 -277 0
-171 -180 -285 0
-171 -180 -286 0
-171 -180 -287 0
-171 -180 -288 0
-171 -238 -277 0
-171 -238 -285 0
-171 -238 -286 0
-171 -238 -287 0
-171 -238 -288 0
-171 -277 -285 0
-171 -277 -286 0
-171 -277 -287 0
-171 -277 -288 0
-171 -285 -286 0
-171 -285 -287 0
-171 -285 -288 0
-171 -286 -287 0
-171 -286 -288 0
-171 -287 -288 0
-180 -238 -277 0
-180 -238 -285 0
-180 -238 -286 0
-180 -238 -287 0
-180 -238 -288 0
-180 -277 -285 0
-180 -277 -286 0
-180 -277 -287 0
-180 -277 -288 0
-180 -285 -286 0
-180 -285 -287 0
-180 -285 -288 0
-180 -286 -287 0
-180 -286 -288 0
-180 -287 -288 0
-238 -277 -285 0
-238 -277 -286 0
-238 -277 -287 0
-238 -277 -288 0
-238 -285 -286 0
-238 -285 -287 0
-238 -285 -288 0
-238 -286 -287 0
-238 -286 -288 0
-238 -287 -288 0
-277 -285 -286 0
-277 -285 -287 0
-277 -285 -288 0
-277 -286 -287 0
-277 -286 -288 0
-277 -287 -288 0
-285 -286 -287 0
-285 -286 -288 0
-285 -287 -288 0
-286 -287 -288 0
180 238 277 285 286 287 288 0
171 238 277 285 286 287 288 0
171 180 277 285 286 287 288 0
171 180 238 285 286 287 288 0
171 180 238 277 286 287 288 0
171 180 238 277 285 287 288 0
171 180 238 277 285 286 288 0
171 180 238 277 285 286 287 0
-175 -184 -225 0
-175 -184 -242 0
-175 -184 -289 0
-175 -184 -290 0
-175 -184 -291 0
-175 -184 -292 0
-175 -225 -242 0
-175 -225 -289 0
-175 -225 -290 0
-175 -225 -291 0
-175 -225 -292 0
-175 -242 -289 0
-175 -242 -290 0
-175 -242 -291 0
-175 -242 -292 0
-175 -289 -290 0
-175 -289 -291 0
-175 -289 -292 0
-175 -290 -291 0
-175 -290 -292 0
-175 -291 -292 0
-184 -225 -242 0
-184 -225 -289 0
-184 -225 -290 0
-184 -225 -291 0
-184 -225 -292 0
-184 -242 -289 0
-184 -242 -290 0
-184 -242 -291 0
-184 -242 -292 0
-184 -289 -290 0
-184 -289 -291 0
-184 -289 -292 0
-184 -290 -291 0
-184 -290 -292 0
-184 -291 -292 0
-225 -242 -289 0
-225 -242 -290 0
-225 -242 -291 0
-225 -242 -292 0
-225 -289 -290 0
-225 -289 -291 0
-225 -289 -292 0
-225 -290 -291 0
-225 -290 -292 0
-225 -291 -292 0
-242 -289 -290 0
-242 -289 -291 0
-242 -289 -292 0
-242 -290 -291 0
-242 -290 -292 0
-242 -291 -292 0
-289 -290 -291 0
-289 -290 -292 0
-289 -291 -292 0
-290 -291 -292 0
184 225 242 289 290 291 292 0
175 225 242 289 290 291 292 0
175 184 242 289 290 291 292 0
175 184 225 289 290 291 292 0
175 184 225 242 290 291 292 0
175 184 225 242 289 291 292 0
175 184 225 242 289 290 292 0
175 184 225 242 289 290 291 0
-179 -188 -229 0
-179 -188 -246 0
-179 -188 -293 0
-179 -188 -294 0
-179 -188 -295 0
-179 -188 -296 0
-179 -229 -246 0
-179 -229 -293 0
-179 -229 -294 0
-179 -229 -295 0
-179 -229 -296 0
-179 -246 -293 0
-179 -246 -294 0
-179 -246 -295 0
-179 -246 -296 0
-179 -293 -294 0
-179 -293 -295 0
-179 -293 -296 0
-179 -294 -295 0
-179 -294 -296 0
-179 -295 -296 0
-188 -229 -246 0
-188 -229 -293 0
-188 -229 -294 0
-188 -229 -295 0
-188 -229 -296 0
-188 -246 -293 0
-188 -246 -294 0
-188 -246 -295 0
-188 -246 -296 0
-188 -293 -294 0
-188 -293 -295 0
-188 -293 -296 0
-188 -294 -295 0
-188 -294 -296 0
-188 -295 -296 0
-229 -246 -293 0
-229 -246 -294 0
-229 -246 -295 0
-229 -246 -296 0
-229 -293 -294 0
-229 -293 -295 0
-229 -293 -296 0
-229 -294 -295 0
-229 -294 -296 0
-229 -295 -296 0
-246 -293 -294 0
-246 -293 -295 0
-246 -293 -296 0
-246 -294 -295 0
-246 -294 -296 0
-246 -295 -296 0
-293 -294 -295 0
-293 -294 -296 0
-293 -295 -296 0
-294 -295 -296 0
188 229 246 293 294 295 296 0
179 229 246 293 294 295 296 0
179 188 246 293 294 295 296 0
179 188 229 293 294 295 296 0
179 188 229 246 294 295 296 0
179 188 229 246 293 295 296 0
179 188 229 246 293 294 296 0
179 188 229 246 293 294 295 0
-183 -192 -233 0
-183 -192 -250 0
-183 -192 -297 0
-183 -192 -298 0
-183 -192 -299 0
-183 -192 -300 0
-183 -233 -250 0
-183 -233 -297 0
-183 -233 -298 0
-183 -233 -299 0
-183 -233 -300 0
-183 -250 -297 0
-183 -250 -298 0
-183 -250 -299 0
-183 -250 -300 0
-183 -297 -298 0
-183 -297 -299 0
-183 -297 -300 0
-183 -298 -299 0
-183 -298 -300 0
-183 -299 -300 0
-192 -233 -250 0
-192 -233 -297 0
-192 -233 -298 0
-192 -233 -299 0
-192 -233 -300 0
-192 -250 -297 0
-192 -250 -298 0
-192 -250 -299 0
-192 -250 -300 0
-192 -297 -298 0
-192 -297 -299 0
-192 -297 -300 0
-192 -298 -299 0
-192 -298 -300 0
-192 -299 -300 0
-233 -250 -297 0
-233 -250 -298 0
-233 -250 -299 0
-233 -250 -300 0
-233 -297 -298 0
-233 -297 -299 0
-233 -297 -300 0
-233 -298 -299 0
-233 -298 -300 0
-233 -299 -300 0
-250 -297 -298 0
-250 -297 -299 0
-250 -297 -300 0
-250 -298 -299 0
-250 -298 -300 0
-250 -299 -300 0
-297 -298 -299 0
-297 -298 -300 0
-297 -299 -300 0
-298 -299 -300 0
192 233 250 297 298 299 300 0
183 233 250 297 298 299 300 0
183 192 250 297 298 299 300 0
183 192 233 297 298 299 300 0
183 192 233 250 298 299 300 0
183 192 233 250 297 299 300 0
183 192 233 250 297 298 300 0
183 192 233 250 297 298 299 0
-187 -196 -237 0
-187 -196 -254 0
-187 -196 -301 0
-187 -196 -302 0
-187 -196 -303 0
-187 -196 -304 0
-187 -237 -254 0
-187 -237 -301 0
-187 -237 -302 0
-187 -237 -303 0
-187 -237 -304 0
-187 -254 -301 0
-187 -254 -302 0
-187 -254 -303 0
-187 -254 -304 0
-187 -301 -302 0
-187 -301 -303 0
-187 -301 -304 0
-187 -302 -303 0
-187 -302 -304 0
-187 -303 -304 0
-196 -237 -254 0
-196 -237 -301 0
-196 -237 -302 0
-196 -237 -303 0
-196 -237 -304 0
-196 -254 -301 0
-196 -254 -302 0
-196 -254 -303 0
-196 -254 -304 0
-196 -301 -302 0
-196 -301 -303 0
-196 -301 -304 0
-196 -302 -303 0
-196 -302 -304 0
-196 -303 -304 0
-237 -254 -301 0
-237 -254 -302 0
-237 -254 -303 0
-237 -254 -304 0
-237 -301 -302 0
-237 -301 -303 0
-237 -301 -304 0
-237 -302 -303 0
-237 -302 -304 0
-237 -303 -304 0
-254 -301 -302 0
-254 -301 -303 0
-254 -301 -304 0
-254 -302 -303 0
-254 -302 -304 0
-254 -303 -304 0
-301 -302 -303 0
-301 -302 -304 0
-301 -303 -304 0
-302 -303 -304 0
196 237 254 301 302 303 304 0
187 237 254 301 302 303 304 0
187 196 254 301 302 303 304 0
187 196 237 301 302 303 304 0
187 196 237 254 302 303 304 0
187 196 237 254 301 303 304 0
187 196 237 254 301 302 304 0
187 196 237 254 301 302 303 0
-191 -200 -241 0
-191 -200 -258 0
-191 -200 -305 0
-191 -200 -306 0
-191 -200 -307 0
-191 -200 -308 0
-191 -241 -258 0
-191 -241 -305 0
-191 -241 -306 0
-191 -241 -307 0
-191 -241 -308 0
-191 -258 -305 0
-191 -258 -306 0
-191 -258 -307 0
-191 -258 -308 0
-191 -305 -306 0
-191 -305 -307 0
-191 -305 -308 0
-191 -306 -307 0
-191 -306 -308 0
-191 -307 -308 0
-200 -241 -258 0
-200 -241 -305 0
-200 -241 -306 0
-200 -241 -307 0
-200 -241 -308 0
-200 -258 -305 0
-200 -258 -306 0
-200 -258 -307 0
-200 -258 -308 0
-200 -305 -306 0
-200 -305 -307 0
-200 -305 -308 0
-200 -306 -307 0
-200 -306 -308 0
-200 -307 -308 0
-241 -258 -305 0
-241 -258 -306 0
-241 -258 -307 0
-241 -258 -308 0
-241 -305 -306 0
-241 -305 -307 0
-241 -305 -308 0
-241 -306 -307 0
-241 -306 -308 0
-241 -307 -308 0
-258 -305 -306 0
-258 -305 -307 0
-258 -305 -308 0
-258 -306 -307 0
-258 -306 -308 0
-258 -307 -308 0
-305 -306 -307 0
-305 -306 -308 0
-305 -307 -308 0
-306 -307 -308 0
200 241 258 305 306 307 308 0
191 241 258 305 306 307 308 0
191 200 258 305 306 307 308 0
191 200 241 305 306 307 308 0
191 200 241 258 306 307 308 0
191 200 241 258 305 307 308 0
191 200 241 258 305 306 308 0
191 200 241 258 305 306 307 0
-195 -204 -245 0
-195 -204 -262 0
-195 -204 -309 0
-195 -204 -310 0
-195 -204 -311 0
-195 -204 -312 0
-195 -245 -262 0
-195 -245 -309 0
-195 -245 -310 0
-195 -245 -311 0
-195 -245 -312 0
-195 -262 -309 0
-195 -262 -310 0
-195 -262 -311 0
-195 -262 -312 0
-195 -309 -310 0
-195 -309 -311 0
-195 -309 -312 0
-195 -310 -311 0
-195 -310 -312 0
-195 -311 -312 0
-204 -245 -262 0
-204 -245 -309 0
-204 -245 -310 0
-204 -245 -311 0
-204 -245 -312 0
-204 -262 -309 0
-204 -262 -310 0
-204 -262 -311 0
-204 -262 -312 0
-204 -309 -310 0
-204 -309 -311 0
-204 -309 -312 0
-204 -310 -311 0
-204 -310 -312 0
-204 -311 -312 0
-245 -262 -309 0
-245 -262 -310 0
-245 -262 -311 0
-245 -262 -312 0
-245 -309 -310 0
-245 -309 -311 0
-245 -309 -312 0
-245 -310 -311 0
-245 -310 -312 0
-245 -311 -312 0
-262 -309 -310 0
-262 -309 -311 0
-262 -309 -312 0
-262 -310 -311 0
-262 -310 -312 0
-262 -311 -312 0
-309 -310 -311 0
-309 -310 -312 0
-309 -311 -312 0
-310 -311 -312 0
204 245 262 309 310 311 312 0
195 245 262 309 310 311 312 0
195 204 262 309 310 311 312 0
195 204 245 309 310 311 312 0
195 204 245 262 310 311 312 0
195 204 245 262 309 311 312 0
195 204 245 262 309 310 312 0
195 204 245 262 309 310 311 0
-199 -208 -249 0
-199 -208 -266 0
-199 -208 -313 0
-199 -208 -314 0
-199 -208 -315 0
-199 -208 -316 0
-199 -249 -266 0
-199 -249 -313 0
-199 -249 -314 0
-199 -249 -315 0
-199 -249 -316 0
-199 -266 -313 0
-199 -266 -314 0
-199 -266 -315 0
-199 -266 -316 0
-199 -313 -314 0
-199 -313 -315 0
-199 -313 -316 0
-199 -314 -315 0
-199 -314 -316 0
-199 -315 -316 0
-208 -249 -266 0
-208 -249 -313 0
-208 -249 -314 0
-208 -249 -315 0
-208 -249 -316 0
-208 -266 -313 0
-208 -266 -314 0
-208 -266 -315 0
-208 -266 -316 0
-208 -313 -314 0
-208 -313 -315 0
-208 -313 -316 0
-208 -314 -315 0
-208 -314 -316 0
-208 -315 -316 0
-249 -266 -313 0
-249 -266 -314 0
-249 -266 -315 0
-249 -266 -316 0
-249 -313 -314 0
-249 -313 -315 0
-249 -313 -316 0
-249 -314 -315 0
-249 -314 -316 0
-249 -315 -316 0
-266 -313 -314 0
-266 -313 -315 0
-266 -313 -316 0
-266 -314 -315 0
-266 -314 -316 0
-266 -315 -316 0
-313 -314 -315 0
-313 -314 -316 0
-313 -315 -316 0
-314 -315 -316 0
208 249 266 313 314 315 316 0
199 249 266 313 314 315 316 0
199 208 266 313 314 315 316 0
199 208 249 313 314 315 316 0
199 208 249 266 314 315 316 0
199 208 249 266 313 315 316 0
199 208 249 266 313 314 316 0
199 208 249 266 313 314 315 0
-203 -212 -253 0
-203 -212 -270 0
-203 -212 -317 0
-203 -212 -318 0
-203 -212 -319 0
-203 -212 -320 0
-203 -253 -270 0
-203 -253 -317 0
-203 -253 -318 0
-203 -253 -319 0
-203 -253 -320 0
-203 -270 -317 0
-203 -270 -318 0
-203 -270 -319 0
-203 -270 -320 0
-203 -317 -318 0
-203 -317 -319 0
-203 -317 -320 0
-203 -318 -319 0
-203 -318 -320 0
-203 -319 -320 0
-212 -253 -270 0
-212 -253 -317 0
-212 -253 -318 0
-212 -253 -319 0
-212 -253 -320 0
-212 -270 -317 0
-212 -270 -318 0
-212 -270 -319 0
-212 -270 -320 0
-212 -317 -318 0
-212 -317 -319 0
-212 -317 -320 0
-212 -318 -319 0
-212 -318 -320 0
-212 -319 -320 0
-253 -270 -317 0
-253 -270 -318 0
-253 -270 -319 0
-253 -270 -320 0
-253 -317 -318 0
-253 -317 -319 0
-253 -317 -320 0
-253 -318 -319 0
-253 -318 -320 0
-253 -319 -320 0
-270 -317 -318 0
-270 -317 -319 0
-270 -317 -320 0
-270 -318 -319 0
-270 -318 -320 0
-270 -319 -320 0
-317 -318 -319 0
-317 -318 -320 0
-317 -319 -320 0
-318 -319 -320 0
212 253 270 317 318 319 320 0
203 253 270 317 318 319 320 0
203 212 270 317 318 319 320 0
203 212 253 317 318 319 320 0
203 212 253 270 318 319 320 0
203 212 253 270 317 319 320 0
203 212 253 270 317 318 320 0
203 212 253 270 317 318 319 0
-207 -216 -257 0
-207 -216 -274 0
-207 -216 -321 0
-207 -216 -322 0
-207 -216 -323 0
-207 -216 -324 0
-207 -257 -274 0
-207 -257 -321 0
-207 -257 -322 0
-207 -257 -323 0
-207 -257 -324 0
-207 -274 -321 0
-207 -274 -322 0
-207 -274 -323 0
-207 -274 -324 0
-207 -321 -322 0
-207 -321 -323 0
-207 -321 -324 0
-207 -322 -323 0
-207 -322 -324 0
-207 -323 -324 0
-216 -257 -274 0
-216 -257 -321 0
-216 -257 -322 0
-216 -257 -323 0
-216 -257 -324 0
-216 -274 -321 0
-216 -274 -322 0
-216 -274 -323 0
-216 -274 -324 0
-216 -321 -322 0
-216 -321 -323 0
-216 -321 -324 0
-216 -322 -323 0
-216 -322 -324 0
-216 -323 -324 0
-257 -274 -321 0
-257 -274 -322 0
-257 -274 -323 0
-257 -274 -324 0
-257 -321 -322 0
-257 -321 -323 0
-257 -321 -324 0
-257 -322 -323 0
-257 -322 -324 0
-257 -323 -324 0
-274 -321 -322 0
-274 -321 -323 0
-274 -321 -324 0
-274 -322 -323 0
-274 -322 -324 0
-274 -323 -324 0
-321 -322 -323 0
-321 -322 -324 0
-321 -323 -324 0
-322 -323 -324 0
216 257 274 321 322 323 324 0
207 257 274 321 322 323 324 0
207 216 274 321 322 323 324 0
207 216 257 321 322 323 324 0
207 216 257 274 322 323 324 0
207 216 257 274 321 323 324 0
207 216 257 274 321 322 324 0
207 216 257 274 321 322 323 0
-211 -220 -261 0
-211 -220 -278 0
-211 -220 -325 0
-211 -220 -326 0
-211 -220 -327 0
-211 -220 -328 0
-211 -261 -278 0
-211 -261 -325 0
-211 -261 -326 0
-211 -261 -327 0
-211 -261 -328 0
-211 -278 -325 0
-211 -278 -326 0
-211 -278 -327 0
-211 -278 -328 0
-211 -325 -326 0
-211 -325 -327 0
-211 -325 -328 0
-211 -326 -327 0
-211 -326 -328 0
-211 -327 -328 0
-220 -261 -278 0
-220 -261 -325 0
-220 -261 -326 0
-220 -261 -327 0
-220 -261 -328 0
-220 -278 -325 0
-220 -278 -326 0
-220 -278 -327 0
-220 -278 -328 0
-220 -325 -326 0
-220 -325 -327 0
-220 -325 -328 0
-220 -326 -327 0
-220 -326 -328 0
-220 -327 -328 0
-261 -278 -325 0
-261 -278 -326 0
-261 -278 -327 0
-261 -278 -328 0
-261 -325 -326 0
-261 -325 -327 0
-261 -325 -328 0
-261 -326 -327 0
-261 -326 -328 0
-261 -327 -328 0
-278 -325 -326 0
-278 -325 -327 0
-278 -325 -328 0
-278 -326 -327 0
-278 -326 -328 0
-278 -327 -328 0
-325 -326 -327 0
-325 -326 -328 0
-325 -327 -328 0
-326 -327 -328 0
220 261 278 325 326 327 328 0
211 261 278 325 326 327 328 0
211 220 278 325 326 327 328 0
211 220 261 325 326 327 328 0
211 220 261 278 326 327 328 0
211 220 261 278 325 327 328 0
211 220 261 278 325 326 328 0
211 220 261 278 325 326 327 0
-215 -224 -226 0
-215 -224 -265 0
-215 -224 -329 0
-215 -224 -330 0
-215 -224 -331 0
-215 -224 -332 0
-215 -226 -265 0
-215 -226 -329 0
-215 -226 -330 0
-215 -226 -331 0
-215 -226 -332 0
-215 -265 -329 0
-215 -265 -330 0
-215 -265 -331 0
-215 -265 -332 0
-215 -329 -330 0
-215 -329 -331 0
-215 -329 -332 0
-215 -330 -331 0
-215 -330 -332 0
-215 -331 -332 0
-224 -226 -265 0
-224 -226 -329 0
-224 -226 -330 0
-224 -226 -331 0
-224 -226 -332 0
-224 -265 -329 0
-224 -265 -330 0
-224 -265 -331 0
-224 -265 -332 0
-224 -329 -330 0
-224 -329 -331 0
-224 -329 -332 0
-224 -330 -331 0
-224 -330 -332 0
-224 -331 -332 0
-226 -265 -329 0
-226 -265 -330 0
-226 -265 -331 0
-226 -265 -332 0
-226 -329 -330 0
-226 -329 -331 0
-226 -329 -332 0
-226 -330 -331 0
-226 -330 -332 0
-226 -331 -332 0
-265 -329 -330 0
-265 -329 -331 0
-265 -329 -332 0
-265 -330 -331 0
-265 -330 -332 0
-265 -331 -332 0
-329 -330 -331 0
-329 -330 -332 0
-329 -331 -332 0
-330 -331 -332 0
224 226 265 329 330 331 332 0
215 226 265 329 330 331 332 0
215 224 265 329 330 331 332 0
215 224 226 329 330 331 332 0
215 224 226 265 330 331 332 0
215 224 226 265 329 331 332 0
215 224 226 265 329 330 332 0
215 224 226 265 329 330 331 0
-172 -219 -230 0
-172 -219 -269 0
-172 -219 -333 0
-172 -219 -334 0
-172 -219 -335 0
-172 -219 -336 0
-172 -230 -269 0
-172 -230 -333 0
-172 -230 -334 0
-172 -230 -335 0
-172 -230 -336 0
-172 -269 -333 0
-172 -269 -334 0
-172 -269 -335 0
-172 -269 -336 0
-172 -333 -334 0
-172 -333 -335 0
-172 -333 -336 0
-172 -334 -335 0
-172 -334 -336 0
-172 -335 -336 0
-219 -230 -269 0
-219 -230 -333 0
-219 -230 -334 0
-219 -230 -335 0
-219 -230 -336 0
-219 -269 -333 0
-219 -269 -334 0
-219 -269 -335 0
-219 -269 -336 0
-219 -333 -334 0
-219 -333 -335 0
-219 -333 -336 0
-219 -334 -335 0
-219 -334 -336 0
-219 -335 -336 0
-230 -269 -333 0
-230 -269 -334 0
-230 -269 -335 0
-230 -269 -336 0
-230 -333 -334 0
-230 -333 -335 0
-230 -333 -336 0
-230 -334 -335 0
-230 -334 -336 0
-230 -335 -336 0
-269 -333 -334 0
-269 -333 -335 0
-269 -333 -336 0
-269 -334 -335 0
-269 -334 -336 0
-269 -335 -336 0
-333 -334 -335 0
-333 -334 -336 0
-333 -335 -336 0
-334 -335 -336 0
219 230 269 333 334 335 336 0
172 230 269 333 334 335 336 0
172 219 269 333 334 335 336 0
172 219 230 333 334 335 336 0
172 219 230 269 334 335 336 0
172 219 230 269 333 335 336 0
172 219 230 269 333 334 336 0
172 219 230 269 333 334 335 0
-232 -279 -290 0
-232 -279 -329 0
-232 -279 -337 0
-232 -279 -338 0
-232 -279 -339 0
-232 -279 -340 0
-232 -290 -329 0
-232 -290 -337 0
-232 -290 -338 0
-232 -290 -339 0
-232 -290 -340 0
-232 -329 -337 0
-232 -329 -338 0
-232 -329 -339 0
-232 -329 -340 0
-232 -337 -338 0
-232 -337 -339 0
-232 -337 -340 0
-232 -338 -339 0
-232 -338 -340 0
-232 -339 -340 0
-279 -290 -329 0
-279 -290 -337 0
-279 -290 -338 0
-279 -290 -339 0
-279 -290 -340 0
-279 -329 -337 0
-279 -329 -338 0
-279 -329 -339 0
-279 -329 -340 0
-279 -337 -338 0
-279 -337 -339 0
-279 -337 -340 0
-279 -338 -339 0
-279 -338 -340 0
-279 -339 -340 0
-290 -329 -337 0
-290 -329 -338 0
-290 -329 -339 0
-290 -329 -340 0
-290 -337 -338 0
-290 -337 -339 0
-290 -337 -340 0
-290 -338 -339 0
-290 -338 -340 0
-290 -339 -340 0
-329 -337 -338 0
-329 -337 -339 0
-329 -337 -340 0
-329 -338 -339 0
-329 -338 -340 0
-329 -339 -340 0
-337 -338 -339 0
-337 -338 -340 0
-337 -339 -340 0
-338 -339 -340 0
279 290 329 337 338 339 340 0
232 290 329 337 338 339 340 0
232 279 329 337 338 339 340 0
232 279 290 337 338 339 340 0
232 279 290 329 338 339 340 0
232 279 290 329 337 339 340 0
232 279 290 329 337 338 340 0
232 279 290 329 337 338 339 0
-227 -236 -294 0
-227 -236 -333 0
-227 -236 -341 0
-227 -236 -342 0
-227 -236 -343 0
-227 -236 -344 0
-227 -294 -333 0
-227 -294 -341 0
-227 -294 -342 0
-227 -294 -343 0
-227 -294 -344 0
-227 -333 -341 0
-227 -333 -342 0
-227 -333 -343 0
-227 -333 -344 0
-227 -341 -342 0
-227 -341 -343 0
-227 -341 -344 0
-227 -342 -343 0
-227 -342 -344 0
-227 -343 -344 0
-236 -294 -333 0
-236 -294 -341 0
-236 -294 -342 0
-236 -294 -343 0
-236 -294 -344 0
-236 -333 -341 0
-236 -333 -342 0
-236 -333 -343 0
-236 -333 -344 0
-236 -341 -342 0
-236 -341 -343 0
-236 -341 -344 0
-236 -342 -343 0
-236 -342 -344 0
-236 -343 -344 0
-294 -333 -341 0
-294 -333 -342 0
-294 -333 -343 0
-294 -333 -344 0
-294 -341 -342 0
-294 -341 -343 0
-294 -341 -344 0
-294 -342 -343 0
-294 -342 -344 0
-294 -343 -344 0
-333 -341 -342 0
-333 -341 -343 0
-333 -341 -344 0
-333 -342 -343 0
-333 -342 -344 0
-333 -343 -344 0
-341 -342 -343 0
-341 -342 -344 0
-341 -343 -344 0
-342 -343 -344 0
236 294 333 341 342 343 344 0
227 294 333 341 342 343 344 0
227 236 333 341 342 343 344 0
227 236 294 341 342 343 344 0
227 236 294 333 342 343 344 0
227 236 294 333 341 343 344 0
227 236 294 333 341 342 344 0
227 236 294 333 341 342 343 0
-231 -240 -281 0
-231 -240 -298 0
-231 -240 -345 0
-231 -240 -346 0
-231 -240 -347 0
-231 -240 -348 0
-231 -281 -298 0
-231 -281 -345 0
-231 -281 -346 0
-231 -281 -347 0
-231 -281 -348 0
-231 -298 -345 0
-231 -298 -346 0
-231 -298 -347 0
-231 -298 -348 0
-231 -345 -346 0
-231 -345 -347 0
-231 -345 -348 0
-231 -346 -347 0
-231 -346 -348 0
-231 -347 -348 0
-240 -281 -298 0
-240 -281 -345 0
-240 -281 -346 0
-240 -281 -347 0
-240 -281 -348 0
-240 -298 -345 0
-240 -298 -346 0
-240 -298 -347 0
-240 -298 -348 0
-240 -345 -346 0
-240 -345 -347 0
-240 -345 -348 0
-240 -346 -347 0
-240 -346 -348 0
-240 -347 -348 0
-281 -298 -345 0
-281 -298 -346 0
-281 -298 -347 0
-281 -298 -348 0
-281 -345 -346 0
-281 -345 -347 0
-281 -345 -348 0
-281 -346 -347 0
-281 -346 -348 0
-281 -347 -348 0
-298 -345 -346 0
-298 -345 -347 0
-298 -345 -348 0
-298 -346 -347 0
-298 -346 -348 0
-298 -347 -348 0
-345 -346 -347 0
-345 -346 -348 0
-345 -347 -348 0
-346 -347 -348 0
240 281 298 345 346 347 348 0
231 281 298 345 346 347 348 0
231 240 298 345 346 347 348 0
231 240 281 345 346 347 348 0
231 240 281 298 346 347 348 0
231 240 281 298 345 347 348 0
231 240 281 298 345 346 348 0
231 240 281 298 345 346 347 0
-235 -244 -285 0
-235 -244 -302 0
-235 -244 -349 0
-235 -244 -350 0
-235 -244 -351 0
-235 -244 -352 0
-235 -285 -302 0
-235 -285 -349 0
-235 -285 -350 0
-235 -285 -351 0
-235 -285 -352 0
-235 -302 -349 0
-235 -302 -350 0
-235 -302 -351 0
-235 -302 -352 0
-235 -349 -350 0
-235 -349 -351 0
-235 -349 -352 0
-235 -350 -351 0
-235 -350 -352 0
-235 -351 -352 0
-244 -285 -302 0
-244 -285 -349 0
-244 -285 -350 0
-244 -285 -351 0
-244 -285 -352 0
-244 -302 -349 0
-244 -302 -350 0
-244 -302 -351 0
-244 -302 -352 0
-244 -349 -350 0
-244 -349 -351 0
-244 -349 -352 0
-244 -350 -351 0
-244 -350 -352 0
-244 -351 -352 0
-285 -302 -349 0
-285 -302 -350 0
-285 -302 -351 0
-285 -302 -352 0
-285 -349 -350 0
-285 -349 -351 0
-285 -349 -352 0
-285 -350 -351 0
-285 -350 -352 0
-285 -351 -352 0
-302 -349 -350 0
-302 -349 -351 0
-302 -349 -352 0
-302 -350 -351 0
-302 -350 -352 0
-302 -351 -352 0
-349 -350 -351 0
-349 -350 -352 0
-349 -351 -352 0
-350 -351 -352 0
244 285 302 349 350 351 352 0
235 285 302 349 350 351 352 0
235 244 302 349 350 351 352 0
235 244 285 349 350 351 352 0
235 244 285 302 350 351 352 0
235 244 285 302 349 351 352 0
235 244 285 302 349 350 352 0
235 244 285 302 349 350 351 0
-239 -248 -289 0
-239 -248 -306 0
-239 -248 -353 0
-239 -248 -354 0
-239 -248 -355 0
-239 -248 -356 0
-239 -289 -306 0
-239 -289 -353 0
-239 -289 -354 0
-239 -289 -355 0
-239 -289 -356 0
-239 -306 -353 0
-239 -306 -354 0
-239 -306 -355 0
-239 -306 -356 0
-239 -353 -354 0
-239 -353 -355 0
-239 -353 -356 0
-239 -354 -355 0
-239 -354 -356 0
-239 -355 -356 0
-248 -289 -306 0
-248 -289 -353 0
-248 -289 -354 0
-248 -289 -355 0
-248 -289 -356 0
-248 -306 -353 0
-248 -306 -354 0
-248 -306 -355 0
-248 -306 -356 0
-248 -353 -354 0
-248 -353 -355 0
-248 -353 -356 0
-248 -354 -355 0
-248 -354 -356 0
-248 -355 -356 0
-289 -306 -353 0
-289 -306 -354 0
-289 -306 -355 0
-289 -306 -356 0
-289 -353 -354 0
-289 -353 -355 0
-289 -353 -356 0
-289 -354 -355 0
-289 -354 -356 0
-289 -355 -356 0
-306 -353 -354 0
-306 -353 -355 0
-306 -353 -356 0
-306 -354 -355 0
-306 -354 -356 0
-306 -355 -356 0
-353 -354 -355 0
-353 -354 -356 0
-353 -355 -356 0
-354 -355 -356 0
248 289 306 353 354 355 356 0
239 289 306 353 354 355 356 0
239 248 306 353 354 355 356 0
239 248 289 353 354 355 356 0
239 248 289 306 354 355 356 0
239 248 289 306 353 355 356 0
239 248 289 306 353 354 356 0
239 248 289 306 353 354 355 0
-243 -252 -293 0
-243 -252 -310 0
-243 -252 -357 0
-243 -252 -358 0
-243 -252 -359 0
-243 -252 -360 0
-243 -293 -310 0
-243 -293 -357 0
-243 -293 -358 0
-243 -293 -359 0
-243 -293 -360 0
-243 -310 -357 0
-243 -310 -358 0
-243 -310 -359 0
-243 -310 -360 0
-243 -357 -358 0
-243 -357 -359 0
-243 -357 -360 0
-243 -358 -359 0
-243 -358 -360 0
-243 -359 -360 0
-252 -293 -310 0
-252 -293 -357 0
-252 -293 -358 0
-252 -293 -359 0
-252 -293 -360 0
-252 -310 -357 0
-252 -310 -358 0
-252 -310 -359 0
-252 -310 -360 0
-252 -357 -358 0
-252 -357 -359 0
-252 -357 -360 0
-252 -358 -359 0
-252 -358 -360 0
-252 -359 -360 0
-293 -310 -357 0
-293 -310 -358 0
-293 -310 -359 0
-293 -310 -360 0
-293 -357 -358 0
-293 -357 -359 0
-293 -357 -360 0
-293 -358 -359 0
-293 -358 -360 0
-293 -359 -360 0
-310 -357 -358 0
-310 -357 -359 0
-310 -357 -360 0
-310 -358 -359 0
-310 -358 -360 0
-310 -359 -360 0
-357 -358 -359 0
-357 -358 -360 0
-357 -359 -360 0
-358 -359 -360 0
252 293 310 357 358 359 360 0
243 293 310 357 358 359 360 0
243 252 310 357 358 359 360 0
243 252 293 357 358 359 360 0
243 252 293 310 358 359 360 0
243 252 293 310 357 359 360 0
243 252 293 310 357 358 360 0
243 252 293 310 357 358 359 0
-247 -256 -297 0
-247 -256 -314 0
-247 -256 -361 0
-247 -256 -362 0
-247 -256 -363 0
-247 -256 -364 0
-247 -297 -314 0
-247 -297 -361 0
-247 -297 -362 0
-247 -297 -363 0
-247 -297 -364 0
-247 -314 -361 0
-247 -314 -362 0
-247 -314 -363 0
-247 -314 -364 0
-247 -361 -362 0
-247 -361 -363 0
-247 -361 -364 0
-247 -362 -363 0
-247 -362 -364 0
-247 -363 -364 0
-256 -297 -314 0
-256 -297 -361 0
-256 -297 -362 0
-256 -297 -363 0
-256 -297 -364 0
-256 -314 -361 0
-256 -314 -362 0
-256 -314 -363 0
-256 -314 -364 0
-256 -361 -362 0
-256 -361 -363 0
-256 -361 -364 0
-256 -362 -363 0
-256 -362 -364 0
-256 -363 -364 0
-297 -314 -361 0
-297 -314 -362 0
-297 -314 -363 0
-297 -314 -364 0
-297 -361 -362 0
-297 -361 -363 0
-297 -361 -364 0
-297 -362 -363 0
-297 -362 -364 0
-297 -363 -364 0
-314 -361 -362 0
-314 -361 -363 0
-314 -361 -364 0
-314 -362 -363 0
-314 -362 -364 0
-314 -363 -364 0
-361 -362 -363 0
-361 -362 -364 0
-361 -363 -364 0
-362 -363 -364 0
256 297 314 361 362 363 364 0
247 297 314 361 362 363 364 0
247 256 314 361 362 363 364 0
247 256 297 361 362 363 364 0
247 256 297 314 362 363 364 0
247 256 297 314 361 363 364 0
247 256 297 314 361 362 364 0
247 256 297 314 361 362 363 0
-251 -260 -301 0
-251 -260 -318 0
-251 -260 -365 0
-251 -260 -366 0
-251 -260 -367 0
-251 -260 -368 0
-251 -301 -318 0
-251 -301 -365 0
-251 -301 -366 0
-251 -301 -367 0
-251 -301 -368 0
-251 -318 -365 0
-251 -318 -366 0
-251 -318 -367 0
-251 -318 -368 0
-251 -365 -366 0
-251 -365 -367 0
-251 -365 -368 0
-251 -366 -367 0
-251 -366 -368 0
-251 -367 -368 0
-260 -301 -318 0
-260 -301 -365 0
-260 -301 -366 0
-260 -301 -367 0
-260 -301 -368 0
-260 -318 -365 0
-260 -318 -366 0
-260 -318 -367 0
-260 -318 -368 0
-260 -365 -366 0
-260 -365 -367 0
-260 -365 -368 0
-260 -366 -367 0
-260 -366 -368 0
-260 -367 -368 0
-301 -318 -365 0
-301 -318 -366 0
-301 -318 -367 0
-301 -318 -368 0
-301 -365 -366 0
-301 -365 -367 0
-301 -365 -368 0
-301 -366 -367 0
-301 -366 -368 0
-301 -367 -368 0
-318 -365 -366 0
-318 -365 -367 0
-318 -365 -368 0
-318 -366 -367 0
-318 -366 -368 0
-318 -367 -368 0
-365 -366 -367 0
-365 -366 -368 0
-365 -367 -368 0
-366 -367 -368 0
260 301 318 365 366 367 368 0
251 301 318 365 366 367 368 0
251 260 318 365 366 367 368 0
251 260 301 365 366 367 368 0
251 260 301 318 366 367 368 0
251 260 301 318 365 367 368 0
251 260 301 318 365 366 368 0
251 260 301 318 365 366 367 0
-255 -264 -305 0
-255 -264 -322 0
-255 -264 -369 0
-255 -264 -370 0
-255 -264 -371 0
-255 -264 -372 0
-255 -305 -322 0
-255 -305 -369 0
-255 -305 -370 0
-255 -305 -371 0
-255 -305 -372 0
-255 -322 -369 0
-255 -322 -370 0
-255 -322 -371 0
-255 -322 -372 0
-255 -369 -370 0
-255 -369 -371 0
-255 -369 -372 0
-255 -370 -371 0
-255 -370 -372 0
-255 -371 -372 0
-264 -305 -322 0
-264 -305 -369 0
-264 -305 -370 0
-264 -305 -371 0
-264 -305 -372 0
-264 -322 -369 0
-264 -322 -370 0
-264 -322 -371 0
-264 -322 -372 0
-264 -369 -370 0
-264 -369 -371 0
-264 -369 -372 0
-264 -370 -371 0
-264 -370 -372 0
-264 -371 -372 0
-305 -322 -369 0
-305 -322 -370 0
-305 -322 -371 0
-305 -322 -372 0
-305 -369 -370 0
-305 -369 -371 0
-305 -369 -372 0
-305 -370 -371 0
-305 -370 -372 0
-305 -371 -372 0
-322 -369 -370 0
-322 -369 -371 0
-322 -369 -372 0
-322 -370 -371 0
-322 -370 -372 0
-322 -371 -372 0
-369 -370 -371 0
-369 -370 -372 0
-369 -371 -372 0
-370 -371 -372 0
264 305 322 369 370 371 372 0
255 305 322 369 370 371 372 0
255 264 322 369 370 371 372 0
255 264 305 369 370 371 372 0
255 264 305 322 370 371 372 0
255 264 305 322 369 371 372 0
255 264 305 322 369 370 372 0
255 264 305 322 369 370 371 0
-259 -268 -309 0
-259 -268 -326 0
-259 -268 -373 0
-259 -268 -374 0
-259 -268 -375 0
-259 -268 -376 0
-259 -309 -326 0
-259 -309 -373 0
-259 -309 -374 0
-259 -309 -375 0
-259 -309 -376 0
-259 -326 -373 0
-259 -326 -374 0
-259 -326 -375 0
-259 -326 -376 0
-259 -373 -374 0
-259 -373 -375 0
-259 -373 -376 0
-259 -374 -375 0
-259 -374 -376 0
-259 -375 -376 0
-268 -309 -326 0
-268 -309 -373 0
-268 -309 -374 0
-268 -309 -375 0
-268 -309 -376 0
-268 -326 -373 0
-268 -326 -374 0
-268 -326 -375 0
-268 -326 -376 0
-268 -373 -374 0
-268 -373 -375 0
-268 -373 -376 0
-268 -374 -375 0
-268 -374 -376 0
-268 -375 -376 0
-309 -326 -373 0
-309 -326 -374 0
-309 -326 -375 0
-309 -326 -376 0
-309 -373 -374 0
-309 -373 -375 0
-309 -373 -376 0
-309 -374 -375 0
-309 -374 -376 0
-309 -375 -376 0
-326 -373 -374 0
-326 -373 -375 0
-326 -373 -376 0
-326 -374 -375 0
-326 -374 -376 0
-326 -375 -376 0
-373 -374 -375 0
-373 -374 -376 0
-373 -375 -376 0
-374 -375 -376 0
268 309 326 373 374 375 376 0
259 309 326 373 374 375 376 0
259 268 326 373 374 375 376 0
259 268 309 373 374 375 376 0
259 268 309 326 374 375 376 0
259 268 309 326 373 375 376 0
259 268 309 326 373 374 376 0
259 268 309 326 373 374 375 0
-263 -272 -313 0
-263 -272 -330 0
-263 -272 -377 0
-263 -272 -378 0
-263 -272 -379 0
-263 -272 -380 0
-263 -313 -330 0
-263 -313 -377 0
-263 -313 -378 0
-263 -313 -379 0
-263 -313 -380 0
-263 -330 -377 0
-263 -330 -378 0
-263 -330 -379 0
-263 -330 -380 0
-263 -377 -378 0
-263 -377 -379 0
-263 -377 -380 0
-263 -378 -379 0
-263 -378 -380 0
-263 -379 -380 0
-272 -313 -330 0
-272 -313 -377 0
-272 -313 -378 0
-272 -313 -379 0
-272 -313 -380 0
-272 -330 -377 0
-272 -330 -378 0
-272 -330 -379 0
-272 -330 -380 0
-272 -377 -378 0
-272 -377 -379 0
-272 -377 -380 0
-272 -378 -379 0
-272 -378 -380 0
-272 -379 -380 0
-313 -330 -377 0
-313 -330 -378 0
-313 -330 -379 0
-313 -330 -380 0
-313 -377 -378 0
-313 -377 -379 0
-313 -377 -380 0
-313 -378 -379 0
-313 -378 -380 0
-313 -379 -380 0
-330 -377 -378 0
-330 -377 -379 0
-330 -377 -380 0
-330 -378 -379 0
-330 -378 -380 0
-330 -379 -380 0
-377 -378 -379 0
-377 -378 -380 0
-377 -379 -380 0
-378 -379 -380 0
272 313 330 377 378 379 380 0
263 313 330 377 378 379 380 0
263 272 330 377 378 379 380 0
263 272 313 377 378 379 380 0
263 272 313 330 378 379 380 0
263 272 313 330 377 379 380 0
263 272 313 330 377 378 380 0
263 272 313 330 377 378 379 0
-267 -276 -317 0
-267 -276 -334 0
-267 -276 -381 0
-267 -276 -382 0
-267 -276 -383 0
-267 -276 -384 0
-267 -317 -334 0
-267 -317 -381 0
-267 -317 -382 0
-267 -317 -383 0
-267 -317 -384 0
-267 -334 -381 0
-267 -334 -382 0
-267 -334 -383 0
-267 -334 -384 0
-267 -381 -382 0
-267 -381 -383 0
-267 -381 -384 0
-267 -382 -383 0
-267 -382 -384 0
-267 -383 -384 0
-276 -317 -334 0
-276 -317 -381 0
-276 -317 -382 0
-276 -317 -383 0
-276 -317 -384 0
-276 -334 -381 0
-276 -334 -382 0
-276 -334 -383 0
-276 -334 -384 0
-276 -381 -382 0
-276 -381 -383 0
-276 -381 -384 0
-276 -382 -383 0
-276 -382 -384 0
-276 -383 -384 0
-317 -334 -381 0
-317 -334 -382 0
-317 -334 -383 0
-317 -334 -384 0
-317 -381 -382 0
-317 -381 -383 0
-317 -381 -384 0
-317 -382 -383 0
-317 -382 -384 0
-317 -383 -384 0
-334 -381 -382 0
-334 -381 -383 0
-334 -381 -384 0
-334 -382 -383 0
-334 -382 -384 0
-334 -383 -384 0
-381 -382 -383 0
-381 -382 -384 0
-381 -383 -384 0
-382 -383 -384 0
276 317 334 381 382 383 384 0
267 317 334 381 382 383 384 0
267 276 334 381 382 383 384 0
267 276 317 381 382 383 384 0
267 276 317 334 382 383 384 0
267 276 317 334 381 383 384 0
267 276 317 334 381 382 384 0
267 276 317 334 381 382 383 0
-271 -280 -282 0
-271 -280 -321 0
-271 -280 -385 0
-271 -280 -386 0
-271 -280 -387 0
-271 -280 -388 0
-271 -282 -321 0
-271 -282 -385 0
-271 -282 -386 0
-271 -282 -387 0
-271 -282 -388 0
-271 -321 -385 0
-271 -321 -386 0
-271 -321 -387 0
-271 -321 -388 0
-271 -385 -386 0
-271 -385 -387 0
-271 -385 -388 0
-271 -386 -387 0
-271 -386 -388 0
-271 -387 -388 0
-280 -282 -321 0
-280 -282 -385 0
-280 -282 -386 0
-280 -282 -387 0
-280 -282 -388 0
-280 -321 -385 0
-280 -321 -386 0
-280 -321 -387 0
-280 -321 -388 0
-280 -385 -386 0
-280 -385 -387 0
-280 -385 -388 0
-280 -386 -387 0
-280 -386 -388 0
-280 -387 -388 0
-282 -321 -385 0
-282 -321 -386 0
-282 -321 -387 0
-282 -321 -388 0
-282 -385 -386 0
-282 -385 -387 0
-282 -385 -388 0
-282 -386 -387 0
-282 -386 -388 0
-282 -387 -388 0
-321 -385 -386 0
-321 -385 -387 0
-321 -385 -388 0
-321 -386 -387 0
-321 -386 -388 0
-321 -387 -388 0
-385 -386 -387 0
-385 -386 -388 0
-385 -387 -388 0
-386 -387 -388 0
280 282 321 385 386 387 388 0
271 282 321 385 386 387 388 0
271 280 321 385 386 387 388 0
271 280 282 385 386 387 388 0
271 280 282 321 386 387 388 0
271 280 282 321 385 387 388 0
271 280 282 321 385 386 388 0
271 280 282 321 385 386 387 0
-228 -275 -286 0
-228 -275 -325 0
-228 -275 -389 0
-228 -275 -390 0
-228 -275 -391 0
-228 -275 -392 0
-228 -286 -325 0
-228 -286 -389 0
-228 -286 -390 0
-228 -286 -391 0
-228 -286 -392 0
-228 -325 -389 0
-228 -325 -390 0
-228 -325 -391 0
-228 -325 -392 0
-228 -389 -390 0
-228 -389 -391 0
-228 -389 -392 0
-228 -390 -391 0
-228 -390 -392 0
-228 -391 -392 0
-275 -286 -325 0
-275 -286 -389 0
-275 -286 -390 0
-275 -286 -391 0
-275 -286 -392 0
-275 -325 -389 0
-275 -325 -390 0
-275 -325 -391 0
-275 -325 -392 0
-275 -389 -390 0
-275 -389 -391 0
-275 -389 -392 0
-275 -390 -391 0
-275 -390 -392 0
-275 -391 -392 0
-286 -325 -389 0
-286 -325 -390 0
-286 -325 -391 0
-286 -325 -392 0
-286 -389 -390 0
-286 -389 -391 0
-286 -389 -392 0
-286 -390 -391 0
-286 -390 -392 0
-286 -391 -392 0
-325 -389 -390 0
-325 -389 -391 0
-325 -389 -392 0
-325 -390 -391 0
-325 -390 -392 0
-325 -391 -392 0
-389 -390 -391 0
-389 -390 -392 0
-389 -391 -392 0
-390 -391 -392 0
275 286 325 389 390 391 392 0
228 286 325 389 390 391 392 0
228 275 325 389 390 391 392 0
228 275 286 389 390 391 392 0
228 275 286 325 390 391 392 0
228 275 286 325 389 391 392 0
228 275 286 325 389 390 392 0
228 275 286 325 389 390 391 0
-288 -335 -346 0
-288 -335 -385 0
-288 -346 -385 0
-335 -346 -385 0
-283 -292 -350 0
-283 -292 -389 0
-283 -350 -389 0
-292 -350 -389 0
-287 -296 -337 0
-287 -296 -354 0
-287 -337 -354 0
-296 -337 -354 0
-291 -300 -341 0
-291 -300 -358 0
-291 -341 -358 0
-300 -341 -358 0
-295 -304 -345 0
-295 -304 -362 0
-295 -345 -362 0
-304 -345 -362 0
-299 -308 -349 0
-299 -308 -366 0
-299 -349 -366 0
-308 -349 -366 0
-303 -312 -353 0
-303 -312 -370 0
-303 -353 -370 0
-312 -353 -370 0
-307 -316 -357 0
-307 -316 -374 0
-307 -357 -374 0
-316 -357 -374 0
-311 -320 -361 0
-311 -320 -378 0
-311 -361 -378 0
-320 -361 -378 0
-315 -324 -365 0
-315 -324 -382 0
-315 -365 -382 0
-324 -365 -382 0
-319 -328 -369 0
-319 -328 -386 0
-319 -369 -386 0
-328 -369 -386 0
-323 -332 -373 0
-323 -332 -390 0
-323 -373 -390 0
-332 -373 -390 0
-327 -336 -338 0
-327 -336 -377 0
-327 -338 -377 0
-336 -338 -377 0
-284 -331 -342 0
-284 -331 -381 0
-284 -342 -381 0
-331 -342 -381 0
-1 -6 393 0
-1 -7 394 0
-1 -8 395 0
-1 -10 396 0
-1 -12 397 0
-1 -14 398 0
-2 -45 399 0
-2 -49 400 0
-2 -51 401 0
-2 -53 402 0
-2 -55 403 0
-2 -56 404 0
-3 -6 405 0
-3 -8 406 0
-3 -10 407 0
-3 -53 408 0
-3 -57 409 0
-3 -62 410 0
-3 -64 411 0
-3 -66 412 0
-4 -6 413 0
-4 -49 414 0
-4 -53 415 0
-4 -55 416 0
-4 -58 417 0
-4 -105 418 0
-4 -109 419 0
-4 -111 420 0
-5 -10 421 0
-5 -11 422 0
-5 -12 423 0
-5 -14 424 0
-5 -16 425 0
-5 -18 426 0
-6 -49 427 0
-6 -53 428 0
-6 -55 429 0
-7 -10 430 0
-7 -12 431 0
-7 -14 432 0
-7 -61 433 0
-7 -66 434 0
-7 -68 435 0
-7 -70 436 0
-8 -10 437 0
-8 -53 438 0
-8 -57 439 0
-8 -59 440 0
-8 -62 441 0
-8 -109 442 0
-9 -14 443 0
-9 -15 444 0
-9 -16 445 0
-9 -18 446 0
-9 -20 447 0
-9 -22 448 0
-10 -53 449 0
-11 -14 450 0
-11 -16 451 0
-11 -18 452 0
-11 -65 453 0
-11 -70 454 0
-11 -72 455 0
-11 -74 456 0
-12 -14 457 0
-12 -57 458 0
-12 -61 459 0
-12 -63 460 0
-12 -66 461 0
-13 -18 462 0
-13 -19 463 0
-13 -20 464 0
-13 -22 465 0
-13 -24 466 0
-13 -26 467 0
-15 -18 468 0
-15 -20 469 0
-15 -22 470 0
-15 -69 471 0
-15 -74 472 0
-15 -76 473 0
-15 -78 474 0
-16 -18 475 0
-16 -61 476 0
-16 -65 477 0
-16 -67 478 0
-16 -70 479 0
-17 -22 480 0
-17 -23 481 0
-17 -24 482 0
-17 -26 483 0
-17 -28 484 0
-17 -30 485 0
-19 -22 486 0
-19 -24 487 0
-19 -26 488 0
-19 -73 489 0
-19 -78 490 0
-19 -80 491 0
-19 -82 492 0
-20 -22 493 0
-20 -65 494 0
-20 -69 495 0
-20 -71 496 0
-20 -74 497 0
-21 -26 498 0
-21 -27 499 0
-21 -28 500 0
-21 -30 501 0
-21 -32 502 0
-21 -34 503 0
-23 -26 504 0
-23 -28 505 0
-23 -30 506 0
-23 -77 507 0
-23 -82 508 0
-23 -84 509 0
-23 -86 510 0
-24 -26 511 0
-24 -69 512 0
-24 -73 513 0
-24 -75 514 0
-24 -78 515 0
-25 -30 516 0
-25 -31 517 0
-25 -32 518 0
-25 -34 519 0
-25 -36 520 0
-25 -38 521 0
-27 -30 522 0
-27 -32 523 0
-27 -34 524 0
-27 -81 525 0
-27 -86 526 0
-27 -88 527 0
-27 -90 528 0
-28 -30 529 0
-28 -73 530 0
-28 -77 531 0
-28 -79 532 0
-28 -82 533 0
-29 -34 534 0
-29 -35 535 0
-29 -36 536 0
-29 -38 537 0
-29 -40 538 0
-29 -42 539 0
-31 -34 540 0
-31 -36 541 0
-31 -38 542 0
-31 -85 543 0
-31 -90 544 0
-31 -92 545 0
-31 -94 546 0
-32 -34 547 0
-32 -77 548 0
-32 -81 549 0
-32 -83 550 0
-32 -86 551 0
-33 -38 552 0
-33 -39 553 0
-33 -40 554 0
-33 -42 555 0
-33 -44 556 0
-33 -46 557 0
-35 -38 558 0
-35 -40 559 0
-35 -42 560 0
-35 -89 561 0
-35 -94 562 0
-35 -96 563 0
-35 -98 564 0
-36 -38 565 0
-36 -81 566 0
-36 -85 567 0
-36 -87 568 0
-36 -90 569 0
-37 -42 570 0
-37 -43 571 0
-37 -44 572 0
-37 -46 573 0
-37 -48 574 0
-37 -50 575 0
-39 -42 576 0
-39 -44 577 0
-39 -46 578 0
-39 -93 579 0
-39 -98 580 0
-39 -100 581 0
-39 -102 582 0
-40 -42 583 0
-40 -85 584 0
-40 -89 585 0
-40 -91 586 0
-40 -94 587 0
-41 -46 588 0
-41 -47 589 0
-41 -48 590 0
-41 -50 591 0
-41 -52 592 0
-41 -54 593 0
-43 -46 594 0
-43 -48 595 0
-43 -50 596 0
-43 -97 597 0
-43 -102 598 0
-43 -104 599 0
-43 -106 600 0
-44 -46 601 0
-44 -89 602 0
-44 -93 603 0
-44 -95 604 0
-44 -98 605 0
-45 -50 606 0
-45 -51 607 0
-45 -52 608 0
-45 -54 609 0
-45 -56 610 0
-47 -50 611 0
-47 -52 612 0
-47 -54 613 0
-47 -101 614 0
-47 -106 615 0
-47 -108 616 0
-47 -110 617 0
-48 -50 618 0
-48 -93 619 0
-48 -97 620 0
-48 -99 621 0
-48 -102 622 0
-49 -54 623 0
-49 -55 624 0
-49 -56 625 0
-51 -54 626 0
-51 -56 627 0
-51 -58 628 0
-51 -105 629 0
-51 -110 630 0
-51 -112 631 0
-52 -54 632 0
-52 -97 633 0
-52 -101 634 0
-52 -103 635 0
-52 -106 636 0
-55 -58 637 0
-55 -60 638 0
-55 -62 639 0
-55 -109 640 0
-56 -101 641 0
-56 -105 642 0
-56 -107 643 0
-56 -110 644 0
-57 -62 645 0
-57 -63 646 0
-57 -64 647 0
-57 -66 648 0
-57 -68 649 0
-57 -70 650 0
-58 -101 651 0
-58 -105 652 0
-58 -107 653 0
-58 -109 654 0
-58 -111 655 0
-58 -112 656 0
-59 -62 657 0
-59 -64 658 0
-59 -66 659 0
-59 -109 660 0
-59 -113 0
-59 -118 0
-59 -120 0
-59 -122 0
-60 -62 661 0
-60 -105 662 0
-60 -109 663 0
-60 -111 664 0
-60 -114 0
-60 -161 0
-60 -165 0
-60 -167 0
-61 -66 665 0
-61 -67 666 0
-61 -68 667 0
-61 -70 668 0
-61 -72 669 0
-61 -74 670 0
-62 -105 671 0
-62 -109 672 0
-62 -111 673 0
-63 -66 674 0
-63 -68 675 0
-63 -70 676 0
-63 -117 0
-63 -122 0
-63 -124 0
-63 -126 0
-64 -66 677 0
-64 -109 678 0
-64 -113 0
-64 -115 0
-64 -118 0
-64 -165 0
-65 -70 679 0
-65 -71 680 0
-65 -72 681 0
-65 -74 682 0
-65 -76 683 0
-65 -78 684 0
-66 -109 685 0
-67 -70 686 0
-67 -72 687 0
-67 -74 688 0
-67 -121 0
-67 -126 0
-67 -128 0
-67 -130 0
-68 -70 689 0
-68 -113 0
-68 -117 0
-68 -119 0
-68 -122 0
-69 -74 690 0
-69 -75 691 0
-69 -76 692 0
-69 -78 693 0
-69 -80 694 0
-69 -82 695 0
-71 -74 696 0
-71 -76 697 0
-71 -78 698 0
-71 -125 0
-71 -130 0
-71 -132 0
-71 -134 0
-72 -74 699 0
-72 -117 0
-72 -121 0
-72 -123 0
-72 -126 0
-73 -78 700 0
-73 -79 701 0
-73 -80 702 0
-73 -82 703 0
-73 -84 704 0
-73 -86 705 0
-75 -78 706 0
-75 -80 707 0
-75 -82 708 0
-75 -129 0
-75 -134 0
-75 -136 0
-75 -138 0
-76 -78 709 0
-76 -121 0
-76 -125 0
-76 -127 0
-76 -130 0
-77 -82 710 0
-77 -83 711 0
-77 -84 712 0
-77 -86 713 0
-77 -88 714 0
-77 -90 715 0
-79 -82 716 0
-79 -84 717 0
-79 -86 718 0
-79 -133 0
-79 -138 0
-79 -140 0
-79 -142 0
-80 -82 719 0
-80 -125 0
-80 -129 0
-80 -131 0
-80 -134 0
-81 -86 720 0
-81 -87 721 0
-81 -88 722 0
-81 -90 723 0
-81 -92 724 0
-81 -94 725 0
-83 -86 726 0
-83 -88 727 0
-83 -90 728 0
-83 -137 0
-83 -142 0
-83 -144 0
-83 -146 0
-84 -86 729 0
-84 -129 0
-84 -133 0
-84 -135 0
-84 -138 0
-85 -90 730 0
-85 -91 731 0
-85 -92 732 0
-85 -94 733 0
-85 -96 734 0
-85 -98 735 0
-87 -90 736 0
-87 -92 737 0
-87 -94 738 0
-87 -141 0
-87 -146 0
-87 -148 0
-87 -150 0
-88 -90 739 0
-88 -133 0
-88 -137 0
-88 -139 0
-88 -142 0
-89 -94 740 0
-89 -95 741 0
-89 -96 742 0
-89 -98 743 0
-89 -100 744 0
-89 -102 745 0
-91 -94 746 0
-91 -96 747 0
-91 -98 748 0
-91 -145 0
-91 -150 0
-91 -152 0
-91 -154 0
-92 -94 749 0
-92 -137 0
-92 -141 0
-92 -143 0
-92 -146 0
-93 -98 750 0
-93 -99 751 0
-93 -100 752 0
-93 -102 753 0
-93 -104 754 0
-93 -106 755 0
-95 -98 756 0
-95 -100 757 0
-95 -102 758 0
-95 -149 0
-95 -154 0
-95 -156 0
-95 -158 0
-96 -98 759 0
-96 -141 0
-96 -145 0
-96 -147 0
-96 -150 0
-97 -102 760 0
-97 -103 761 0
-97 -104 762 0
-97 -106 763 0
-97 -108 764 0
-97 -110 765 0
-99 -102 766 0
-99 -104 767 0
-99 -106 768 0
-99 -153 0
-99 -158 0
-99 -160 0
-99 -162 0
-100 -102 769 0
-100 -145 0
-100 -149 0
-100 -151 0
-100 -154 0
-101 -106 770 0
-101 -107 771 0
-101 -108 772 0
-101 -110 773 0
-101 -112 774 0
-103 -106 775 0
-103 -108 776 0
-103 -110 777 0
-103 -157 0
-103 -162 0
-103 -164 0
-103 -166 0
-104 -106 778 0
-104 -149 0
-104 -153 0
-104 -155 0
-104 -158 0
-105 -110 779 0
-105 -111 780 0
-105 -112 781 0
-107 -110 782 0
-107 -112 783 0
-107 -114 0
-107 -161 0
-107 -166 0
-107 -168 0
-108 -110 784 0
-108 -153 0
-108 -157 0
-108 -159 0
-108 -162 0
-111 -114 0
-111 -116 0
-111 -118 0
-111 -165 0
-112 -157 0
-112 -161 0
-112 -163 0
-112 -166 0
-113 -118 0
-113 -119 0
-113 -120 0
-113 -122 0
-113 -124 0
-113 -126 0
-114 -157 0
-114 -161 0
-114 -163 0
-114 -165 0
-114 -167 0
-114 -168 0
-115 -118 0
-115 -120 0
-115 -122 0
-115 -165 0
-115 -169 0
-115 -174 0
-115 -176 0
-115 -178 0
-116 -118 0
-116 -161 0
-116 -165 0
-116 -167 0
-116 -170 0
-116 -217 0
-116 -221 0
-116 -223 0
-117 -122 0
-117 -123 0
-117 -124 0
-117 -126 0
-117 -128 0
-117 -130 0
-118 -161 0
-118 -165 0
-118 -167 0
-119 -122 0
-119 -124 0
-119 -126 0
-119 -173 0
-119 -178 0
-119 -180 0
-119 -182 0
-120 -122 0
-120 -165 0
-120 -169 0
-120 -171 0
-120 -174 0
-120 -221 0
-121 -126 0
-121 -127 0
-121 -128 0
-121 -130 0
-121 -132 0
-121 -134 0
-122 -165 0
-123 -126 0
-123 -128 0
-123 -130 0
-123 -177 0
-123 -182 0
-123 -184 0
-123 -186 0
-124 -126 0
-124 -169 0
-124 -173 0
-124 -175 0
-124 -178 0
-125 -130 0
-125 -131 0
-125 -132 0
-125 -134 0
-125 -136 0
-125 -138 0
-127 -130 0
-127 -132 0
-127 -134 0
-127 -181 0
-127 -186 0
-127 -188 0
-127 -190 0
-128 -130 0
-128 -173 0
-128 -177 0
-128 -179 0
-128 -182 0
-129 -134 0
-129 -135 0
-129 -136 0
-129 -138 0
-129 -140 0
-129 -142 0
-131 -134 0
-131 -136 0
-131 -138 0
-131 -185 0
-131 -190 0
-131 -192 0
-131 -194 0
-132 -134 0
-132 -177 0
-132 -181 0
-132 -183 0
-132 -186 0
-133 -138 0
-133 -139 0
-133 -140 0
-133 -142 0
-133 -144 0
-133 -146 0
-135 -138 0
-135 -140 0
-135 -142 0
-135 -189 0
-135 -194 0
-135 -196 0
-135 -198 0
-136 -138 0
-136 -181 0
-136 -185 0
-136 -187 0
-136 -190 0
-137 -142 0
-137 -143 0
-137 -144 0
-137 -146 0
-137 -148 0
-137 -150 0
-139 -142 0
-139 -144 0
-139 -146 0
-139 -193 0
-139 -198 0
-139 -200 0
-139 -202 0
-140 -142 0
-140 -185 0
-140 -189 0
-140 -191 0
-140 -194 0
-141 -146 0
-141 -147 0
-141 -148 0
-141 -150 0
-141 -152 0
-141 -154 0
-143 -146 0
-143 -148 0
-143 -150 0
-143 -197 0
-143 -202 0
-143 -204 0
-143 -206 0
-144 -146 0
-144 -189 0
-144 -193 0
-144 -195 0
-144 -198 0
-145 -150 0
-145 -151 0
-145 -152 0
-145 -154 0
-145 -156 0
-145 -158 0
-147 -150 0
-147 -152 0
-147 -154 0
-147 -201 0
-147 -206 0
-147 -208 0
-147 -210 0
-148 -150 0
-148 -193 0
-148 -197 0
-148 -199 0
-148 -202 0
-149 -154 0
-149 -155 0
-149 -156 0
-149 -158 0
-149 -160 0
-149 -162 0
-151 -154 0
-151 -156 0
-151 -158 0
-151 -205 0
-151 -210 0
-151 -212 0
-151 -214 0
-152 -154 0
-152 -197 0
-152 -201 0
-152 -203 0
-152 -206 0
-153 -158 0
-153 -159 0
-153 -160 0
-153 -162 0
-153 -164 0
-153 -166 0
-155 -158 0
-155 -160 0
-155 -162 0
-155 -209 0
-155 -214 0
-155 -216 0
-155 -218 0
-156 -158 0
-156 -201 0
-156 -205 0
-156 -207 0
-156 -210 0
-157 -162 0
-157 -163 0
-157 -164 0
-157 -166 0
-157 -168 0
-159 -162 0
-159 -164 0
-159 -166 0
-159 -213 0
-159 -218 0
-159 -220 0
-159 -222 0
-160 -162 0
-160 -205 0
-160 -209 0
-160 -211 0
-160 -214 0
-161 -166 0
-161 -167 0
-161 -168 0
-163 -166 0
-163 -168 0
-163 -170 0
-163 -217 0
-163 -222 0
-163 -224 0
-164 -166 0
-164 -209 0
-164 -213 0
-164 -215 0
-164 -218 0
-167 -170 0
-167 -172 0
-167 -174 0
-167 -221 0
-168 -213 0
-168 -217 0
-168 -219 0
-168 -222 0
-169 -174 0
-169 -175 0
-169 -176 0
-169 -178 0
-169 -180 0
-169 -182 0
-170 -213 0
-170 -217 0
-170 -219 0
-170 -221 0
-170 -223 0
-170 -224 0
-171 -174 0
-171 -176 0
-171 -178 0
-171 -221 0
-171 -225 0
-171 -230 0
-171 -232 0
-171 -234 0
-172 -174 0
-172 -217 0
-172 -221 0
-172 -223 0
-172 -226 0
-172 -273 0
-172 -277 0
-172 -279 0
-173 -178 0
-173 -179 0
-173 -180 0
-173 -182 0
-173 -184 0
-173 -186 0
-174 -217 0
-174 -221 0
-174 -223 0
-175 -178 0
-175 -180 0
-175 -182 0
-175 -229 0
-175 -234 0
-175 -236 0
-175 -238 0
-176 -178 0
-176 -221 0
-176 -225 0
-176 -227 0
-176 -230 0
-176 -277 0
-177 -182 0
-177 -183 0
-177 -184 0
-177 -186 0
-177 -188 0
-177 -190 0
-178 -221 0
-179 -182 0
-179 -184 0
-179 -186 0
-179 -233 0
-179 -238 0
-179 -240 0
-179 -242 0
-180 -182 0
-180 -225 0
-180 -229 0
-180 -231 0
-180 -234 0
-181 -186 0
-181 -187 0
-181 -188 0
-181 -190 0
-181 -192 0
-181 -194 0
-183 -186 0
-183 -188 0
-183 -190 0
-183 -237 0
-183 -242 0
-183 -244 0
-183 -246 0
-184 -186 0
-184 -229 0
-184 -233 0
-184 -235 0
-184 -238 0
-185 -190 0
-185 -191 0
-185 -192 0
-185 -194 0
-185 -196 0
-185 -198 0
-187 -190 0
-187 -192 0
-187 -194 0
-187 -241 0
-187 -246 0
-187 -248 0
-187 -250 0
-188 -190 0
-188 -233 0
-188 -237 0
-188 -239 0
-188 -242 0
-189 -194 0
-189 -195 0
-189 -196 0
-189 -198 0
-189 -200 0
-189 -202 0
-191 -194 0
-191 -196 0
-191 -198 0
-191 -245 0
-191 -250 0
-191 -252 0
-191 -254 0
-192 -194 0
-192 -237 0
-192 -241 0
-192 -243 0
-192 -246 0
-193 -198 0
-193 -199 0
-193 -200 0
-193 -202 0
-193 -204 0
-193 -206 0
-195 -198 0
-195 -200 0
-195 -202 0
-195 -249 0
-195 -254 0
-195 -256 0
-195 -258 0
-196 -198 0
-196 -241 0
-196 -245 0
-196 -247 0
-196 -250 0
-197 -202 0
-197 -203 0
-197 -204 0
-197 -206 0
-197 -208 0
-197 -210 0
-199 -202 0
-199 -204 0
-199 -206 0
-199 -253 0
-199 -258 0
-199 -260 0
-199 -262 0
-200 -202 0
-200 -245 0
-200 -249 0
-200 -251 0
-200 -254 0
-201 -206 0
-201 -207 0
-201 -208 0
-201 -210 0
-201 -212 0
-201 -214 0
-203 -206 0
-203 -208 0
-203 -210 0
-203 -257 0
-203 -262 0
-203 -264 0
-203 -266 0
-204 -206 0
-204 -249 0
-204 -253 0
-204 -255 0
-204 -258 0
-205 -210 0
-205 -211 0
-205 -212 0
-205 -214 0
-205 -216 0
-205 -218 0
-207 -210 0
-207 -212 0
-207 -214 0
-207 -261 0
-207 -266 0
-207 -268 0
-207 -270 0
-208 -210 0
-208 -253 0
-208 -257 0
-208 -259 0
-208 -262 0
-209 -214 0
-209 -215 0
-209 -216 0
-209 -218 0
-209 -220 0
-209 -222 0
-211 -214 0
-211 -216 0
-211 -218 0
-211 -265 0
-211 -270 0
-211 -272 0
-211 -274 0
-212 -214 0
-212 -257 0
-212 -261 0
-212 -263 0
-212 -266 0
-213 -218 0
-213 -219 0
-213 -220 0
-213 -222 0
-213 -224 0
-215 -218 0
-215 -220 0
-215 -222 0
-215 -269 0
-215 -274 0
-215 -276 0
-215 -278 0
-216 -218 0
-216 -261 0
-216 -265 0
-216 -267 0
-216 -270 0
-217 -222 0
-217 -223 0
-217 -224 0
-219 -222 0
-219 -224 0
-219 -226 0
-219 -273 0
-219 -278 0
-219 -280 0
-220 -222 0
-220 -265 0
-220 -269 0
-220 -271 0
-220 -274 0
-223 -226 0
-223 -228 0
-223 -230 0
-223 -277 0
-224 -269 0
-224 -273 0
-224 -275 0
-224 -278 0
-225 -230 0
-225 -231 0
-225 -232 0
-225 -234 0
-225 -236 0
-225 -238 0
-226 -269 0
-226 -273 0
-226 -275 0
-226 -277 0
-226 -279 0
-226 -280 0
-227 -230 0
-227 -232 0
-227 -234 0
-227 -277 0
-227 -281 0
-227 -286 0
-227 -288 0
-227 -290 0
-228 -230 0
-228 -273 0
-228 -277 0
-228 -279 0
-228 -282 0
-228 -329 0
-228 -333 0
-228 -335 0
-229 -234 0
-229 -235 0
-229 -236 0
-229 -238 0
-229 -240 0
-229 -242 0
-230 -273 0
-230 -277 0
-230 -279 0
-231 -234 0
-231 -236 0
-231 -238 0
-231 -285 0
-231 -290 0
-231 -292 0
-231 -294 0
-232 -234 0
-232 -277 0
-232 -281 0
-232 -283 0
-232 -286 0
-232 -333 0
-233 -238 0
-233 -239 0
-233 -240 0
-233 -242 0
-233 -244 0
-233 -246 0
-234 -277 0
-235 -238 0
-235 -240 0
-235 -242 0
-235 -289 0
-235 -294 0
-235 -296 0
-235 -298 0
-236 -238 0
-236 -281 0
-236 -285 0
-236 -287 0
-236 -290 0
-237 -242 0
-237 -243 0
-237 -244 0
-237 -246 0
-237 -248 0
-237 -250 0
-239 -242 0
-239 -244 0
-239 -246 0
-239 -293 0
-239 -298 0
-239 -300 0
-239 -302 0
-240 -242 0
-240 -285 0
-240 -289 0
-240 -291 0
-240 -294 0
-241 -246 0
-241 -247 0
-241 -248 0
-241 -250 0
-241 -252 0
-241 -254 0
-243 -246 0
-243 -248 0
-243 -250 0
-243 -297 0
-243 -302 0
-243 -304 0
-243 -306 0
-244 -246 0
-244 -289 0
-244 -293 0
-244 -295 0
-244 -298 0
-245 -250 0
-245 -251 0
-245 -252 0
-245 -254 0
-245 -256 0
-245 -258 0
-247 -250 0
-247 -252 0
-247 -254 0
-247 -301 0
-247 -306 0
-247 -308 0
-247 -310 0
-248 -250 0
-248 -293 0
-248 -297 0
-248 -299 0
-248 -302 0
-249 -254 0
-249 -255 0
-249 -256 0
-249 -258 0
-249 -260 0
-249 -262 0
-251 -254 0
-251 -256 0
-251 -258 0
-251 -305 0
-251 -310 0
-251 -312 0
-251 -314 0
-252 -254 0
-252 -297 0
-252 -301 0
-252 -303 0
-252 -306 0
-253 -258 0
-253 -259 0
-253 -260 0
-253 -262 0
-253 -264 0
-253 -266 0
-255 -258 0
-255 -260 0
-255 -262 0
-255 -309 0
-255 -314 0
-255 -316 0
-255 -318 0
-256 -258 0
-256 -301 0
-256 -305 0
-256 -307 0
-256 -310 0
-257 -262 0
-257 -263 0
-257 -264 0
-257 -266 0
-257 -268 0
-257 -270 0
-259 -262 0
-259 -264 0
-259 -266 0
-259 -313 0
-259 -318 0
-259 -320 0
-259 -322 0
-260 -262 0
-260 -305 0
-260 -309 0
-260 -311 0
-260 -314 0
-261 -266 0
-261 -267 0
-261 -268 0
-261 -270 0
-261 -272 0
-261 -274 0
-263 -266 0
-263 -268 0
-263 -270 0
-263 -317 0
-263 -322 0
-263 -324 0
-263 -326 0
-264 -266 0
-264 -309 0
-264 -313 0
-264 -315 0
-264 -318 0
-265 -270 0
-265 -271 0
-265 -272 0
-265 -274 0
-265 -276 0
-265 -278 0
-267 -270 0
-267 -272 0
-267 -274 0
-267 -321 0
-267 -326 0
-267 -328 0
-267 -330 0
-268 -270 0
-268 -313 0
-268 -317 0
-268 -319 0
-268 -322 0
-269 -274 0
-269 -275 0
-269 -276 0
-269 -278 0
-269 -280 0
-271 -274 0
-271 -276 0
-271 -278 0
-271 -325 0
-271 -330 0
-271 -332 0
-271 -334 0
-272 -274 0
-272 -317 0
-272 -321 0
-272 -323 0
-272 -326 0
-273 -278 0
-273 -279 0
-273 -280 0
-275 -278 0
-275 -280 0
-275 -282 0
-275 -329 0
-275 -334 0
-275 -336 0
-276 -278 0
-276 -321 0
-276 -325 0
-276 -327 0
-276 -330 0
-279 -282 0
-279 -284 0
-279 -286 0
-279 -333 0
-280 -325 0
-280 -329 0
-280 -331 0
-280 -334 0
-281 -286 0
-281 -287 0
-281 -288 0
-281 -290 0
-281 -292 0
-281 -294 0
-282 -325 0
-282 -329 0
-282 -331 0
-282 -333 0
-282 -335 0
-282 -336 0
-283 -286 0
-283 -288 0
-283 -290 0
-283 -333 0
-283 -337 0
-283 -342 0
-283 -344 0
-283 -346 0
-284 -286 0
-284 -329 0
-284 -333 0
-284 -335 0
-284 -338 0
-284 -385 0
-284 -389 0
-284 -391 0
-285 -290 0
-285 -291 0
-285 -292 0
-285 -294 0
-285 -296 0
-285 -298 0
-286 -329 0
-286 -333 0
-286 -335 0
-287 -290 0
-287 -292 0
-287 -294 0
-287 -341 0
-287 -346 0
-287 -348 0
-287 -350 0
-288 -290 0
-288 -333 0
-288 -337 0
-288 -339 0
-288 -342 0
-288 -389 0
-289 -294 0
-289 -295 0
-289 -296 0
-289 -298 0
-289 -300 0
-289 -302 0
-290 -333 0
-291 -294 0
-291 -296 0
-291 -298 0
-291 -345 0
-291 -350 0
-291 -352 0
-291 -354 0
-292 -294 0
-292 -337 0
-292 -341 0
-292 -343 0
-292 -346 0
-293 -298 0
-293 -299 0
-293 -300 0
-293 -302 0
-293 -304 0
-293 -306 0
-295 -298 0
-295 -300 0
-295 -302 0
-295 -349 0
-295 -354 0
-295 -356 0
-295 -358 0
-296 -298 0
-296 -341 0
-296 -345 0
-296 -347 0
-296 -350 0
-297 -302 0
-297 -303 0
-297 -304 0
-297 -306 0
-297 -308 0
-297 -310 0
-299 -302 0
-299 -304 0
-299 -306 0
-299 -353 0
-299 -358 0
-299 -360 0
-299 -362 0
-300 -302 0
-300 -345 0
-300 -349 0
-300 -351 0
-300 -354 0
-301 -306 0
-301 -307 0
-301 -308 0
-301 -310 0
-301 -312 0
-301 -314 0
-303 -306 0
-303 -308 0
-303 -310 0
-303 -357 0
-303 -362 0
-303 -364 0
-303 -366 0
-304 -306 0
-304 -349 0
-304 -353 0
-304 -355 0
-304 -358 0
-305 -310 0
-305 -311 0
-305 -312 0
-305 -314 0
-305 -316 0
-305 -318 0
-307 -310 0
-307 -312 0
-307 -314 0
-307 -361 0
-307 -366 0
-307 -368 0
-307 -370 0
-308 -310 0
-308 -353 0
-308 -357 0
-308 -359 0
-308 -362 0
-309 -314 0
-309 -315 0
-309 -316 0
-309 -318 0
-309 -320 0
-309 -322 0
-311 -314 0
-311 -316 0
-311 -318 0
-311 -365 0
-311 -370 0
-311 -372 0
-311 -374 0
-312 -314 0
-312 -357 0
-312 -361 0
-312 -363 0
-312 -366 0
-313 -318 0
-313 -319 0
-313 -320 0
-313 -322 0
-313 -324 0
-313 -326 0
-315 -318 0
-315 -320 0
-315 -322 0
-315 -369 0
-315 -374 0
-315 -376 0
-315 -378 0
-316 -318 0
-316 -361 0
-316 -365 0
-316 -367 0
-316 -370 0
-317 -322 0
-317 -323 0
-317 -324 0
-317 -326 0
-317 -328 0
-317 -330 0
-319 -322 0
-319 -324 0
-319 -326 0
-319 -373 0
-319 -378 0
-319 -380 0
-319 -382 0
-320 -322 0
-320 -365 0
-320 -369 0
-320 -371 0
-320 -374 0
-321 -326 0
-321 -327 0
-321 -328 0
-321 -330 0
-321 -332 0
-321 -334 0
-323 -326 0
-323 -328 0
-323 -330 0
-323 -377 0
-323 -382 0
-323 -384 0
-323 -386 0
-324 -326 0
-324 -369 0
-324 -373 0
-324 -375 0
-324 -378 0
-325 -330 0
-325 -331 0
-325 -332 0
-325 -334 0
-325 -336 0
-327 -330 0
-327 -332 0
-327 -334 0
-327 -381 0
-327 -386 0
-327 -388 0
-327 -390 0
-328 -330 0
-328 -373 0
-328 -377 0
-328 -379 0
-328 -382 0
-329 -334 0
-329 -335 0
-329 -336 0
-331 -334 0
-331 -336 0
-331 -338 0
-331 -385 0
-331 -390 0
-331 -392 0
-332 -334 0
-332 -377 0
-332 -381 0
-332 -383 0
-332 -386 0
-335 -338 0
-335 -340 0
-335 -342 0
-335 -389 0
-336 -381 0
-336 -385 0
-336 -387 0
-336 -390 0
-337 -342 0
-337 -343 0
-337 -344 0
-337 -346 0
-337 -348 0
-337 -350 0
-338 -381 0
-338 -385 0
-338 -387 0
-338 -389 0
-338 -391 0
-338 -392 0
-339 -342 0
-339 -344 0
-339 -346 0
-339 -389 0
-340 -342 0
-340 -385 0
-340 -389 0
-340 -391 0
-341 -346 0
-341 -347 0
-341 -348 0
-341 -350 0
-341 -352 0
-341 -354 0
-342 -385 0
-342 -389 0
-342 -391 0
-343 -346 0
-343 -348 0
-343 -350 0
-344 -346 0
-344 -389 0
-345 -350 0
-345 -351 0
-345 -352 0
-345 -354 0
-345 -356 0
-345 -358 0
-346 -389 0
-347 -350 0
-347 -352 0
-347 -354 0
-348 -350 0
-349 -354 0
-349 -355 0
-349 -356 0
-349 -358 0
-349 -360 0
-349 -362 0
-351 -354 0
-351 -356 0
-351 -358 0
-352 -354 0
-353 -358 0
-353 -359 0
-353 -360 0
-353 -362 0
-353 -364 0
-353 -366 0
-355 -358 0
-355 -360 0
-355 -362 0
-356 -358 0
-357 -362 0
-357 -363 0
-357 -364 0
-357 -366 0
-357 -368 0
-357 -370 0
-359 -362 0
-359 -364 0
-359 -366 0
-360 -362 0
-361 -366 0
-361 -367 0
-361 -368 0
-361 -370 0
-361 -372 0
-361 -374 0
-363 -366 0
-363 -368 0
-363 -370 0
-364 -366 0
-365 -370 0
-365 -371 0
-365 -372 0
-365 -374 0
-365 -376 0
-365 -378 0
-367 -370 0
-367 -372 0
-367 -374 0
-368 -370 0
-369 -374 0
-369 -375 0
-369 -376 0
-369 -378 0
-369 -380 0
-369 -382 0
-371 -374 0
-371 -376 0
-371 -378 0
-372 -374 0
-373 -378 0
-373 -379 0
-373 -380 0
-373 -382 0
-373 -384 0
-373 -386 0
-375 -378 0
-375 -380 0
-375 -382 0
-376 -378 0
-377 -382 0
-377 -383 0
-377 -384 0
-377 -386 0
-377 -388 0
-377 -390 0
-379 -382 0
-379 -384 0
-379 -386 0
-380 -382 0
-381 -386 0
-381 -387 0
-381 -388 0
-381 -390 0
-381 -392 0
-383 -386 0
-383 -388 0
-383 -390 0
-384 -386 0
-385 -390 0
-385 -391 0
-385 -392 0
-387 -390 0
-387 -392 0
-388 -390 0
176 227 230 277 0
-176 -227 0
-176 -230 0
-176 -277 0
-227 -230 0
-227 -277 0
-230 -277 0
227 232 234 277 0
-227 -232 0
-227 -234 0
-227 -277 0
-232 -234 0
-232 -277 0
-234 -277 0
171 225 232 234 0
-171 -225 0
-171 -232 0
-171 -234 0
-225 -232 0
-225 -234 0
-232 -234 0
171 176 225 230 0
-171 -176 0
-171 -225 0
-171 -230 0
-176 -225 0
-176 -230 0
-225 -230 0
180 225 231 234 0
-180 -225 0
-180 -231 0
-180 -234 0
-225 -231 0
-225 -234 0
-231 -234 0
225 231 236 238 0
-225 -231 0
-225 -236 0
-225 -238 0
-231 -236 0
-231 -238 0
-236 -238 0
175 229 236 238 0
-175 -229 0
-175 -236 0
-175 -238 0
-229 -236 0
-229 -238 0
-236 -238 0
175 180 229 234 0
-175 -180 0
-175 -229 0
-175 -234 0
-180 -229 0
-180 -234 0
-229 -234 0
184 229 235 238 0
-184 -229 0
-184 -235 0
-184 -238 0
-229 -235 0
-229 -238 0
-235 -238 0
229 235 240 242 0
-229 -235 0
-229 -240 0
-229 -242 0
-235 -240 0
-235 -242 0
-240 -242 0
179 233 240 242 0
-179 -233 0
-179 -240 0
-179 -242 0
-233 -240 0
-233 -242 0
-240 -242 0
179 184 233 238 0
-179 -184 0
-179 -233 0
-179 -238 0
-184 -233 0
-184 -238 0
-233 -238 0
188 233 239 242 0
-188 -233 0
-188 -239 0
-188 -242 0
-233 -239 0
-233 -242 0
-239 -242 0
233 239 244 246 0
-233 -239 0
-233 -244 0
-233 -246 0
-239 -244 0
-239 -246 0
-244 -246 0
183 237 244 246 0
-183 -237 0
-183 -244 0
-183 -246 0
-237 -244 0
-237 -246 0
-244 -246 0
183 188 237 242 0
-183 -188 0
-183 -237 0
-183 -242 0
-188 -237 0
-188 -242 0
-237 -242 0
192 237 243 246 0
-192 -237 0
-192 -243 0
-192 -246 0
-237 -243 0
-237 -246 0
-243 -246 0
237 243 248 250 0
-237 -243 0
-237 -248 0
-237 -250 0
-243 -248 0
-243 -250 0
-248 -250 0
187 241 248 250 0
-187 -241 0
-187 -248 0
-187 -250 0
-241 -248 0
-241 -250 0
-248 -250 0
187 192 241 246 0
-187 -192 0
-187 -241 0
-187 -246 0
-192 -241 0
-192 -246 0
-241 -246 0
196 241 247 250 0
-196 -241 0
-196 -247 0
-196 -250 0
-241 -247 0
-241 -250 0
-247 -250 0
241 247 252 254 0
-241 -247 0
-241 -252 0
-241 -254 0
-247 -252 0
-247 -254 0
-252 -254 0
191 245 252 254 0
-191 -245 0
-191 -252 0
-191 -254 0
-245 -252 0
-245 -254 0
-252 -254 0
191 196 245 250 0
-191 -196 0
-191 -245 0
-191 -250 0
-196 -245 0
-196 -250 0
-245 -250 0
200 245 251 254 0
-200 -245 0
-200 -251 0
-200 -254 0
-245 -251 0
-245 -254 0
-251 -254 0
245 251 256 258 0
-245 -251 0
-245 -256 0
-245 -258 0
-251 -256 0
-251 -258 0
-256 -258 0
195 249 256 258 0
-195 -249 0
-195 -256 0
-195 -258 0
-249 -256 0
-249 -258 0
-256 -258 0
195 200 249 254 0
-195 -200 0
-195 -249 0
-195 -254 0
-200 -249 0
-200 -254 0
-249 -254 0
204 249 255 258 0
-204 -249 0
-204 -255 0
-204 -258 0
-249 -255 0
-249 -258 0
-255 -258 0
249 255 260 262 0
-249 -255 0
-249 -260 0
-249 -262 0
-255 -260 0
-255 -262 0
-260 -262 0
199 253 260 262 0
-199 -253 0
-199 -260 0
-199 -262 0
-253 -260 0
-253 -262 0
-260 -262 0
199 204 253 258 0
-199 -204 0
-199 -253 0
-199 -258 0
-204 -253 0
-204 -258 0
-253 -258 0
208 253 259 262 0
-208 -253 0
-208 -259 0
-208 -262 0
-253 -259 0
-253 -262 0
-259 -262 0
253 259 264 266 0
-253 -259 0
-253 -264 0
-253 -266 0
-259 -264 0
-259 -266 0
-264 -266 0
203 257 264 266 0
-203 -257 0
-203 -264 0
-203 -266 0
-257 -264 0
-257 -266 0
-264 -266 0
203 208 257 262 0
-203 -208 0
-203 -257 0
-203 -262 0
-208 -257 0
-208 -262 0
-257 -262 0
212 257 263 266 0
-212 -257 0
-212 -263 0
-212 -266 0
-257 -263 0
-257 -266 0
-263 -266 0
257 263 268 270 0
-257 -263 0
-257 -268 0
-257 -270 0
-263 -268 0
-263 -270 0
-268 -270 0
207 261 268 270 0
-207 -261 0
-207 -268 0
-207 -270 0
-261 -268 0
-261 -270 0
-268 -270 0
207 212 261 266 0
-207 -212 0
-207 -261 0
-207 -266 0
-212 -261 0
-212 -266 0
-261 -266 0
216 261 267 270 0
-216 -261 0
-216 -267 0
-216 -270 0
-261 -267 0
-261 -270 0
-267 -270 0
261 267 272 274 0
-261 -267 0
-261 -272 0
-261 -274 0
-267 -272 0
-267 -274 0
-272 -274 0
211 265 272 274 0
-211 -265 0
-211 -272 0
-211 -274 0
-265 -272 0
-265 -274 0
-272 -274 0
211 216 265 270 0
-211 -216 0
-211 -265 0
-211 -270 0
-216 -265 0
-216 -270 0
-265 -270 0
220 265 271 274 0
-220 -265 0
-220 -271 0
-220 -274 0
-265 -271 0
-265 -274 0
-271 -274 0
265 271 276 278 0
-265 -271 0
-265 -276 0
-265 -278 0
-271 -276 0
-271 -278 0
-276 -278 0
215 269 276 278 0
-215 -269 0
-215 -276 0
-215 -278 0
-269 -276 0
-269 -278 0
-276 -278 0
215 220 269 274 0
-215 -220 0
-215 -269 0
-215 -274 0
-220 -269 0
-220 -274 0
-269 -274 0
224 269 275 278 0
-224 -269 0
-224 -275 0
-224 -278 0
-269 -275 0
-269 -278 0
-275 -278 0
226 269 275 280 0
-226 -269 0
-226 -275 0
-226 -280 0
-269 -275 0
-269 -280 0
-275 -280 0
219 226 273 280 0
-219 -226 0
-219 -273 0
-219 -280 0
-226 -273 0
-226 -280 0
-273 -280 0
219 224 273 278 0
-219 -224 0
-219 -273 0
-219 -278 0
-224 -273 0
-224 -278 0
-273 -278 0
172 226 273 279 0
-172 -226 0
-172 -273 0
-172 -279 0
-226 -273 0
-226 -279 0
-273 -279 0
228 230 273 279 0
-228 -230 0
-228 -273 0
-228 -279 0
-230 -273 0
-230 -279 0
-273 -279 0
223 228 230 277 0
-223 -228 0
-223 -230 0
-223 -277 0
-228 -230 0
-228 -277 0
-230 -277 0
172 223 226 277 0
-172 -223 0
-172 -226 0
-172 -277 0
-223 -226 0
-223 -277 0
-226 -277 0
232 283 286 333 0
-232 -283 0
-232 -286 0
-232 -333 0
-283 -286 0
-283 -333 0
-286 -333 0
283 288 290 333 0
-283 -288 0
-283 -290 0
-283 -333 0
-288 -290 0
-288 -333 0
-290 -333 0
227 281 288 290 0
-227 -281 0
-227 -288 0
-227 -290 0
-281 -288 0
-281 -290 0
-288 -290 0
227 232 281 286 0
-227 -232 0
-227 -281 0
-227 -286 0
-232 -281 0
-232 -286 0
-281 -286 0
236 281 287 290 0
-236 -281 0
-236 -287 0
-236 -290 0
-281 -287 0
-281 -290 0
-287 -290 0
281 287 292 294 0
-281 -287 0
-281 -292 0
-281 -294 0
-287 -292 0
-287 -294 0
-292 -294 0
231 285 292 294 0
-231 -285 0
-231 -292 0
-231 -294 0
-285 -292 0
-285 -294 0
-292 -294 0
231 236 285 290 0
-231 -236 0
-231 -285 0
-231 -290 0
-236 -285 0
-236 -290 0
-285 -290 0
240 285 291 294 0
-240 -285 0
-240 -291 0
-240 -294 0
-285 -291 0
-285 -294 0
-291 -294 0
285 291 296 298 0
-285 -291 0
-285 -296 0
-285 -298 0
-291 -296 0
-291 -298 0
-296 -298 0
235 289 296 298 0
-235 -289 0
-235 -296 0
-235 -298 0
-289 -296 0
-289 -298 0
-296 -298 0
235 240 289 294 0
-235 -240 0
-235 -289 0
-235 -294 0
-240 -289 0
-240 -294 0
-289 -294 0
244 289 295 298 0
-244 -289 0
-244 -295 0
-244 -298 0
-289 -295 0
-289 -298 0
-295 -298 0
289 295 300 302 0
-289 -295 0
-289 -300 0
-289 -302 0
-295 -300 0
-295 -302 0
-300 -302 0
239 293 300 302 0
-239 -293 0
-239 -300 0
-239 -302 0
-293 -300 0
-293 -302 0
-300 -302 0
239 244 293 298 0
-239 -244 0
-239 -293 0
-239 -298 0
-244 -293 0
-244 -298 0
-293 -298 0
248 293 299 302 0
-248 -293 0
-248 -299 0
-248 -302 0
-293 -299 0
-293 -302 0
-299 -302 0
293 299 304 306 0
-293 -299 0
-293 -304 0
-293 -306 0
-299 -304 0
-299 -306 0
-304 -306 0
243 297 304 306 0
-243 -297 0
-243 -304 0
-243 -306 0
-297 -304 0
-297 -306 0
-304 -306 0
243 248 297 302 0
-243 -248 0
-243 -297 0
-243 -302 0
-248 -297 0
-248 -302 0
-297 -302 0
252 297 303 306 0
-252 -297 0
-252 -303 0
-252 -306 0
-297 -303 0
-297 -306 0
-303 -306 0
297 303 308 310 0
-297 -303 0
-297 -308 0
-297 -310 0
-303 -308 0
-303 -310 0
-308 -310 0
247 301 308 310 0
-247 -301 0
-247 -308 0
-247 -310 0
-301 -308 0
-301 -310 0
-308 -310 0
247 252 301 306 0
-247 -252 0
-247 -301 0
-247 -306 0
-252 -301 0
-252 -306 0
-301 -306 0
256 301 307 310 0
-256 -301 0
-256 -307 0
-256 -310 0
-301 -307 0
-301 -310 0
-307 -310 0
301 307 312 314 0
-301 -307 0
-301 -312 0
-301 -314 0
-307 -312 0
-307 -314 0
-312 -314 0
251 305 312 314 0
-251 -305 0
-251 -312 0
-251 -314 0
-305 -312 0
-305 -314 0
-312 -314 0
251 256 305 310 0
-251 -256 0
-251 -305 0
-251 -310 0
-256 -305 0
-256 -310 0
-305 -310 0
260 305 311 314 0
-260 -305 0
-260 -311 0
-260 -314 0
-305 -311 0
-305 -314 0
-311 -314 0
305 311 316 318 0
-305 -311 0
-305 -316 0
-305 -318 0
-311 -316 0
-311 -318 0
-316 -318 0
255 309 316 318 0
-255 -309 0
-255 -316 0
-255 -318 0
-309 -316 0
-309 -318 0
-316 -318 0
255 260 309 314 0
-255 -260 0
-255 -309 0
-255 -314 0
-260 -309 0
-260 -314 0
-309 -314 0
264 309 315 318 0
-264 -309 0
-264 -315 0
-264 -318 0
-309 -315 0
-309 -318 0
-315 -318 0
309 315 320 322 0
-309 -315 0
-309 -320 0
-309 -322 0
-315 -320 0
-315 -322 0
-320 -322 0
259 313 320 322 0
-259 -313 0
-259 -320 0
-259 -322 0
-313 -320 0
-313 -322 0
-320 -322 0
259 264 313 318 0
-259 -264 0
-259 -313 0
-259 -318 0
-264 -313 0
-264 -318 0
-313 -318 0
268 313 319 322 0
-268 -313 0
-268 -319 0
-268 -322 0
-313 -319 0
-313 -322 0
-319 -322 0
313 319 324 326 0
-313 -319 0
-313 -324 0
-313 -326 0
-319 -324 0
-319 -326 0
-324 -326 0
263 317 324 326 0
-263 -317 0
-263 -324 0
-263 -326 0
-317 -324 0
-317 -326 0
-324 -326 0
263 268 317 322 0
-263 -268 0
-263 -317 0
-263 -322 0
-268 -317 0
-268 -322 0
-317 -322 0
272 317 323 326 0
-272 -317 0
-272 -323 0
-272 -326 0
-317 -323 0
-317 -326 0
-323 -326 0
317 323 328 330 0
-317 -323 0
-317 -328 0
-317 -330 0
-323 -328 0
-323 -330 0
-328 -330 0
267 321 328 330 0
-267 -321 0
-267 -328 0
-267 -330 0
-321 -328 0
-321 -330 0
-328 -330 0
267 272 321 326 0
-267 -272 0
-267 -321 0
-267 -326 0
-272 -321 0
-272 -326 0
-321 -326 0
276 321 327 330 0
-276 -321 0
-276 -327 0
-276 -330 0
-321 -327 0
-321 -330 0
-327 -330 0
321 327 332 334 0
-321 -327 0
-321 -332 0
-321 -334 0
-327 -332 0
-327 -334 0
-332 -334 0
271 325 332 334 0
-271 -325 0
-271 -332 0
-271 -334 0
-325 -332 0
-325 -334 0
-332 -334 0
271 276 325 330 0
-271 -276 0
-271 -325 0
-271 -330 0
-276 -325 0
-276 -330 0
-325 -330 0
280 325 331 334 0
-280 -325 0
-280 -331 0
-280 -334 0
-325 -331 0
-325 -334 0
-331 -334 0
282 325 331 336 0
-282 -325 0
-282 -331 0
-282 -336 0
-325 -331 0
-325 -336 0
-331 -336 0
275 282 329 336 0
-275 -282 0
-275 -329 0
-275 -336 0
-282 -329 0
-282 -336 0
-329 -336 0
275 280 329 334 0
-275 -280 0
-275 -329 0
-275 -334 0
-280 -329 0
-280 -334 0
-329 -334 0
228 282 329 335 0
-228 -282 0
-228 -329 0
-228 -335 0
-282 -329 0
-282 -335 0
-329 -335 0
284 286 329 335 0
-284 -286 0
-284 -329 0
-284 -335 0
-286 -329 0
-286 -335 0
-329 -335 0
279 284 286 333 0
-279 -284 0
-279 -286 0
-279 -333 0
-284 -286 0
-284 -333 0
-286 -333 0
228 279 282 333 0
-228 -279 0
-228 -282 0
-228 -333 0
-279 -282 0
-279 -333 0
-282 -333 0
288 339 342 389 0
-288 -339 0
-288 -342 0
-288 -389 0
-339 -342 0
-339 -389 0
-342 -389 0
339 344 346 389 0
-339 -344 0
-339 -346 0
-339 -389 0
-344 -346 0
-344 -389 0
-346 -389 0
283 337 344 346 0
-283 -337 0
-283 -344 0
-283 -346 0
-337 -344 0
-337 -346 0
-344 -346 0
283 288 337 342 0
-283 -288 0
-283 -337 0
-283 -342 0
-288 -337 0
-288 -342 0
-337 -342 0
292 337 343 346 0
-292 -337 0
-292 -343 0
-292 -346 0
-337 -343 0
-337 -346 0
-343 -346 0
337 343 348 350 0
-337 -343 0
-337 -348 0
-337 -350 0
-343 -348 0
-343 -350 0
-348 -350 0
287 341 348 350 0
-287 -341 0
-287 -348 0
-287 -350 0
-341 -348 0
-341 -350 0
-348 -350 0
287 292 341 346 0
-287 -292 0
-287 -341 0
-287 -346 0
-292 -341 0
-292 -346 0
-341 -346 0
296 341 347 350 0
-296 -341 0
-296 -347 0
-296 -350 0
-341 -347 0
-341 -350 0
-347 -350 0
341 347 352 354 0
-341 -347 0
-341 -352 0
-341 -354 0
-347 -352 0
-347 -354 0
-352 -354 0
291 345 352 354 0
-291 -345 0
-291 -352 0
-291 -354 0
-345 -352 0
-345 -354 0
-352 -354 0
291 296 345 350 0
-291 -296 0
-291 -345 0
-291 -350 0
-296 -345 0
-296 -350 0
-345 -350 0
300 345 351 354 0
-300 -345 0
-300 -351 0
-300 -354 0
-345 -351 0
-345 -354 0
-351 -354 0
345 351 356 358 0
-345 -351 0
-345 -356 0
-345 -358 0
-351 -356 0
-351 -358 0
-356 -358 0
295 349 356 358 0
-295 -349 0
-295 -356 0
-295 -358 0
-349 -356 0
-349 -358 0
-356 -358 0
295 300 349 354 0
-295 -300 0
-295 -349 0
-295 -354 0
-300 -349 0
-300 -354 0
-349 -354 0
304 349 355 358 0
-304 -349 0
-304 -355 0
-304 -358 0
-349 -355 0
-349 -358 0
-355 -358 0
349 355 360 362 0
-349 -355 0
-349 -360 0
-349 -362 0
-355 -360 0
-355 -362 0
-360 -362 0
299 353 360 362 0
-299 -353 0
-299 -360 0
-299 -362 0
-353 -360 0
-353 -362 0
-360 -362 0
299 304 353 358 0
-299 -304 0
-299 -353 0
-299 -358 0
-304 -353 0
-304 -358 0
-353 -358 0
308 353 359 362 0
-308 -353 0
-308 -359 0
-308 -362 0
-353 -359 0
-353 -362 0
-359 -362 0
353 359 364 366 0
-353 -359 0
-353 -364 0
-353 -366 0
-359 -364 0
-359 -366 0
-364 -366 0
303 357 364 366 0
-303 -357 0
-303 -364 0
-303 -366 0
-357 -364 0
-357 -366 0
-364 -366 0
303 308 357 362 0
-303 -308 0
-303 -357 0
-303 -362 0
-308 -357 0
-308 -362 0
-357 -362 0
312 357 363 366 0
-312 -357 0
-312 -363 0
-312 -366 0
-357 -363 0
-357 -366 0
-363 -366 0
357 363 368 370 0
-357 -363 0
-357 -368 0
-357 -370 0
-363 -368 0
-363 -370 0
-368 -370 0
307 361 368 370 0
-307 -361 0
-307 -368 0
-307 -370 0
-361 -368 0
-361 -370 0
-368 -370 0
307 312 361 366 0
-307 -312 0
-307 -361 0
-307 -366 0
-312 -361 0
-312 -366 0
-361 -366 0
316 361 367 370 0
-316 -361 0
-316 -367 0
-316 -370 0
-361 -367 0
-361 -370 0
-367 -370 0
361 367 372 374 0
-361 -367 0
-361 -372 0
-361 -374 0
-367 -372 0
-367 -374 0
-372 -374 0
311 365 372 374 0
-311 -365 0
-311 -372 0
-311 -374 0
-365 -372 0
-365 -374 0
-372 -374 0
311 316 365 370 0
-311 -316 0
-311 -365 0
-311 -370 0
-316 -365 0
-316 -370 0
-365 -370 0
320 365 371 374 0
-320 -365 0
-320 -371 0
-320 -374 0
-365 -371 0
-365 -374 0
-371 -374 0
365 371 376 378 0
-365 -371 0
-365 -376 0
-365 -378 0
-371 -376 0
-371 -378 0
-376 -378 0
315 369 376 378 0
-315 -369 0
-315 -376 0
-315 -378 0
-369 -376 0
-369 -378 0
-376 -378 0
315 320 369 374 0
-315 -320 0
-315 -369 0
-315 -374 0
-320 -369 0
-320 -374 0
-369 -374 0
324 369 375 378 0
-324 -369 0
-324 -375 0
-324 -378 0
-369 -375 0
-369 -378 0
-375 -378 0
369 375 380 382 0
-369 -375 0
-369 -380 0
-369 -382 0
-375 -380 0
-375 -382 0
-380 -382 0
319 373 380 382 0
-319 -373 0
-319 -380 0
-319 -382 0
-373 -380 0
-373 -382 0
-380 -382 0
319 324 373 378 0
-319 -324 0
-319 -373 0
-319 -378 0
-324 -373 0
-324 -378 0
-373 -378 0
328 373 379 382 0
-328 -373 0
-328 -379 0
-328 -382 0
-373 -379 0
-373 -382 0
-379 -382 0
373 379 384 386 0
-373 -379 0
-373 -384 0
-373 -386 0
-379 -384 0
-379 -386 0
-384 -386 0
323 377 384 386 0
-323 -377 0
-323 -384 0
-323 -386 0
-377 -384 0
-377 -386 0
-384 -386 0
323 328 377 382 0
-323 -328 0
-323 -377 0
-323 -382 0
-328 -377 0
-328 -382 0
-377 -382 0
332 377 383 386 0
-332 -377 0
-332 -383 0
-332 -386 0
-377 -383 0
-377 -386 0
-383 -386 0
377 383 388 390 0
-377 -383 0
-377 -388 0
-377 -390 0
-383 -388 0
-383 -390 0
-388 -390 0
327 381 388 390 0
-327 -381 0
-327 -388 0
-327 -390 0
-381 -388 0
-381 -390 0
-388 -390 0
327 332 381 386 0
-327 -332 0
-327 -381 0
-327 -386 0
-332 -381 0
-332 -386 0
-381 -386 0
336 381 387 390 0
-336 -381 0
-336 -387 0
-336 -390 0
-381 -387 0
-381 -390 0
-387 -390 0
338 381 387 392 0
-338 -381 0
-338 -387 0
-338 -392 0
-381 -387 0
-381 -392 0
-387 -392 0
331 338 385 392 0
-331 -338 0
-331 -385 0
-331 -392 0
-338 -385 0
-338 -392 0
-385 -392 0
331 336 385 390 0
-331 -336 0
-331 -385 0
-331 -390 0
-336 -385 0
-336 -390 0
-385 -390 0
284 338 385 391 0
-284 -338 0
-284 -385 0
-284 -391 0
-338 -385 0
-338 -391 0
-385 -391 0
340 342 385 391 0
-340 -342 0
-340 -385 0
-340 -391 0
-342 -385 0
-342 -391 0
-385 -391 0
335 340 342 389 0
-335 -340 0
-335 -342 0
-335 -389 0
-340 -342 0
-340 -389 0
-342 -389 0
284 335 338 389 0
-284 -335 0
-284 -338 0
-284 -389 0
-335 -338 0
-335 -389 0
-338 -389 0
787 0
-785 0
-786 0
-785 59 788 0
-785 -59 789 0
-786 59 789 0
-786 -59 790 0
-787 59 790 0
-787 -59 788 0
-788 -789 0
-788 -790 0
-789 -790 0
-788 64 791 0
-788 -64 792 0
-789 64 792 0
-789 -64 793 0
-790 64 793 0
-790 -64 791 0
-791 -792 0
-791 -793 0
-792 -793 0
-791 66 794 0
-791 -66 796 0
-792 66 795 0
-792 -66 794 0
-793 66 796 0
-793 -66 795 0
-794 -795 0
-794 -796 0
-795 -796 0
-794 109 797 0
-794 -109 799 0
-795 109 798 0
-795 -109 797 0
-796 109 799 0
-796 -109 798 0
-797 -798 0
-797 -799 0
-798 -799 0
-797 113 800 0
-797 -113 802 0
-798 113 801 0
-798 -113 800 0
-799 113 802 0
-799 -113 801 0
-800 -801 0
-800 -802 0
-801 -802 0
-800 118 803 0
-800 -118 805 0
-801 118 804 0
-801 -118 803 0
-802 118 805 0
-802 -118 804 0
-803 -804 0
-803 -805 0
-804 -805 0
-803 115 806 0
-803 -115 808 0
-804 115 807 0
-804 -115 806 0
-805 115 808 0
-805 -115 807 0
-806 -807 0
-806 -808 0
-807 -808 0
-806 120 809 0
-806 -120 811 0
-807 120 810 0
-807 -120 809 0
-808 120 811 0
-808 -120 810 0
-809 -810 0
-809 -811 0
-810 -811 0
-809 122 812 0
-809 -122 813 0
-810 122 813 0
-810 -122 814 0
-811 122 814 0
-811 -122 812 0
-812 -813 0
-812 -814 0
-813 -814 0
-812 165 815 0
-812 -165 816 0
-813 165 816 0
-813 -165 817 0
-814 165 817 0
-814 -165 815 0
-815 -816 0
-815 -817 0
-816 -817 0
-815 169 818 0
-815 -169 819 0
-816 169 819 0
-816 -169 820 0
-817 169 820 0
-817 -169 818 0
-818 -819 0
-818 -820 0
-819 -820 0
-818 174 821 0
-818 -174 822 0
-819 174 822 0
-819 -174 823 0
-820 174 823 0
-820 -174 821 0
-821 -822 0
-821 -823 0
-822 -823 0
-821 171 824 0
-821 -171 825 0
-822 171 825 0
-822 -171 826 0
-823 171 826 0
-823 -171 824 0
-824 -825 0
-824 -826 0
-825 -826 0
-824 176 827 0
-824 -176 828 0
-825 176 828 0
-825 -176 829 0
-826 176 829 0
-826 -176 827 0
-827 -828 0
-827 -829 0
-828 -829 0
-827 178 830 0
-827 -178 832 0
-828 178 831 0
-828 -178 830 0
-829 178 832 0
-829 -178 831 0
-830 -831 0
-830 -832 0
-831 -832 0
-830 221 833 0
-830 -221 835 0
-831 221 834 0
-831 -221 833 0
-832 221 835 0
-832 -221 834 0
-833 -834 0
-833 -835 0
-834 -835 0
-833 225 836 0
-833 -225 838 0
-834 225 837 0
-834 -225 836 0
-835 225 838 0
-835 -225 837 0
-836 -837 0
-836 -838 0
-837 -838 0
-836 230 839 0
-836 -230 841 0
-837 230 840 0
-837 -230 839 0
-838 230 841 0
-838 -230 840 0
-839 -840 0
-839 -841 0
-840 -841 0
-839 227 842 0
-839 -227 844 0
-840 227 843 0
-840 -227 842 0
-841 227 844 0
-841 -227 843 0
-842 -843 0
-842 -844 0
-843 -844 0
-842 232 845 0
-842 -232 847 0
-843 232 846 0
-843 -232 845 0
-844 232 847 0
-844 -232 846 0
-845 -846 0
-845 -847 0
-846 -847 0
-845 234 848 0
-845 -234 849 0
-846 234 849 0
-846 -234 850 0
-847 234 850 0
-847 -234 848 0
-848 -849 0
-848 -850 0
-849 -850 0
-848 277 851 0
-848 -277 852 0
-849 277 852 0
-849 -277 853 0
-850 277 853 0
-850 -277 851 0
-851 -852 0
-851 -853 0
-852 -853 0
-851 281 854 0
-851 -281 855 0
-852 281 855 0
-852 -281 856 0
-853 281 856 0
-853 -281 854 0
-854 -855 0
-854 -856 0
-855 -856 0
-854 286 857 0
-854 -286 858 0
-855 286 858 0
-855 -286 859 0
-856 286 859 0
-856 -286 857 0
-857 -858 0
-857 -859 0
-858 -859 0
-857 283 860 0
-857 -283 861 0
-858 283 861 0
-858 -283 862 0
-859 283 862 0
-859 -283 860 0
-860 -861 0
-860 -862 0
-861 -862 0
-860 288 863 0
-860 -288 864 0
-861 288 864 0
-861 -288 865 0
-862 288 865 0
-862 -288 863 0
-863 -864 0
-863 -865 0
-864 -865 0
-863 290 866 0
-863 -290 868 0
-864 290 867 0
-864 -290 866 0
-865 290 868 0
-865 -290 867 0
-866 -867 0
-866 -868 0
-867 -868 0
-866 333 869 0
-866 -333 871 0
-867 333 870 0
-867 -333 869 0
-868 333 871 0
-868 -333 870 0
-869 -870 0
-869 -871 0
-870 -871 0
-869 337 872 0
-869 -337 874 0
-870 337 873 0
-870 -337 872 0
-871 337 874 0
-871 -337 873 0
-872 -873 0
-872 -874 0
-873 -874 0
-872 342 875 0
-872 -342 877 0
-873 342 876 0
-873 -342 875 0
-874 342 877 0
-874 -342 876 0
-875 -876 0
-875 -877 0
-876 -877 0
-875 0
-3 -8 0
878 0
-879 0
-880 0
-878 53 881 0
-878 -53 883 0
-879 53 882 0
-879 -53 881 0
-880 53 883 0
-880 -53 882 0
-881 -882 0
-881 -883 0
-882 -883 0
-881 2 884 0
-881 -2 886 0
-882 2 885 0
-882 -2 884 0
-883 2 886 0
-883 -2 885 0
-884 -885 0
-884 -886 0
-885 -886 0
-884 4 887 0
-884 -4 889 0
-885 4 888 0
-885 -4 887 0
-886 4 889 0
-886 -4 888 0
-887 -888 0
-887 -889 0
-888 -889 0
-887 6 890 0
-887 -6 891 0
-888 6 891 0
-888 -6 892 0
-889 6 892 0
-889 -6 890 0
-890 -891 0
-890 -892 0
-891 -892 0
-890 8 893 0
-890 -8 894 0
-891 8 894 0
-891 -8 895 0
-892 8 895 0
-892 -8 893 0
-893 -894 0
-893 -895 0
-894 -895 0
-893 10 896 0
-893 -10 898 0
-894 10 897 0
-894 -10 896 0
-895 10 898 0
-895 -10 897 0
-896 -897 0
-896 -898 0
-897 -898 0
-896 57 899 0
-896 -57 901 0
-897 57 900 0
-897 -57 899 0
-898 57 901 0
-898 -57 900 0
-899 -900 0
-899 -901 0
-900 -901 0
-899 62 902 0
-899 -62 904 0
-900 62 903 0
-900 -62 902 0
-901 62 904 0
-901 -62 903 0
-902 -903 0
-902 -904 0
-903 -904 0
-902 0
-903 0
-393 905 0
-905 906 0
-394 -905 907 0
-907 908 0
-395 -907 909 0
-909 910 0
-396 -909 911 0
-911 912 0
-397 -911 913 0
-913 914 0
-398 -913 915 0
-915 916 0
-399 -915 917 0
-917 918 0
-400 -917 919 0
-919 920 0
-401 -919 921 0
-921 922 0
-402 -921 923 0
-923 924 0
-403 -923 925 0
-925 926 0
-404 -925 927 0
-927 928 0
-405 -927 929 0
-929 930 0
-406 -929 931 0
-931 932 0
-407 -931 933 0
-933 934 0
-408 -933 935 0
-935 936 0
-409 -935 937 0
-937 938 0
-410 -937 939 0
-939 940 0
-411 -939 941 0
-941 942 0
-412 -941 943 0
-943 944 0
-413 -943 945 0
-945 946 0
-414 -945 947 0
-947 948 0
-415 -947 949 0
-949 950 0
-416 -949 951 0
-951 952 0
-417 -951 953 0
-953 954 0
-418 -953 955 0
-955 956 0
-419 -955 957 0
-957 958 0
-420 -957 959 0
-959 960 0
-421 -959 961 0
-961 962 0
-422 -961 0
-394 906 0
-906 963 0
-395 -906 908 0
-908 964 0
-396 -908 910 0
-910 965 0
-397 -910 912 0
-912 966 0
-398 -912 914 0
-914 967 0
-399 -914 916 0
-916 968 0
-400 -916 918 0
-918 969 0
-401 -918 920 0
-920 970 0
-402 -920 922 0
-922 971 0
-403 -922 924 0
-924 972 0
-404 -924 926 0
-926 973 0
-405 -926 928 0
-928 974 0
-406 -928 930 0
-930 975 0
-407 -930 932 0
-932 976 0
-408 -932 934 0
-934 977 0
-409 -934 936 0
-936 978 0
-410 -936 938 0
-938 979 0
-411 -938 940 0
-940 980 0
-412 -940 942 0
-942 981 0
-413 -942 944 0
-944 982 0
-414 -944 946 0
-946 983 0
-415 -946 948 0
-948 984 0
-416 -948 950 0
-950 985 0
-417 -950 952 0
-952 986 0
-418 -952 954 0
-954 987 0
-419 -954 956 0
-956 988 0
-420 -956 958 0
-958 989 0
-421 -958 960 0
-960 990 0
-422 -960 962 0
-962 991 0
-423 -962 0
-395 963 0
-963 992 0
-396 -963 964 0
-964 993 0
-397 -964 965 0
-965 994 0
-398 -965 966 0
-966 995 0
-399 -966 967 0
-967 996 0
-400 -967 968 0
-968 997 0
-401 -968 969 0
-969 998 0
-402 -969 970 0
-970 999 0
-403 -970 971 0
-971 1000 0
-404 -971 972 0
-972 1001 0
-405 -972 973 0
-973 1002 0
-406 -973 974 0
-974 1003 0
-407 -974 975 0
-975 1004 0
-408 -975 976 0
-976 1005 0
-409 -976 977 0
-977 1006 0
-410 -977 978 0
-978 1007 0
-411 -978 979 0
-979 1008 0
-412 -979 980 0
-980 1009 0
-413 -980 981 0
-981 1010 0
-414 -981 982 0
-982 1011 0
-415 -982 983 0
-983 1012 0
-416 -983 984 0
-984 1013 0
-417 -984 985 0
-985 1014 0
-418 -985 986 0
-986 1015 0
-419 -986 987 0
-987 1016 0
-420 -987 988 0
-988 1017 0
-421 -988 989 0
-989 1018 0
-422 -989 990 0
-990 1019 0
-423 -990 991 0
-991 1020 0
-424 -991 0
-396 992 0
-992 1021 0
-397 -992 993 0
-993 1022 0
-398 -993 994 0
-994 1023 0
-399 -994 995 0
-995 1024 0
-400 -995 996 0
-996 1025 0
-401 -996 997 0
-997 1026 0
-402 -997 998 0
-998 1027 0
-403 -998 999 0
-999 1028 0
-404 -999 1000 0
-1000 1029 0
-405 -1000 1001 0
-1001 1030 0
-406 -1001 1002 0
-1002 1031 0
-407 -1002 1003 0
-1003 1032 0
-408 -1003 1004 0
-1004 1033 0
-409 -1004 1005 0
-1005 1034 0
-410 -1005 1006 0
-1006 1035 0
-411 -1006 1007 0
-1007 1036 0
-412 -1007 1008 0
-1008 1037 0
-413 -1008 1009 0
-1009 1038 0
-414 -1009 1010 0
-1010 1039 0
-415 -1010 1011 0
-1011 1040 0
-416 -1011 1012 0
-1012 1041 0
-417 -1012 1013 0
-1013 1042 0
-418 -1013 1014 0
-1014 1043 0
-419 -1014 1015 0
-1015 1044 0
-420 -1015 1016 0
-1016 1045 0
-421 -1016 1017 0
-1017 1046 0
-422 -1017 1018 0
-1018 1047 0
-423 -1018 1019 0
-1019 1048 0
-424 -1019 1020 0
-1020 1049 0
-425 -1020 0
-397 1021 0
-1021 1050 0
-398 -1021 1022 0
-1022 1051 0
-399 -1022 1023 0
-1023 1052 0
-400 -1023 1024 0
-1024 1053 0
-401 -1024 1025 0
-1025 1054 0
-402 -1025 1026 0
-1026 1055 0
-403 -1026 1027 0
-1027 1056 0
-404 -1027 1028 0
-1028 1057 0
-405 -1028 1029 0
-1029 1058 0
-406 -1029 1030 0
-1030 1059 0
-407 -1030 1031 0
-1031 1060 0
-408 -1031 1032 0
-1032 1061 0
-409 -1032 1033 0
-1033 1062 0
-410 -1033 1034 0
-1034 1063 0
-411 -1034 1035 0
-1035 1064 0
-412 -1035 1036 0
-1036 1065 0
-413 -1036 1037 0
-1037 1066 0
-414 -1037 1038 0
-1038 1067 0
-415 -1038 1039 0
-1039 1068 0
-416 -1039 1040 0
-1040 1069 0
-417 -1040 1041 0
-1041 1070 0
-418 -1041 1042 0
-1042 1071 0
-419 -1042 1043 0
-1043 1072 0
-420 -1043 1044 0
-1044 1073 0
-421 -1044 1045 0
-1045 1074 0
-422 -1045 1046 0
-1046 1075 0
-423 -1046 1047 0
-1047 1076 0
-424 -1047 1048 0
-1048 1077 0
-425 -1048 1049 0
-1049 1078 0
-426 -1049 0
-398 1050 0
-1050 1079 0
-399 -1050 1051 0
-1051 1080 0
-400 -1051 1052 0
-1052 1081 0
-401 -1052 1053 0
-1053 1082 0
-402 -1053 1054 0
-1054 1083 0
-403 -1054 1055 0
-1055 1084 0
-404 -1055 1056 0
-1056 1085 0
-405 -1056 1057 0
-1057 1086 0
-406 -1057 1058 0
-1058 1087 0
-407 -1058 1059 0
-1059 1088 0
-408 -1059 1060 0
-1060 1089 0
-409 -1060 1061 0
-1061 1090 0
-410 -1061 1062 0
-1062 1091 0
-411 -1062 1063 0
-1063 1092 0
-412 -1063 1064 0
-1064 1093 0
-413 -1064 1065 0
-1065 1094 0
-414 -1065 1066 0
-1066 1095 0
-415 -1066 1067 0
-1067 1096 0
-416 -1067 1068 0
-1068 1097 0
-417 -1068 1069 0
-1069 1098 0
-418 -1069 1070 0
-1070 1099 0
-419 -1070 1071 0
-1071 1100 0
-420 -1071 1072 0
-1072 1101 0
-421 -1072 1073 0
-1073 1102 0
-422 -1073 1074 0
-1074 1103 0
-423 -1074 1075 0
-1075 1104 0
-424 -1075 1076 0
-1076 1105 0
-425 -1076 1077 0
-1077 1106 0
-426 -1077 1078 0
-1078 1107 0
-427 -1078 0
-399 1079 0
-1079 1108 0
-400 -1079 1080 0
-1080 1109 0
-401 -1080 1081 0
-1081 1110 0
-402 -1081 1082 0
-1082 1111 0
-403 -1082 1083 0
-1083 1112 0
-404 -1083 1084 0
-1084 1113 0
-405 -1084 1085 0
-1085 1114 0
-406 -1085 1086 0
-1086 1115 0
-407 -1086 1087 0
-1087 1116 0
-408 -1087 1088 0
-1088 1117 0
-409 -1088 1089 0
-1089 1118 0
-410 -1089 1090 0
-1090 1119 0
-411 -1090 1091 0
-1091 1120 0
-412 -1091 1092 0
-1092 1121 0
-413 -1092 1093 0
-1093 1122 0
-414 -1093 1094 0
-1094 1123 0
-415 -1094 1095 0
-1095 1124 0
-416 -1095 1096 0
-1096 1125 0
-417 -1096 1097 0
-1097 1126 0
-418 -1097 1098 0
-1098 1127 0
-419 -1098 1099 0
-1099 1128 0
-420 -1099 1100 0
-1100 1129 0
-421 -1100 1101 0
-1101 1130 0
-422 -1101 1102 0
-1102 1131 0
-423 -1102 1103 0
-1103 1132 0
-424 -1103 1104 0
-1104 1133 0
-425 -1104 1105 0
-1105 1134 0
-426 -1105 1106 0
-1106 1135 0
-427 -1106 1107 0
-1107 1136 0
-428 -1107 0
-400 1108 0
-1108 1137 0
-401 -1108 1109 0
-1109 1138 0
-402 -1109 1110 0
-1110 1139 0
-403 -1110 1111 0
-1111 1140 0
-404 -1111 1112 0
-1112 1141 0
-405 -1112 1113 0
-1113 1142 0
-406 -1113 1114 0
-1114 1143 0
-407 -1114 1115 0
-1115 1144 0
-408 -1115 1116 0
-1116 1145 0
-409 -1116 1117 0
-1117 1146 0
-410 -1117 1118 0
-1118 1147 0
-411 -1118 1119 0
-1119 1148 0
-412 -1119 1120 0
-1120 1149 0
-413 -1120 1121 0
-1121 1150 0
-414 -1121 1122 0
-1122 1151 0
-415 -1122 1123 0
-1123 1152 0
-416 -1123 1124 0
-1124 1153 0
-417 -1124 1125 0
-1125 1154 0
-418 -1125 1126 0
-1126 1155 0
-419 -1126 1127 0
-1127 1156 0
-420 -1127 1128 0
-1128 1157 0
-421 -1128 1129 0
-1129 1158 0
-422 -1129 1130 0
-1130 1159 0
-423 -1130 1131 0
-1131 1160 0
-424 -1131 1132 0
-1132 1161 0
-425 -1132 1133 0
-1133 1162 0
-426 -1133 1134 0
-1134 1163 0
-427 -1134 1135 0
-1135 1164 0
-428 -1135 1136 0
-1136 1165 0
-429 -1136 0
-401 1137 0
-1137 1166 0
-402 -1137 1138 0
-1138 1167 0
-403 -1138 1139 0
-1139 1168 0
-404 -1139 1140 0
-1140 1169 0
-405 -1140 1141 0
-1141 1170 0
-406 -1141 1142 0
-1142 1171 0
-407 -1142 1143 0
-1143 1172 0
-408 -1143 1144 0
-1144 1173 0
-409 -1144 1145 0
-1145 1174 0
-410 -1145 1146 0
-1146 1175 0
-411 -1146 1147 0
-1147 1176 0
-412 -1147 1148 0
-1148 1177 0
-413 -1148 1149 0
-1149 1178 0
-414 -1149 1150 0
-1150 1179 0
-415 -1150 1151 0
-1151 1180 0
-416 -1151 1152 0
-1152 1181 0
-417 -1152 1153 0
-1153 1182 0
-418 -1153 1154 0
-1154 1183 0
-419 -1154 1155 0
-1155 1184 0
-420 -1155 1156 0
-1156 1185 0
-421 -1156 1157 0
-1157 1186 0
-422 -1157 1158 0
-1158 1187 0
-423 -1158 1159 0
-1159 1188 0
-424 -1159 1160 0
-1160 1189 0
-425 -1160 1161 0
-1161 1190 0
-426 -1161 1162 0
-1162 1191 0
-427 -1162 1163 0
-1163 1192 0
-428 -1163 1164 0
-1164 1193 0
-429 -1164 1165 0
-1165 1194 0
-430 -1165 0
-402 1166 0
-1166 1195 0
-403 -1166 1167 0
-1167 1196 0
-404 -1167 1168 0
-1168 1197 0
-405 -1168 1169 0
-1169 1198 0
-406 -1169 1170 0
-1170 1199 0
-407 -1170 1171 0
-1171 1200 0
-408 -1171 1172 0
-1172 1201 0
-409 -1172 1173 0
-1173 1202 0
-410 -1173 1174 0
-1174 1203 0
-411 -1174 1175 0
-1175 1204 0
-412 -1175 1176 0
-1176 1205 0
-413 -1176 1177 0
-1177 1206 0
-414 -1177 1178 0
-1178 1207 0
-415 -1178 1179 0
-1179 1208 0
-416 -1179 1180 0
-1180 1209 0
-417 -1180 1181 0
-1181 1210 0
-418 -1181 1182 0
-1182 1211 0
-419 -1182 1183 0
-1183 1212 0
-420 -1183 1184 0
-1184 1213 0
-421 -1184 1185 0
-1185 1214 0
-422 -1185 1186 0
-1186 1215 0
-423 -1186 1187 0
-1187 1216 0
-424 -1187 1188 0
-1188 1217 0
-425 -1188 1189 0
-1189 1218 0
-426 -1189 1190 0
-1190 1219 0
-427 -1190 1191 0
-1191 1220 0
-428 -1191 1192 0
-1192 1221 0
-429 -1192 1193 0
-1193 1222 0
-430 -1193 1194 0
-1194 1223 0
-431 -1194 0
-403 1195 0
-1195 1224 0
-404 -1195 1196 0
-1196 1225 0
-405 -1196 1197 0
-1197 1226 0
-406 -1197 1198 0
-1198 1227 0
-407 -1198 1199 0
-1199 1228 0
-408 -1199 1200 0
-1200 1229 0
-409 -1200 1201 0
-1201 1230 0
-410 -1201 1202 0
-1202 1231 0
-411 -1202 1203 0
-1203 1232 0
-412 -1203 1204 0
-1204 1233 0
-413 -1204 1205 0
-1205 1234 0
-414 -1205 1206 0
-1206 1235 0
-415 -1206 1207 0
-1207 1236 0
-416 -1207 1208 0
-1208 1237 0
-417 -1208 1209 0
-1209 1238 0
-418 -1209 1210 0
-1210 1239 0
-419 -1210 1211 0
-1211 1240 0
-420 -1211 1212 0
-1212 1241 0
-421 -1212 1213 0
-1213 1242 0
-422 -1213 1214 0
-1214 1243 0
-423 -1214 1215 0
-1215 1244 0
-424 -1215 1216 0
-1216 1245 0
-425 -1216 1217 0
-1217 1246 0
-426 -1217 1218 0
-1218 1247 0
-427 -1218 1219 0
-1219 1248 0
-428 -1219 1220 0
-1220 1249 0
-429 -1220 1221 0
-1221 1250 0
-430 -1221 1222 0
-1222 1251 0
-431 -1222 1223 0
-1223 1252 0
-432 -1223 0
-404 1224 0
-1224 1253 0
-405 -1224 1225 0
-1225 1254 0
-406 -1225 1226 0
-1226 1255 0
-407 -1226 1227 0
-1227 1256 0
-408 -1227 1228 0
-1228 1257 0
-409 -1228 1229 0
-1229 1258 0
-410 -1229 1230 0
-1230 1259 0
-411 -1230 1231 0
-1231 1260 0
-412 -1231 1232 0
-1232 1261 0
-413 -1232 1233 0
-1233 1262 0
-414 -1233 1234 0
-1234 1263 0
-415 -1234 1235 0
-1235 1264 0
-416 -1235 1236 0
-1236 1265 0
-417 -1236 1237 0
-1237 1266 0
-418 -1237 1238 0
-1238 1267 0
-419 -1238 1239 0
-1239 1268 0
-420 -1239 1240 0
-1240 1269 0
-421 -1240 1241 0
-1241 1270 0
-422 -1241 1242 0
-1242 1271 0
-423 -1242 1243 0
-1243 1272 0
-424 -1243 1244 0
-1244 1273 0
-425 -1244 1245 0
-1245 1274 0
-426 -1245 1246 0
-1246 1275 0
-427 -1246 1247 0
-1247 1276 0
-428 -1247 1248 0
-1248 1277 0
-429 -1248 1249 0
-1249 1278 0
-430 -1249 1250 0
-1250 1279 0
-431 -1250 1251 0
-1251 1280 0
-432 -1251 1252 0
-1252 1281 0
-433 -1252 0
-405 1253 0
-1253 1282 0
-406 -1253 1254 0
-1254 1283 0
-407 -1254 1255 0
-1255 1284 0
-408 -1255 1256 0
-1256 1285 0
-409 -1256 1257 0
-1257 1286 0
-410 -1257 1258 0
-1258 1287 0
-411 -1258 1259 0
-1259 1288 0
-412 -1259 1260 0
-1260 1289 0
-413 -1260 1261 0
-1261 1290 0
-414 -1261 1262 0
-1262 1291 0
-415 -1262 1263 0
-1263 1292 0
-416 -1263 1264 0
-1264 1293 0
-417 -1264 1265 0
-1265 1294 0
-418 -1265 1266 0
-1266 1295 0
-419 -1266 1267 0
-1267 1296 0
-420 -1267 1268 0
-1268 1297 0
-421 -1268 1269 0
-1269 1298 0
-422 -1269 1270 0
-1270 1299 0
-423 -1270 1271 0
-1271 1300 0
-424 -1271 1272 0
-1272 1301 0
-425 -1272 1273 0
-1273 1302 0
-426 -1273 1274 0
-1274 1303 0
-427 -1274 1275 0
-1275 1304 0
-428 -1275 1276 0
-1276 1305 0
-429 -1276 1277 0
-1277 1306 0
-430 -1277 1278 0
-1278 1307 0
-431 -1278 1279 0
-1279 1308 0
-432 -1279 1280 0
-1280 1309 0
-433 -1280 1281 0
-1281 1310 0
-434 -1281 0
-406 1282 0
-1282 1311 0
-407 -1282 1283 0
-1283 1312 0
-408 -1283 1284 0
-1284 1313 0
-409 -1284 1285 0
-1285 1314 0
-410 -1285 1286 0
-1286 1315 0
-411 -1286 1287 0
-1287 1316 0
-412 -1287 1288 0
-1288 1317 0
-413 -1288 1289 0
-1289 1318 0
-414 -1289 1290 0
-1290 1319 0
-415 -1290 1291 0
-1291 1320 0
-416 -1291 1292 0
-1292 1321 0
-417 -1292 1293 0
-1293 1322 0
-418 -1293 1294 0
-1294 1323 0
-419 -1294 1295 0
-1295 1324 0
-420 -1295 1296 0
-1296 1325 0
-421 -1296 1297 0
-1297 1326 0
-422 -1297 1298 0
-1298 1327 0
-423 -1298 1299 0
-1299 1328 0
-424 -1299 1300 0
-1300 1329 0
-425 -1300 1301 0
-1301 1330 0
-426 -1301 1302 0
-1302 1331 0
-427 -1302 1303 0
-1303 1332 0
-428 -1303 1304 0
-1304 1333 0
-429 -1304 1305 0
-1305 1334 0
-430 -1305 1306 0
-1306 1335 0
-431 -1306 1307 0
-1307 1336 0
-432 -1307 1308 0
-1308 1337 0
-433 -1308 1309 0
-1309 1338 0
-434 -1309 1310 0
-1310 1339 0
-435 -1310 0
-407 1311 0
-1311 1340 0
-408 -1311 1312 0
-1312 1341 0
-409 -1312 1313 0
-1313 1342 0
-410 -1313 1314 0
-1314 1343 0
-411 -1314 1315 0
-1315 1344 0
-412 -1315 1316 0
-1316 1345 0
-413 -1316 1317 0
-1317 1346 0
-414 -1317 1318 0
-1318 1347 0
-415 -1318 1319 0
-1319 1348 0
-416 -1319 1320 0
-1320 1349 0
-417 -1320 1321 0
-1321 1350 0
-418 -1321 1322 0
-1322 1351 0
-419 -1322 1323 0
-1323 1352 0
-420 -1323 1324 0
-1324 1353 0
-421 -1324 1325 0
-1325 1354 0
-422 -1325 1326 0
-1326 1355 0
-423 -1326 1327 0
-1327 1356 0
-424 -1327 1328 0
-1328 1357 0
-425 -1328 1329 0
-1329 1358 0
-426 -1329 1330 0
-1330 1359 0
-427 -1330 1331 0
-1331 1360 0
-428 -1331 1332 0
-1332 1361 0
-429 -1332 1333 0
-1333 1362 0
-430 -1333 1334 0
-1334 1363 0
-431 -1334 1335 0
-1335 1364 0
-432 -1335 1336 0
-1336 1365 0
-433 -1336 1337 0
-1337 1366 0
-434 -1337 1338 0
-1338 1367 0
-435 -1338 1339 0
-1339 1368 0
-436 -1339 0
-408 1340 0
-1340 1369 0
-409 -1340 1341 0
-1341 1370 0
-410 -1341 1342 0
-1342 1371 0
-411 -1342 1343 0
-1343 1372 0
-412 -1343 1344 0
-1344 1373 0
-413 -1344 1345 0
-1345 1374 0
-414 -1345 1346 0
-1346 1375 0
-415 -1346 1347 0
-1347 1376 0
-416 -1347 1348 0
-1348 1377 0
-417 -1348 1349 0
-1349 1378 0
-418 -1349 1350 0
-1350 1379 0
-419 -1350 1351 0
-1351 1380 0
-420 -1351 1352 0
-1352 1381 0
-421 -1352 1353 0
-1353 1382 0
-422 -1353 1354 0
-1354 1383 0
-423 -1354 1355 0
-1355 1384 0
-424 -1355 1356 0
-1356 1385 0
-425 -1356 1357 0
-1357 1386 0
-426 -1357 1358 0
-1358 1387 0
-427 -1358 1359 0
-1359 1388 0
-428 -1359 1360 0
-1360 1389 0
-429 -1360 1361 0
-1361 1390 0
-430 -1361 1362 0
-1362 1391 0
-431 -1362 1363 0
-1363 1392 0
-432 -1363 1364 0
-1364 1393 0
-433 -1364 1365 0
-1365 1394 0
-434 -1365 1366 0
-1366 1395 0
-435 -1366 1367 0
-1367 1396 0
-436 -1367 1368 0
-1368 1397 0
-437 -1368 0
-409 1369 0
-1369 1398 0
-410 -1369 1370 0
-1370 1399 0
-411 -1370 1371 0
-1371 1400 0
-412 -1371 1372 0
-1372 1401 0
-413 -1372 1373 0
-1373 1402 0
-414 -1373 1374 0
-1374 1403 0
-415 -1374 1375 0
-1375 1404 0
-416 -1375 1376 0
-1376 1405 0
-417 -1376 1377 0
-1377 1406 0
-418 -1377 1378 0
-1378 1407 0
-419 -1378 1379 0
-1379 1408 0
-420 -1379 1380 0
-1380 1409 0
-421 -1380 1381 0
-1381 1410 0
-422 -1381 1382 0
-1382 1411 0
-423 -1382 1383 0
-1383 1412 0
-424 -1383 1384 0
-1384 1413 0
-425 -1384 1385 0
-1385 1414 0
-426 -1385 1386 0
-1386 1415 0
-427 -1386 1387 0
-1387 1416 0
-428 -1387 1388 0
-1388 1417 0
-429 -1388 1389 0
-1389 1418 0
-430 -1389 1390 0
-1390 1419 0
-431 -1390 1391 0
-1391 1420 0
-432 -1391 1392 0
-1392 1421 0
-433 -1392 1393 0
-1393 1422 0
-434 -1393 1394 0
-1394 1423 0
-435 -1394 1395 0
-1395 1424 0
-436 -1395 1396 0
-1396 1425 0
-437 -1396 1397 0
-1397 1426 0
-438 -1397 0
-410 1398 0
-1398 1427 0
-411 -1398 1399 0
-1399 1428 0
-412 -1399 1400 0
-1400 1429 0
-413 -1400 1401 0
-1401 1430 0
-414 -1401 1402 0
-1402 1431 0
-415 -1402 1403 0
-1403 1432 0
-416 -1403 1404 0
-1404 1433 0
-417 -1404 1405 0
-1405 1434 0
-418 -1405 1406 0
-1406 1435 0
-419 -1406 1407 0
-1407 1436 0
-420 -1407 1408 0
-1408 1437 0
-421 -1408 1409 0
-1409 1438 0
-422 -1409 1410 0
-1410 1439 0
-423 -1410 1411 0
-1411 1440 0
-424 -1411 1412 0
-1412 1441 0
-425 -1412 1413 0
-1413 1442 0
-426 -1413 1414 0
-1414 1443 0
-427 -1414 1415 0
-1415 1444 0
-428 -1415 1416 0
-1416 1445 0
-429 -1416 1417 0
-1417 1446 0
-430 -1417 1418 0
-1418 1447 0
-431 -1418 1419 0
-1419 1448 0
-432 -1419 1420 0
-1420 1449 0
-433 -1420 1421 0
-1421 1450 0
-434 -1421 1422 0
-1422 1451 0
-435 -1422 1423 0
-1423 1452 0
-436 -1423 1424 0
-1424 1453 0
-437 -1424 1425 0
-1425 1454 0
-438 -1425 1426 0
-1426 1455 0
-439 -1426 0
-411 1427 0
-1427 1456 0
-412 -1427 1428 0
-1428 1457 0
-413 -1428 1429 0
-1429 1458 0
-414 -1429 1430 0
-1430 1459 0
-415 -1430 1431 0
-1431 1460 0
-416 -1431 1432 0
-1432 1461 0
-417 -1432 1433 0
-1433 1462 0
-418 -1433 1434 0
-1434 1463 0
-419 -1434 1435 0
-1435 1464 0
-420 -1435 1436 0
-1436 1465 0
-421 -1436 1437 0
-1437 1466 0
-422 -1437 1438 0
-1438 1467 0
-423 -1438 1439 0
-1439 1468 0
-424 -1439 1440 0
-1440 1469 0
-425 -1440 1441 0
-1441 1470 0
-426 -1441 1442 0
-1442 1471 0
-427 -1442 1443 0
-1443 1472 0
-428 -1443 1444 0
-1444 1473 0
-429 -1444 1445 0
-1445 1474 0
-430 -1445 1446 0
-1446 1475 0
-431 -1446 1447 0
-1447 1476 0
-432 -1447 1448 0
-1448 1477 0
-433 -1448 1449 0
-1449 1478 0
-434 -1449 1450 0
-1450 1479 0
-435 -1450 1451 0
-1451 1480 0
-436 -1451 1452 0
-1452 1481 0
-437 -1452 1453 0
-1453 1482 0
-438 -1453 1454 0
-1454 1483 0
-439 -1454 1455 0
-1455 1484 0
-440 -1455 0
-412 1456 0
-1456 1485 0
-413 -1456 1457 0
-1457 1486 0
-414 -1457 1458 0
-1458 1487 0
-415 -1458 1459 0
-1459 1488 0
-416 -1459 1460 0
-1460 1489 0
-417 -1460 1461 0
-1461 1490 0
-418 -1461 1462 0
-1462 1491 0
-419 -1462 1463 0
-1463 1492 0
-420 -1463 1464 0
-1464 1493 0
-421 -1464 1465 0
-1465 1494 0
-422 -1465 1466 0
-1466 1495 0
-423 -1466 1467 0
-1467 1496 0
-424 -1467 1468 0
-1468 1497 0
-425 -1468 1469 0
-1469 1498 0
-426 -1469 1470 0
-1470 1499 0
-427 -1470 1471 0
-1471 1500 0
-428 -1471 1472 0
-1472 1501 0
-429 -1472 1473 0
-1473 1502 0
-430 -1473 1474 0
-1474 1503 0
-431 -1474 1475 0
-1475 1504 0
-432 -1475 1476 0
-1476 1505 0
-433 -1476 1477 0
-1477 1506 0
-434 -1477 1478 0
-1478 1507 0
-435 -1478 1479 0
-1479 1508 0
-436 -1479 1480 0
-1480 1509 0
-437 -1480 1481 0
-1481 1510 0
-438 -1481 1482 0
-1482 1511 0
-439 -1482 1483 0
-1483 1512 0
-440 -1483 1484 0
-1484 1513 0
-441 -1484 0
-413 1485 0
-1485 1514 0
-414 -1485 1486 0
-1486 1515 0
-415 -1486 1487 0
-1487 1516 0
-416 -1487 1488 0
-1488 1517 0
-417 -1488 1489 0
-1489 1518 0
-418 -1489 1490 0
-1490 1519 0
-419 -1490 1491 0
-1491 1520 0
-420 -1491 1492 0
-1492 1521 0
-421 -1492 1493 0
-1493 1522 0
-422 -1493 1494 0
-1494 1523 0
-423 -1494 1495 0
-1495 1524 0
-424 -1495 1496 0
-1496 1525 0
-425 -1496 1497 0
-1497 1526 0
-426 -1497 1498 0
-1498 1527 0
-427 -1498 1499 0
-1499 1528 0
-428 -1499 1500 0
-1500 1529 0
-429 -1500 1501 0
-1501 1530 0
-430 -1501 1502 0
-1502 1531 0
-431 -1502 1503 0
-1503 1532 0
-432 -1503 1504 0
-1504 1533 0
-433 -1504 1505 0
-1505 1534 0
-434 -1505 1506 0
-1506 1535 0
-435 -1506 1507 0
-1507 1536 0
-436 -1507 1508 0
-1508 1537 0
-437 -1508 1509 0
-1509 1538 0
-438 -1509 1510 0
-1510 1539 0
-439 -1510 1511 0
-1511 1540 0
-440 -1511 1512 0
-1512 1541 0
-441 -1512 1513 0
-1513 1542 0
-442 -1513 0
-414 1514 0
-1514 1543 0
-415 -1514 1515 0
-1515 1544 0
-416 -1515 1516 0
-1516 1545 0
-417 -1516 1517 0
-1517 1546 0
-418 -1517 1518 0
-1518 1547 0
-419 -1518 1519 0
-1519 1548 0
-420 -1519 1520 0
-1520 1549 0
-421 -1520 1521 0
-1521 1550 0
-422 -1521 1522 0
-1522 1551 0
-423 -1522 1523 0
-1523 1552 0
-424 -1523 1524 0
-1524 1553 0
-425 -1524 1525 0
-1525 1554 0
-426 -1525 1526 0
-1526 1555 0
-427 -1526 1527 0
-1527 1556 0
-428 -1527 1528 0
-1528 1557 0
-429 -1528 1529 0
-1529 1558 0
-430 -1529 1530 0
-1530 1559 0
-431 -1530 1531 0
-1531 1560 0
-432 -1531 1532 0
-1532 1561 0
-433 -1532 1533 0
-1533 1562 0
-434 -1533 1534 0
-1534 1563 0
-435 -1534 1535 0
-1535 1564 0
-436 -1535 1536 0
-1536 1565 0
-437 -1536 1537 0
-1537 1566 0
-438 -1537 1538 0
-1538 1567 0
-439 -1538 1539 0
-1539 1568 0
-440 -1539 1540 0
-1540 1569 0
-441 -1540 1541 0
-1541 1570 0
-442 -1541 1542 0
-1542 1571 0
-443 -1542 0
-415 1543 0
-1543 1572 0
-416 -1543 1544 0
-1544 1573 0
-417 -1544 1545 0
-1545 1574 0
-418 -1545 1546 0
-1546 1575 0
-419 -1546 1547 0
-1547 1576 0
-420 -1547 1548 0
-1548 1577 0
-421 -1548 1549 0
-1549 1578 0
-422 -1549 1550 0
-1550 1579 0
-423 -1550 1551 0
-1551 1580 0
-424 -1551 1552 0
-1552 1581 0
-425 -1552 1553 0
-1553 1582 0
-426 -1553 1554 0
-1554 1583 0
-427 -1554 1555 0
-1555 1584 0
-428 -1555 1556 0
-1556 1585 0
-429 -1556 1557 0
-1557 1586 0
-430 -1557 1558 0
-1558 1587 0
-431 -1558 1559 0
-1559 1588 0
-432 -1559 1560 0
-1560 1589 0
-433 -1560 1561 0
-1561 1590 0
-434 -1561 1562 0
-1562 1591 0
-435 -1562 1563 0
-1563 1592 0
-436 -1563 1564 0
-1564 1593 0
-437 -1564 1565 0
-1565 1594 0
-438 -1565 1566 0
-1566 1595 0
-439 -1566 1567 0
-1567 1596 0
-440 -1567 1568 0
-1568 1597 0
-441 -1568 1569 0
-1569 1598 0
-442 -1569 1570 0
-1570 1599 0
-443 -1570 1571 0
-1571 1600 0
-444 -1571 0
-416 1572 0
-1572 1601 0
-417 -1572 1573 0
-1573 1602 0
-418 -1573 1574 0
-1574 1603 0
-419 -1574 1575 0
-1575 1604 0
-420 -1575 1576 0
-1576 1605 0
-421 -1576 1577 0
-1577 1606 0
-422 -1577 1578 0
-1578 1607 0
-423 -1578 1579 0
-1579 1608 0
-424 -1579 1580 0
-1580 1609 0
-425 -1580 1581 0
-1581 1610 0
-426 -1581 1582 0
-1582 1611 0
-427 -1582 1583 0
-1583 1612 0
-428 -1583 1584 0
-1584 1613 0
-429 -1584 1585 0
-1585 1614 0
-430 -1585 1586 0
-1586 1615 0
-431 -1586 1587 0
-1587 1616 0
-432 -1587 1588 0
-1588 1617 0
-433 -1588 1589 0
-1589 1618 0
-434 -1589 1590 0
-1590 1619 0
-435 -1590 1591 0
-1591 1620 0
-436 -1591 1592 0
-1592 1621 0
-437 -1592 1593 0
-1593 1622 0
-438 -1593 1594 0
-1594 1623 0
-439 -1594 1595 0
-1595 1624 0
-440 -1595 1596 0
-1596 1625 0
-441 -1596 1597 0
-1597 1626 0
-442 -1597 1598 0
-1598 1627 0
-443 -1598 1599 0
-1599 1628 0
-444 -1599 1600 0
-1600 1629 0
-445 -1600 0
-417 1601 0
-1601 1630 0
-418 -1601 1602 0
-1602 1631 0
-419 -1602 1603 0
-1603 1632 0
-420 -1603 1604 0
-1604 1633 0
-421 -1604 1605 0
-1605 1634 0
-422 -1605 1606 0
-1606 1635 0
-423 -1606 1607 0
-1607 1636 0
-424 -1607 1608 0
-1608 1637 0
-425 -1608 1609 0
-1609 1638 0
-426 -1609 1610 0
-1610 1639 0
-427 -1610 1611 0
-1611 1640 0
-428 -1611 1612 0
-1612 1641 0
-429 -1612 1613 0
-1613 1642 0
-430 -1613 1614 0
-1614 1643 0
-431 -1614 1615 0
-1615 1644 0
-432 -1615 1616 0
-1616 1645 0
-433 -1616 1617 0
-1617 1646 0
-434 -1617 1618 0
-1618 1647 0
-435 -1618 1619 0
-1619 1648 0
-436 -1619 1620 0
-1620 1649 0
-437 -1620 1621 0
-1621 1650 0
-438 -1621 1622 0
-1622 1651 0
-439 -1622 1623 0
-1623 1652 0
-440 -1623 1624 0
-1624 1653 0
-441 -1624 1625 0
-1625 1654 0
-442 -1625 1626 0
-1626 1655 0
-443 -1626 1627 0
-1627 1656 0
-444 -1627 1628 0
-1628 1657 0
-445 -1628 1629 0
-1629 1658 0
-446 -1629 0
-418 1630 0
-1630 1659 0
-419 -1630 1631 0
-1631 1660 0
-420 -1631 1632 0
-1632 1661 0
-421 -1632 1633 0
-1633 1662 0
-422 -1633 1634 0
-1634 1663 0
-423 -1634 1635 0
-1635 1664 0
-424 -1635 1636 0
-1636 1665 0
-425 -1636 1637 0
-1637 1666 0
-426 -1637 1638 0
-1638 1667 0
-427 -1638 1639 0
-1639 1668 0
-428 -1639 1640 0
-1640 1669 0
-429 -1640 1641 0
-1641 1670 0
-430 -1641 1642 0
-1642 1671 0
-431 -1642 1643 0
-1643 1672 0
-432 -1643 1644 0
-1644 1673 0
-433 -1644 1645 0
-1645 1674 0
-434 -1645 1646 0
-1646 1675 0
-435 -1646 1647 0
-1647 1676 0
-436 -1647 1648 0
-1648 1677 0
-437 -1648 1649 0
-1649 1678 0
-438 -1649 1650 0
-1650 1679 0
-439 -1650 1651 0
-1651 1680 0
-440 -1651 1652 0
-1652 1681 0
-441 -1652 1653 0
-1653 1682 0
-442 -1653 1654 0
-1654 1683 0
-443 -1654 1655 0
-1655 1684 0
-444 -1655 1656 0
-1656 1685 0
-445 -1656 1657 0
-1657 1686 0
-446 -1657 1658 0
-1658 1687 0
-447 -1658 0
-419 1659 0
-1659 1688 0
-420 -1659 1660 0
-1660 1689 0
-421 -1660 1661 0
-1661 1690 0
-422 -1661 1662 0
-1662 1691 0
-423 -1662 1663 0
-1663 1692 0
-424 -1663 1664 0
-1664 1693 0
-425 -1664 1665 0
-1665 1694 0
-426 -1665 1666 0
-1666 1695 0
-427 -1666 1667 0
-1667 1696 0
-428 -1667 1668 0
-1668 1697 0
-429 -1668 1669 0
-1669 1698 0
-430 -1669 1670 0
-1670 1699 0
-431 -1670 1671 0
-1671 1700 0
-432 -1671 1672 0
-1672 1701 0
-433 -1672 1673 0
-1673 1702 0
-434 -1673 1674 0
-1674 1703 0
-435 -1674 1675 0
-1675 1704 0
-436 -1675 1676 0
-1676 1705 0
-437 -1676 1677 0
-1677 1706 0
-438 -1677 1678 0
-1678 1707 0
-439 -1678 1679 0
-1679 1708 0
-440 -1679 1680 0
-1680 1709 0
-441 -1680 1681 0
-1681 1710 0
-442 -1681 1682 0
-1682 1711 0
-443 -1682 1683 0
-1683 1712 0
-444 -1683 1684 0
-1684 1713 0
-445 -1684 1685 0
-1685 1714 0
-446 -1685 1686 0
-1686 1715 0
-447 -1686 1687 0
-1687 1716 0
-448 -1687 0
-420 1688 0
-1688 1717 0
-421 -1688 1689 0
-1689 1718 0
-422 -1689 1690 0
-1690 1719 0
-423 -1690 1691 0
-1691 1720 0
-424 -1691 1692 0
-1692 1721 0
-425 -1692 1693 0
-1693 1722 0
-426 -1693 1694 0
-1694 1723 0
-427 -1694 1695 0
-1695 1724 0
-428 -1695 1696 0
-1696 1725 0
-429 -1696 1697 0
-1697 1726 0
-430 -1697 1698 0
-1698 1727 0
-431 -1698 1699 0
-1699 1728 0
-432 -1699 1700 0
-1700 1729 0
-433 -1700 1701 0
-1701 1730 0
-434 -1701 1702 0
-1702 1731 0
-435 -1702 1703 0
-1703 1732 0
-436 -1703 1704 0
-1704 1733 0
-437 -1704 1705 0
-1705 1734 0
-438 -1705 1706 0
-1706 1735 0
-439 -1706 1707 0
-1707 1736 0
-440 -1707 1708 0
-1708 1737 0
-441 -1708 1709 0
-1709 1738 0
-442 -1709 1710 0
-1710 1739 0
-443 -1710 1711 0
-1711 1740 0
-444 -1711 1712 0
-1712 1741 0
-445 -1712 1713 0
-1713 1742 0
-446 -1713 1714 0
-1714 1743 0
-447 -1714 1715 0
-1715 1744 0
-448 -1715 1716 0
-1716 1745 0
-449 -1716 0
-421 1717 0
-1717 1746 0
-422 -1717 1718 0
-1718 1747 0
-423 -1718 1719 0
-1719 1748 0
-424 -1719 1720 0
-1720 1749 0
-425 -1720 1721 0
-1721 1750 0
-426 -1721 1722 0
-1722 1751 0
-427 -1722 1723 0
-1723 1752 0
-428 -1723 1724 0
-1724 1753 0
-429 -1724 1725 0
-1725 1754 0
-430 -1725 1726 0
-1726 1755 0
-431 -1726 1727 0
-1727 1756 0
-432 -1727 1728 0
-1728 1757 0
-433 -1728 1729 0
-1729 1758 0
-434 -1729 1730 0
-1730 1759 0
-435 -1730 1731 0
-1731 1760 0
-436 -1731 1732 0
-1732 1761 0
-437 -1732 1733 0
-1733 1762 0
-438 -1733 1734 0
-1734 1763 0
-439 -1734 1735 0
-1735 1764 0
-440 -1735 1736 0
-1736 1765 0
-441 -1736 1737 0
-1737 1766 0
-442 -1737 1738 0
-1738 1767 0
-443 -1738 1739 0
-1739 1768 0
-444 -1739 1740 0
-1740 1769 0
-445 -1740 1741 0
-1741 1770 0
-446 -1741 1742 0
-1742 1771 0
-447 -1742 1743 0
-1743 1772 0
-448 -1743 1744 0
-1744 1773 0
-449 -1744 1745 0
-1745 1774 0
-450 -1745 0
-422 1746 0
-1746 1775 0
-423 -1746 1747 0
-1747 1776 0
-424 -1747 1748 0
-1748 1777 0
-425 -1748 1749 0
-1749 1778 0
-426 -1749 1750 0
-1750 1779 0
-427 -1750 1751 0
-1751 1780 0
-428 -1751 1752 0
-1752 1781 0
-429 -1752 1753 0
-1753 1782 0
-430 -1753 1754 0
-1754 1783 0
-431 -1754 1755 0
-1755 1784 0
-432 -1755 1756 0
-1756 1785 0
-433 -1756 1757 0
-1757 1786 0
-434 -1757 1758 0
-1758 1787 0
-435 -1758 1759 0
-1759 1788 0
-436 -1759 1760 0
-1760 1789 0
-437 -1760 1761 0
-1761 1790 0
-438 -1761 1762 0
-1762 1791 0
-439 -1762 1763 0
-1763 1792 0
-440 -1763 1764 0
-1764 1793 0
-441 -1764 1765 0
-1765 1794 0
-442 -1765 1766 0
-1766 1795 0
-443 -1766 1767 0
-1767 1796 0
-444 -1767 1768 0
-1768 1797 0
-445 -1768 1769 0
-1769 1798 0
-446 -1769 1770 0
-1770 1799 0
-447 -1770 1771 0
-1771 1800 0
-448 -1771 1772 0
-1772 1801 0
-449 -1772 1773 0
-1773 1802 0
-450 -1773 1774 0
-1774 1803 0
-451 -1774 0
-423 1775 0
-1775 1804 0
-424 -1775 1776 0
-1776 1805 0
-425 -1776 1777 0
-1777 1806 0
-426 -1777 1778 0
-1778 1807 0
-427 -1778 1779 0
-1779 1808 0
-428 -1779 1780 0
-1780 1809 0
-429 -1780 1781 0
-1781 1810 0
-430 -1781 1782 0
-1782 1811 0
-431 -1782 1783 0
-1783 1812 0
-432 -1783 1784 0
-1784 1813 0
-433 -1784 1785 0
-1785 1814 0
-434 -1785 1786 0
-1786 1815 0
-435 -1786 1787 0
-1787 1816 0
-436 -1787 1788 0
-1788 1817 0
-437 -1788 1789 0
-1789 1818 0
-438 -1789 1790 0
-1790 1819 0
-439 -1790 1791 0
-1791 1820 0
-440 -1791 1792 0
-1792 1821 0
-441 -1792 1793 0
-1793 1822 0
-442 -1793 1794 0
-1794 1823 0
-443 -1794 1795 0
-1795 1824 0
-444 -1795 1796 0
-1796 1825 0
-445 -1796 1797 0
-1797 1826 0
-446 -1797 1798 0
-1798 1827 0
-447 -1798 1799 0
-1799 1828 0
-448 -1799 1800 0
-1800 1829 0
-449 -1800 1801 0
-1801 1830 0
-450 -1801 1802 0
-1802 1831 0
-451 -1802 1803 0
-1803 1832 0
-452 -1803 0
-424 1804 0
-1804 1833 0
-425 -1804 1805 0
-1805 1834 0
-426 -1805 1806 0
-1806 1835 0
-427 -1806 1807 0
-1807 1836 0
-428 -1807 1808 0
-1808 1837 0
-429 -1808 1809 0
-1809 1838 0
-430 -1809 1810 0
-1810 1839 0
-431 -1810 1811 0
-1811 1840 0
-432 -1811 1812 0
-1812 1841 0
-433 -1812 1813 0
-1813 1842 0
-434 -1813 1814 0
-1814 1843 0
-435 -1814 1815 0
-1815 1844 0
-436 -1815 1816 0
-1816 1845 0
-437 -1816 1817 0
-1817 1846 0
-438 -1817 1818 0
-1818 1847 0
-439 -1818 1819 0
-1819 1848 0
-440 -1819 1820 0
-1820 1849 0
-441 -1820 1821 0
-1821 1850 0
-442 -1821 1822 0
-1822 1851 0
-443 -1822 1823 0
-1823 1852 0
-444 -1823 1824 0
-1824 1853 0
-445 -1824 1825 0
-1825 1854 0
-446 -1825 1826 0
-1826 1855 0
-447 -1826 1827 0
-1827 1856 0
-448 -1827 1828 0
-1828 1857 0
-449 -1828 1829 0
-1829 1858 0
-450 -1829 1830 0
-1830 1859 0
-451 -1830 1831 0
-1831 1860 0
-452 -1831 1832 0
-1832 1861 0
-453 -1832 0
-425 1833 0
-1833 1862 0
-426 -1833 1834 0
-1834 1863 0
-427 -1834 1835 0
-1835 1864 0
-428 -1835 1836 0
-1836 1865 0
-429 -1836 1837 0
-1837 1866 0
-430 -1837 1838 0
-1838 1867 0
-431 -1838 1839 0
-1839 1868 0
-432 -1839 1840 0
-1840 1869 0
-433 -1840 1841 0
-1841 1870 0
-434 -1841 1842 0
-1842 1871 0
-435 -1842 1843 0
-1843 1872 0
-436 -1843 1844 0
-1844 1873 0
-437 -1844 1845 0
-1845 1874 0
-438 -1845 1846 0
-1846 1875 0
-439 -1846 1847 0
-1847 1876 0
-440 -1847 1848 0
-1848 1877 0
-441 -1848 1849 0
-1849 1878 0
-442 -1849 1850 0
-1850 1879 0
-443 -1850 1851 0
-1851 1880 0
-444 -1851 1852 0
-1852 1881 0
-445 -1852 1853 0
-1853 1882 0
-446 -1853 1854 0
-1854 1883 0
-447 -1854 1855 0
-1855 1884 0
-448 -1855 1856 0
-1856 1885 0
-449 -1856 1857 0
-1857 1886 0
-450 -1857 1858 0
-1858 1887 0
-451 -1858 1859 0
-1859 1888 0
-452 -1859 1860 0
-1860 1889 0
-453 -1860 1861 0
-1861 1890 0
-454 -1861 0
-426 1862 0
-1862 1891 0
-427 -1862 1863 0
-1863 1892 0
-428 -1863 1864 0
-1864 1893 0
-429 -1864 1865 0
-1865 1894 0
-430 -1865 1866 0
-1866 1895 0
-431 -1866 1867 0
-1867 1896 0
-432 -1867 1868 0
-1868 1897 0
-433 -1868 1869 0
-1869 1898 0
-434 -1869 1870 0
-1870 1899 0
-435 -1870 1871 0
-1871 1900 0
-436 -1871 1872 0
-1872 1901 0
-437 -1872 1873 0
-1873 1902 0
-438 -1873 1874 0
-1874 1903 0
-439 -1874 1875 0
-1875 1904 0
-440 -1875 1876 0
-1876 1905 0
-441 -1876 1877 0
-1877 1906 0
-442 -1877 1878 0
-1878 1907 0
-443 -1878 1879 0
-1879 1908 0
-444 -1879 1880 0
-1880 1909 0
-445 -1880 1881 0
-1881 1910 0
-446 -1881 1882 0
-1882 1911 0
-447 -1882 1883 0
-1883 1912 0
-448 -1883 1884 0
-1884 1913 0
-449 -1884 1885 0
-1885 1914 0
-450 -1885 1886 0
-1886 1915 0
-451 -1886 1887 0
-1887 1916 0
-452 -1887 1888 0
-1888 1917 0
-453 -1888 1889 0
-1889 1918 0
-454 -1889 1890 0
-1890 1919 0
-455 -1890 0
-427 1891 0
-1891 1920 0
-428 -1891 1892 0
-1892 1921 0
-429 -1892 1893 0
-1893 1922 0
-430 -1893 1894 0
-1894 1923 0
-431 -1894 1895 0
-1895 1924 0
-432 -1895 1896 0
-1896 1925 0
-433 -1896 1897 0
-1897 1926 0
-434 -1897 1898 0
-1898 1927 0
-435 -1898 1899 0
-1899 1928 0
-436 -1899 1900 0
-1900 1929 0
-437 -1900 1901 0
-1901 1930 0
-438 -1901 1902 0
-1902 1931 0
-439 -1902 1903 0
-1903 1932 0
-440 -1903 1904 0
-1904 1933 0
-441 -1904 1905 0
-1905 1934 0
-442 -1905 1906 0
-1906 1935 0
-443 -1906 1907 0
-1907 1936 0
-444 -1907 1908 0
-1908 1937 0
-445 -1908 1909 0
-1909 1938 0
-446 -1909 1910 0
-1910 1939 0
-447 -1910 1911 0
-1911 1940 0
-448 -1911 1912 0
-1912 1941 0
-449 -1912 1913 0
-1913 1942 0
-450 -1913 1914 0
-1914 1943 0
-451 -1914 1915 0
-1915 1944 0
-452 -1915 1916 0
-1916 1945 0
-453 -1916 1917 0
-1917 1946 0
-454 -1917 1918 0
-1918 1947 0
-455 -1918 1919 0
-1919 1948 0
-456 -1919 0
-428 1920 0
-1920 1949 0
-429 -1920 1921 0
-1921 1950 0
-430 -1921 1922 0
-1922 1951 0
-431 -1922 1923 0
-1923 1952 0
-432 -1923 1924 0
-1924 1953 0
-433 -1924 1925 0
-1925 1954 0
-434 -1925 1926 0
-1926 1955 0
-435 -1926 1927 0
-1927 1956 0
-436 -1927 1928 0
-1928 1957 0
-437 -1928 1929 0
-1929 1958 0
-438 -1929 1930 0
-1930 1959 0
-439 -1930 1931 0
-1931 1960 0
-440 -1931 1932 0
-1932 1961 0
-441 -1932 1933 0
-1933 1962 0
-442 -1933 1934 0
-1934 1963 0
-443 -1934 1935 0
-1935 1964 0
-444 -1935 1936 0
-1936 1965 0
-445 -1936 1937 0
-1937 1966 0
-446 -1937 1938 0
-1938 1967 0
-447 -1938 1939 0
-1939 1968 0
-448 -1939 1940 0
-1940 1969 0
-449 -1940 1941 0
-1941 1970 0
-450 -1941 1942 0
-1942 1971 0
-451 -1942 1943 0
-1943 1972 0
-452 -1943 1944 0
-1944 1973 0
-453 -1944 1945 0
-1945 1974 0
-454 -1945 1946 0
-1946 1975 0
-455 -1946 1947 0
-1947 1976 0
-456 -1947 1948 0
-1948 1977 0
-457 -1948 0
-429 1949 0
-1949 1978 0
-430 -1949 1950 0
-1950 1979 0
-431 -1950 1951 0
-1951 1980 0
-432 -1951 1952 0
-1952 1981 0
-433 -1952 1953 0
-1953 1982 0
-434 -1953 1954 0
-1954 1983 0
-435 -1954 1955 0
-1955 1984 0
-436 -1955 1956 0
-1956 1985 0
-437 -1956 1957 0
-1957 1986 0
-438 -1957 1958 0
-1958 1987 0
-439 -1958 1959 0
-1959 1988 0
-440 -1959 1960 0
-1960 1989 0
-441 -1960 1961 0
-1961 1990 0
-442 -1961 1962 0
-1962 1991 0
-443 -1962 1963 0
-1963 1992 0
-444 -1963 1964 0
-1964 1993 0
-445 -1964 1965 0
-1965 1994 0
-446 -1965 1966 0
-1966 1995 0
-447 -1966 1967 0
-1967 1996 0
-448 -1967 1968 0
-1968 1997 0
-449 -1968 1969 0
-1969 1998 0
-450 -1969 1970 0
-1970 1999 0
-451 -1970 1971 0
-1971 2000 0
-452 -1971 1972 0
-1972 2001 0
-453 -1972 1973 0
-1973 2002 0
-454 -1973 1974 0
-1974 2003 0
-455 -1974 1975 0
-1975 2004 0
-456 -1975 1976 0
-1976 2005 0
-457 -1976 1977 0
-1977 2006 0
-458 -1977 0
-430 1978 0
-1978 2007 0
-431 -1978 1979 0
-1979 2008 0
-432 -1979 1980 0
-1980 2009 0
-433 -1980 1981 0
-1981 2010 0
-434 -1981 1982 0
-1982 2011 0
-435 -1982 1983 0
-1983 2012 0
-436 -1983 1984 0
-1984 2013 0
-437 -1984 1985 0
-1985 2014 0
-438 -1985 1986 0
-1986 2015 0
-439 -1986 1987 0
-1987 2016 0
-440 -1987 1988 0
-1988 2017 0
-441 -1988 1989 0
-1989 2018 0
-442 -1989 1990 0
-1990 2019 0
-443 -1990 1991 0
-1991 2020 0
-444 -1991 1992 0
-1992 2021 0
-445 -1992 1993 0
-1993 2022 0
-446 -1993 1994 0
-1994 2023 0
-447 -1994 1995 0
-1995 2024 0
-448 -1995 1996 0
-1996 2025 0
-449 -1996 1997 0
-1997 2026 0
-450 -1997 1998 0
-1998 2027 0
-451 -1998 1999 0
-1999 2028 0
-452 -1999 2000 0
-2000 2029 0
-453 -2000 2001 0
-2001 2030 0
-454 -2001 2002 0
-2002 2031 0
-455 -2002 2003 0
-2003 2032 0
-456 -2003 2004 0
-2004 2033 0
-457 -2004 2005 0
-2005 2034 0
-458 -2005 2006 0
-2006 2035 0
-459 -2006 0
-431 2007 0
-2007 2036 0
-432 -2007 2008 0
-2008 2037 0
-433 -2008 2009 0
-2009 2038 0
-434 -2009 2010 0
-2010 2039 0
-435 -2010 2011 0
-2011 2040 0
-436 -2011 2012 0
-2012 2041 0
-437 -2012 2013 0
-2013 2042 0
-438 -2013 2014 0
-2014 2043 0
-439 -2014 2015 0
-2015 2044 0
-440 -2015 2016 0
-2016 2045 0
-441 -2016 2017 0
-2017 2046 0
-442 -2017 2018 0
-2018 2047 0
-443 -2018 2019 0
-2019 2048 0
-444 -2019 2020 0
-2020 2049 0
-445 -2020 2021 0
-2021 2050 0
-446 -2021 2022 0
-2022 2051 0
-447 -2022 2023 0
-2023 2052 0
-448 -2023 2024 0
-2024 2053 0
-449 -2024 2025 0
-2025 2054 0
-450 -2025 2026 0
-2026 2055 0
-451 -2026 2027 0
-2027 2056 0
-452 -2027 2028 0
-2028 2057 0
-453 -2028 2029 0
-2029 2058 0
-454 -2029 2030 0
-2030 2059 0
-455 -2030 2031 0
-2031 2060 0
-456 -2031 2032 0
-2032 2061 0
-457 -2032 2033 0
-2033 2062 0
-458 -2033 2034 0
-2034 2063 0
-459 -2034 2035 0
-2035 2064 0
-460 -2035 0
-432 2036 0
-2036 2065 0
-433 -2036 2037 0
-2037 2066 0
-434 -2037 2038 0
-2038 2067 0
-435 -2038 2039 0
-2039 2068 0
-436 -2039 2040 0
-2040 2069 0
-437 -2040 2041 0
-2041 2070 0
-438 -2041 2042 0
-2042 2071 0
-439 -2042 2043 0
-2043 2072 0
-440 -2043 2044 0
-2044 2073 0
-441 -2044 2045 0
-2045 2074 0
-442 -2045 2046 0
-2046 2075 0
-443 -2046 2047 0
-2047 2076 0
-444 -2047 2048 0
-2048 2077 0
-445 -2048 2049 0
-2049 2078 0
-446 -2049 2050 0
-2050 2079 0
-447 -2050 2051 0
-2051 2080 0
-448 -2051 2052 0
-2052 2081 0
-449 -2052 2053 0
-2053 2082 0
-450 -2053 2054 0
-2054 2083 0
-451 -2054 2055 0
-2055 2084 0
-452 -2055 2056 0
-2056 2085 0
-453 -2056 2057 0
-2057 2086 0
-454 -2057 2058 0
-2058 2087 0
-455 -2058 2059 0
-2059 2088 0
-456 -2059 2060 0
-2060 2089 0
-457 -2060 2061 0
-2061 2090 0
-458 -2061 2062 0
-2062 2091 0
-459 -2062 2063 0
-2063 2092 0
-460 -2063 2064 0
-2064 2093 0
-461 -2064 0
-433 2065 0
-2065 2094 0
-434 -2065 2066 0
-2066 2095 0
-435 -2066 2067 0
-2067 2096 0
-436 -2067 2068 0
-2068 2097 0
-437 -2068 2069 0
-2069 2098 0
-438 -2069 2070 0
-2070 2099 0
-439 -2070 2071 0
-2071 2100 0
-440 -2071 2072 0
-2072 2101 0
-441 -2072 2073 0
-2073 2102 0
-442 -2073 2074 0
-2074 2103 0
-443 -2074 2075 0
-2075 2104 0
-444 -2075 2076 0
-2076 2105 0
-445 -2076 2077 0
-2077 2106 0
-446 -2077 2078 0
-2078 2107 0
-447 -2078 2079 0
-2079 2108 0
-448 -2079 2080 0
-2080 2109 0
-449 -2080 2081 0
-2081 2110 0
-450 -2081 2082 0
-2082 2111 0
-451 -2082 2083 0
-2083 2112 0
-452 -2083 2084 0
-2084 2113 0
-453 -2084 2085 0
-2085 2114 0
-454 -2085 2086 0
-2086 2115 0
-455 -2086 2087 0
-2087 2116 0
-456 -2087 2088 0
-2088 2117 0
-457 -2088 2089 0
-2089 2118 0
-458 -2089 2090 0
-2090 2119 0
-459 -2090 2091 0
-2091 2120 0
-460 -2091 2092 0
-2092 2121 0
-461 -2092 2093 0
-2093 2122 0
-462 -2093 0
-434 2094 0
-2094 2123 0
-435 -2094 2095 0
-2095 2124 0
-436 -2095 2096 0
-2096 2125 0
-437 -2096 2097 0
-2097 2126 0
-438 -2097 2098 0
-2098 2127 0
-439 -2098 2099 0
-2099 2128 0
-440 -2099 2100 0
-2100 2129 0
-441 -2100 2101 0
-2101 2130 0
-442 -2101 2102 0
-2102 2131 0
-443 -2102 2103 0
-2103 2132 0
-444 -2103 2104 0
-2104 2133 0
-445 -2104 2105 0
-2105 2134 0
-446 -2105 2106 0
-2106 2135 0
-447 -2106 2107 0
-2107 2136 0
-448 -2107 2108 0
-2108 2137 0
-449 -2108 2109 0
-2109 2138 0
-450 -2109 2110 0
-2110 2139 0
-451 -2110 2111 0
-2111 2140 0
-452 -2111 2112 0
-2112 2141 0
-453 -2112 2113 0
-2113 2142 0
-454 -2113 2114 0
-2114 2143 0
-455 -2114 2115 0
-2115 2144 0
-456 -2115 2116 0
-2116 2145 0
-457 -2116 2117 0
-2117 2146 0
-458 -2117 2118 0
-2118 2147 0
-459 -2118 2119 0
-2119 2148 0
-460 -2119 2120 0
-2120 2149 0
-461 -2120 2121 0
-2121 2150 0
-462 -2121 2122 0
-2122 2151 0
-463 -2122 0
-435 2123 0
-2123 2152 0
-436 -2123 2124 0
-2124 2153 0
-437 -2124 2125 0
-2125 2154 0
-438 -2125 2126 0
-2126 2155 0
-439 -2126 2127 0
-2127 2156 0
-440 -2127 2128 0
-2128 2157 0
-441 -2128 2129 0
-2129 2158 0
-442 -2129 2130 0
-2130 2159 0
-443 -2130 2131 0
-2131 2160 0
-444 -2131 2132 0
-2132 2161 0
-445 -2132 2133 0
-2133 2162 0
-446 -2133 2134 0
-2134 2163 0
-447 -2134 2135 0
-2135 2164 0
-448 -2135 2136 0
-2136 2165 0
-449 -2136 2137 0
-2137 2166 0
-450 -2137 2138 0
-2138 2167 0
-451 -2138 2139 0
-2139 2168 0
-452 -2139 2140 0
-2140 2169 0
-453 -2140 2141 0
-2141 2170 0
-454 -2141 2142 0
-2142 2171 0
-455 -2142 2143 0
-2143 2172 0
-456 -2143 2144 0
-2144 2173 0
-457 -2144 2145 0
-2145 2174 0
-458 -2145 2146 0
-2146 2175 0
-459 -2146 2147 0
-2147 2176 0
-460 -2147 2148 0
-2148 2177 0
-461 -2148 2149 0
-2149 2178 0
-462 -2149 2150 0
-2150 2179 0
-463 -2150 2151 0
-2151 2180 0
-464 -2151 0
-436 2152 0
-2152 2181 0
-437 -2152 2153 0
-2153 2182 0
-438 -2153 2154 0
-2154 2183 0
-439 -2154 2155 0
-2155 2184 0
-440 -2155 2156 0
-2156 2185 0
-441 -2156 2157 0
-2157 2186 0
-442 -2157 2158 0
-2158 2187 0
-443 -2158 2159 0
-2159 2188 0
-444 -2159 2160 0
-2160 2189 0
-445 -2160 2161 0
-2161 2190 0
-446 -2161 2162 0
-2162 2191 0
-447 -2162 2163 0
-2163 2192 0
-448 -2163 2164 0
-2164 2193 0
-449 -2164 2165 0
-2165 2194 0
-450 -2165 2166 0
-2166 2195 0
-451 -2166 2167 0
-2167 2196 0
-452 -2167 2168 0
-2168 2197 0
-453 -2168 2169 0
-2169 2198 0
-454 -2169 2170 0
-2170 2199 0
-455 -2170 2171 0
-2171 2200 0
-456 -2171 2172 0
-2172 2201 0
-457 -2172 2173 0
-2173 2202 0
-458 -2173 2174 0
-2174 2203 0
-459 -2174 2175 0
-2175 2204 0
-460 -2175 2176 0
-2176 2205 0
-461 -2176 2177 0
-2177 2206 0
-462 -2177 2178 0
-2178 2207 0
-463 -2178 2179 0
-2179 2208 0
-464 -2179 2180 0
-2180 2209 0
-465 -2180 0
-437 2181 0
-2181 2210 0
-438 -2181 2182 0
-2182 2211 0
-439 -2182 2183 0
-2183 2212 0
-440 -2183 2184 0
-2184 2213 0
-441 -2184 2185 0
-2185 2214 0
-442 -2185 2186 0
-2186 2215 0
-443 -2186 2187 0
-2187 2216 0
-444 -2187 2188 0
-2188 2217 0
-445 -2188 2189 0
-2189 2218 0
-446 -2189 2190 0
-2190 2219 0
-447 -2190 2191 0
-2191 2220 0
-448 -2191 2192 0
-2192 2221 0
-449 -2192 2193 0
-2193 2222 0
-450 -2193 2194 0
-2194 2223 0
-451 -2194 2195 0
-2195 2224 0
-452 -2195 2196 0
-2196 2225 0
-453 -2196 2197 0
-2197 2226 0
-454 -2197 2198 0
-2198 2227 0
-455 -2198 2199 0
-2199 2228 0
-456 -2199 2200 0
-2200 2229 0
-457 -2200 2201 0
-2201 2230 0
-458 -2201 2202 0
-2202 2231 0
-459 -2202 2203 0
-2203 2232 0
-460 -2203 2204 0
-2204 2233 0
-461 -2204 2205 0
-2205 2234 0
-462 -2205 2206 0
-2206 2235 0
-463 -2206 2207 0
-2207 2236 0
-464 -2207 2208 0
-2208 2237 0
-465 -2208 2209 0
-2209 2238 0
-466 -2209 0
-438 2210 0
-2210 2239 0
-439 -2210 2211 0
-2211 2240 0
-440 -2211 2212 0
-2212 2241 0
-441 -2212 2213 0
-2213 2242 0
-442 -2213 2214 0
-2214 2243 0
-443 -2214 2215 0
-2215 2244 0
-444 -2215 2216 0
-2216 2245 0
-445 -2216 2217 0
-2217 2246 0
-446 -2217 2218 0
-2218 2247 0
-447 -2218 2219 0
-2219 2248 0
-448 -2219 2220 0
-2220 2249 0
-449 -2220 2221 0
-2221 2250 0
-450 -2221 2222 0
-2222 2251 0
-451 -2222 2223 0
-2223 2252 0
-452 -2223 2224 0
-2224 2253 0
-453 -2224 2225 0
-2225 2254 0
-454 -2225 2226 0
-2226 2255 0
-455 -2226 2227 0
-2227 2256 0
-456 -2227 2228 0
-2228 2257 0
-457 -2228 2229 0
-2229 2258 0
-458 -2229 2230 0
-2230 2259 0
-459 -2230 2231 0
-2231 2260 0
-460 -2231 2232 0
-2232 2261 0
-461 -2232 2233 0
-2233 2262 0
-462 -2233 2234 0
-2234 2263 0
-463 -2234 2235 0
-2235 2264 0
-464 -2235 2236 0
-2236 2265 0
-465 -2236 2237 0
-2237 2266 0
-466 -2237 2238 0
-2238 2267 0
-467 -2238 0
-439 2239 0
-2239 2268 0
-440 -2239 2240 0
-2240 2269 0
-441 -2240 2241 0
-2241 2270 0
-442 -2241 2242 0
-2242 2271 0
-443 -2242 2243 0
-2243 2272 0
-444 -2243 2244 0
-2244 2273 0
-445 -2244 2245 0
-2245 2274 0
-446 -2245 2246 0
-2246 2275 0
-447 -2246 2247 0
-2247 2276 0
-448 -2247 2248 0
-2248 2277 0
-449 -2248 2249 0
-2249 2278 0
-450 -2249 2250 0
-2250 2279 0
-451 -2250 2251 0
-2251 2280 0
-452 -2251 2252 0
-2252 2281 0
-453 -2252 2253 0
-2253 2282 0
-454 -2253 2254 0
-2254 2283 0
-455 -2254 2255 0
-2255 2284 0
-456 -2255 2256 0
-2256 2285 0
-457 -2256 2257 0
-2257 2286 0
-458 -2257 2258 0
-2258 2287 0
-459 -2258 2259 0
-2259 2288 0
-460 -2259 2260 0
-2260 2289 0
-461 -2260 2261 0
-2261 2290 0
-462 -2261 2262 0
-2262 2291 0
-463 -2262 2263 0
-2263 2292 0
-464 -2263 2264 0
-2264 2293 0
-465 -2264 2265 0
-2265 2294 0
-466 -2265 2266 0
-2266 2295 0
-467 -2266 2267 0
-2267 2296 0
-468 -2267 0
-440 2268 0
-2268 2297 0
-441 -2268 2269 0
-2269 2298 0
-442 -2269 2270 0
-2270 2299 0
-443 -2270 2271 0
-2271 2300 0
-444 -2271 2272 0
-2272 2301 0
-445 -2272 2273 0
-2273 2302 0
-446 -2273 2274 0
-2274 2303 0
-447 -2274 2275 0
-2275 2304 0
-448 -2275 2276 0
-2276 2305 0
-449 -2276 2277 0
-2277 2306 0
-450 -2277 2278 0
-2278 2307 0
-451 -2278 2279 0
-2279 2308 0
-452 -2279 2280 0
-2280 2309 0
-453 -2280 2281 0
-2281 2310 0
-454 -2281 2282 0
-2282 2311 0
-455 -2282 2283 0
-2283 2312 0
-456 -2283 2284 0
-2284 2313 0
-457 -2284 2285 0
-2285 2314 0
-458 -2285 2286 0
-2286 2315 0
-459 -2286 2287 0
-2287 2316 0
-460 -2287 2288 0
-2288 2317 0
-461 -2288 2289 0
-2289 2318 0
-462 -2289 2290 0
-2290 2319 0
-463 -2290 2291 0
-2291 2320 0
-464 -2291 2292 0
-2292 2321 0
-465 -2292 2293 0
-2293 2322 0
-466 -2293 2294 0
-2294 2323 0
-467 -2294 2295 0
-2295 2324 0
-468 -2295 2296 0
-2296 2325 0
-469 -2296 0
-441 2297 0
-2297 2326 0
-442 -2297 2298 0
-2298 2327 0
-443 -2298 2299 0
-2299 2328 0
-444 -2299 2300 0
-2300 2329 0
-445 -2300 2301 0
-2301 2330 0
-446 -2301 2302 0
-2302 2331 0
-447 -2302 2303 0
-2303 2332 0
-448 -2303 2304 0
-2304 2333 0
-449 -2304 2305 0
-2305 2334 0
-450 -2305 2306 0
-2306 2335 0
-451 -2306 2307 0
-2307 2336 0
-452 -2307 2308 0
-2308 2337 0
-453 -2308 2309 0
-2309 2338 0
-454 -2309 2310 0
-2310 2339 0
-455 -2310 2311 0
-2311 2340 0
-456 -2311 2312 0
-2312 2341 0
-457 -2312 2313 0
-2313 2342 0
-458 -2313 2314 0
-2314 2343 0
-459 -2314 2315 0
-2315 2344 0
-460 -2315 2316 0
-2316 2345 0
-461 -2316 2317 0
-2317 2346 0
-462 -2317 2318 0
-2318 2347 0
-463 -2318 2319 0
-2319 2348 0
-464 -2319 2320 0
-2320 2349 0
-465 -2320 2321 0
-2321 2350 0
-466 -2321 2322 0
-2322 2351 0
-467 -2322 2323 0
-2323 2352 0
-468 -2323 2324 0
-2324 2353 0
-469 -2324 2325 0
-2325 2354 0
-470 -2325 0
-442 2326 0
-2326 2355 0
-443 -2326 2327 0
-2327 2356 0
-444 -2327 2328 0
-2328 2357 0
-445 -2328 2329 0
-2329 2358 0
-446 -2329 2330 0
-2330 2359 0
-447 -2330 2331 0
-2331 2360 0
-448 -2331 2332 0
-2332 2361 0
-449 -2332 2333 0
-2333 2362 0
-450 -2333 2334 0
-2334 2363 0
-451 -2334 2335 0
-2335 2364 0
-452 -2335 2336 0
-2336 2365 0
-453 -2336 2337 0
-2337 2366 0
-454 -2337 2338 0
-2338 2367 0
-455 -2338 2339 0
-2339 2368 0
-456 -2339 2340 0
-2340 2369 0
-457 -2340 2341 0
-2341 2370 0
-458 -2341 2342 0
-2342 2371 0
-459 -2342 2343 0
-2343 2372 0
-460 -2343 2344 0
-2344 2373 0
-461 -2344 2345 0
-2345 2374 0
-462 -2345 2346 0
-2346 2375 0
-463 -2346 2347 0
-2347 2376 0
-464 -2347 2348 0
-2348 2377 0
-465 -2348 2349 0
-2349 2378 0
-466 -2349 2350 0
-2350 2379 0
-467 -2350 2351 0
-2351 2380 0
-468 -2351 2352 0
-2352 2381 0
-469 -2352 2353 0
-2353 2382 0
-470 -2353 2354 0
-2354 2383 0
-471 -2354 0
-443 2355 0
-2355 2384 0
-444 -2355 2356 0
-2356 2385 0
-445 -2356 2357 0
-2357 2386 0
-446 -2357 2358 0
-2358 2387 0
-447 -2358 2359 0
-2359 2388 0
-448 -2359 2360 0
-2360 2389 0
-449 -2360 2361 0
-2361 2390 0
-450 -2361 2362 0
-2362 2391 0
-451 -2362 2363 0
-2363 2392 0
-452 -2363 2364 0
-2364 2393 0
-453 -2364 2365 0
-2365 2394 0
-454 -2365 2366 0
-2366 2395 0
-455 -2366 2367 0
-2367 2396 0
-456 -2367 2368 0
-2368 2397 0
-457 -2368 2369 0
-2369 2398 0
-458 -2369 2370 0
-2370 2399 0
-459 -2370 2371 0
-2371 2400 0
-460 -2371 2372 0
-2372 2401 0
-461 -2372 2373 0
-2373 2402 0
-462 -2373 2374 0
-2374 2403 0
-463 -2374 2375 0
-2375 2404 0
-464 -2375 2376 0
-2376 2405 0
-465 -2376 2377 0
-2377 2406 0
-466 -2377 2378 0
-2378 2407 0
-467 -2378 2379 0
-2379 2408 0
-468 -2379 2380 0
-2380 2409 0
-469 -2380 2381 0
-2381 2410 0
-470 -2381 2382 0
-2382 2411 0
-471 -2382 2383 0
-2383 2412 0
-472 -2383 0
-444 2384 0
-2384 2413 0
-445 -2384 2385 0
-2385 2414 0
-446 -2385 2386 0
-2386 2415 0
-447 -2386 2387 0
-2387 2416 0
-448 -2387 2388 0
-2388 2417 0
-449 -2388 2389 0
-2389 2418 0
-450 -2389 2390 0
-2390 2419 0
-451 -2390 2391 0
-2391 2420 0
-452 -2391 2392 0
-2392 2421 0
-453 -2392 2393 0
-2393 2422 0
-454 -2393 2394 0
-2394 2423 0
-455 -2394 2395 0
-2395 2424 0
-456 -2395 2396 0
-2396 2425 0
-457 -2396 2397 0
-2397 2426 0
-458 -2397 2398 0
-2398 2427 0
-459 -2398 2399 0
-2399 2428 0
-460 -2399 2400 0
-2400 2429 0
-461 -2400 2401 0
-2401 2430 0
-462 -2401 2402 0
-2402 2431 0
-463 -2402 2403 0
-2403 2432 0
-464 -2403 2404 0
-2404 2433 0
-465 -2404 2405 0
-2405 2434 0
-466 -2405 2406 0
-2406 2435 0
-467 -2406 2407 0
-2407 2436 0
-468 -2407 2408 0
-2408 2437 0
-469 -2408 2409 0
-2409 2438 0
-470 -2409 2410 0
-2410 2439 0
-471 -2410 2411 0
-2411 2440 0
-472 -2411 2412 0
-2412 2441 0
-473 -2412 0
-445 2413 0
-2413 2442 0
-446 -2413 2414 0
-2414 2443 0
-447 -2414 2415 0
-2415 2444 0
-448 -2415 2416 0
-2416 2445 0
-449 -2416 2417 0
-2417 2446 0
-450 -2417 2418 0
-2418 2447 0
-451 -2418 2419 0
-2419 2448 0
-452 -2419 2420 0
-2420 2449 0
-453 -2420 2421 0
-2421 2450 0
-454 -2421 2422 0
-2422 2451 0
-455 -2422 2423 0
-2423 2452 0
-456 -2423 2424 0
-2424 2453 0
-457 -2424 2425 0
-2425 2454 0
-458 -2425 2426 0
-2426 2455 0
-459 -2426 2427 0
-2427 2456 0
-460 -2427 2428 0
-2428 2457 0
-461 -2428 2429 0
-2429 2458 0
-462 -2429 2430 0
-2430 2459 0
-463 -2430 2431 0
-2431 2460 0
-464 -2431 2432 0
-2432 2461 0
-465 -2432 2433 0
-2433 2462 0
-466 -2433 2434 0
-2434 2463 0
-467 -2434 2435 0
-2435 2464 0
-468 -2435 2436 0
-2436 2465 0
-469 -2436 2437 0
-2437 2466 0
-470 -2437 2438 0
-2438 2467 0
-471 -2438 2439 0
-2439 2468 0
-472 -2439 2440 0
-2440 2469 0
-473 -2440 2441 0
-2441 2470 0
-474 -2441 0
-446 2442 0
-2442 2471 0
-447 -2442 2443 0
-2443 2472 0
-448 -2443 2444 0
-2444 2473 0
-449 -2444 2445 0
-2445 2474 0
-450 -2445 2446 0
-2446 2475 0
-451 -2446 2447 0
-2447 2476 0
-452 -2447 2448 0
-2448 2477 0
-453 -2448 2449 0
-2449 2478 0
-454 -2449 2450 0
-2450 2479 0
-455 -2450 2451 0
-2451 2480 0
-456 -2451 2452 0
-2452 2481 0
-457 -2452 2453 0
-2453 2482 0
-458 -2453 2454 0
-2454 2483 0
-459 -2454 2455 0
-2455 2484 0
-460 -2455 2456 0
-2456 2485 0
-461 -2456 2457 0
-2457 2486 0
-462 -2457 2458 0
-2458 2487 0
-463 -2458 2459 0
-2459 2488 0
-464 -2459 2460 0
-2460 2489 0
-465 -2460 2461 0
-2461 2490 0
-466 -2461 2462 0
-2462 2491 0
-467 -2462 2463 0
-2463 2492 0
-468 -2463 2464 0
-2464 2493 0
-469 -2464 2465 0
-2465 2494 0
-470 -2465 2466 0
-2466 2495 0
-471 -2466 2467 0
-2467 2496 0
-472 -2467 2468 0
-2468 2497 0
-473 -2468 2469 0
-2469 2498 0
-474 -2469 2470 0
-2470 2499 0
-475 -2470 0
-447 2471 0
-2471 2500 0
-448 -2471 2472 0
-2472 2501 0
-449 -2472 2473 0
-2473 2502 0
-450 -2473 2474 0
-2474 2503 0
-451 -2474 2475 0
-2475 2504 0
-452 -2475 2476 0
-2476 2505 0
-453 -2476 2477 0
-2477 2506 0
-454 -2477 2478 0
-2478 2507 0
-455 -2478 2479 0
-2479 2508 0
-456 -2479 2480 0
-2480 2509 0
-457 -2480 2481 0
-2481 2510 0
-458 -2481 2482 0
-2482 2511 0
-459 -2482 2483 0
-2483 2512 0
-460 -2483 2484 0
-2484 2513 0
-461 -2484 2485 0
-2485 2514 0
-462 -2485 2486 0
-2486 2515 0
-463 -2486 2487 0
-2487 2516 0
-464 -2487 2488 0
-2488 2517 0
-465 -2488 2489 0
-2489 2518 0
-466 -2489 2490 0
-2490 2519 0
-467 -2490 2491 0
-2491 2520 0
-468 -2491 2492 0
-2492 2521 0
-469 -2492 2493 0
-2493 2522 0
-470 -2493 2494 0
-2494 2523 0
-471 -2494 2495 0
-2495 2524 0
-472 -2495 2496 0
-2496 2525 0
-473 -2496 2497 0
-2497 2526 0
-474 -2497 2498 0
-2498 2527 0
-475 -2498 2499 0
-2499 2528 0
-476 -2499 0
-448 2500 0
-2500 2529 0
-449 -2500 2501 0
-2501 2530 0
-450 -2501 2502 0
-2502 2531 0
-451 -2502 2503 0
-2503 2532 0
-452 -2503 2504 0
-2504 2533 0
-453 -2504 2505 0
-2505 2534 0
-454 -2505 2506 0
-2506 2535 0
-455 -2506 2507 0
-2507 2536 0
-456 -2507 2508 0
-2508 2537 0
-457 -2508 2509 0
-2509 2538 0
-458 -2509 2510 0
-2510 2539 0
-459 -2510 2511 0
-2511 2540 0
-460 -2511 2512 0
-2512 2541 0
-461 -2512 2513 0
-2513 2542 0
-462 -2513 2514 0
-2514 2543 0
-463 -2514 2515 0
-2515 2544 0
-464 -2515 2516 0
-2516 2545 0
-465 -2516 2517 0
-2517 2546 0
-466 -2517 2518 0
-2518 2547 0
-467 -2518 2519 0
-2519 2548 0
-468 -2519 2520 0
-2520 2549 0
-469 -2520 2521 0
-2521 2550 0
-470 -2521 2522 0
-2522 2551 0
-471 -2522 2523 0
-2523 2552 0
-472 -2523 2524 0
-2524 2553 0
-473 -2524 2525 0
-2525 2554 0
-474 -2525 2526 0
-2526 2555 0
-475 -2526 2527 0
-2527 2556 0
-476 -2527 2528 0
-2528 2557 0
-477 -2528 0
-449 2529 0
-2529 2558 0
-450 -2529 2530 0
-2530 2559 0
-451 -2530 2531 0
-2531 2560 0
-452 -2531 2532 0
-2532 2561 0
-453 -2532 2533 0
-2533 2562 0
-454 -2533 2534 0
-2534 2563 0
-455 -2534 2535 0
-2535 2564 0
-456 -2535 2536 0
-2536 2565 0
-457 -2536 2537 0
-2537 2566 0
-458 -2537 2538 0
-2538 2567 0
-459 -2538 2539 0
-2539 2568 0
-460 -2539 2540 0
-2540 2569 0
-461 -2540 2541 0
-2541 2570 0
-462 -2541 2542 0
-2542 2571 0
-463 -2542 2543 0
-2543 2572 0
-464 -2543 2544 0
-2544 2573 0
-465 -2544 2545 0
-2545 2574 0
-466 -2545 2546 0
-2546 2575 0
-467 -2546 2547 0
-2547 2576 0
-468 -2547 2548 0
-2548 2577 0
-469 -2548 2549 0
-2549 2578 0
-470 -2549 2550 0
-2550 2579 0
-471 -2550 2551 0
-2551 2580 0
-472 -2551 2552 0
-2552 2581 0
-473 -2552 2553 0
-2553 2582 0
-474 -2553 2554 0
-2554 2583 0
-475 -2554 2555 0
-2555 2584 0
-476 -2555 2556 0
-2556 2585 0
-477 -2556 2557 0
-2557 2586 0
-478 -2557 0
-450 2558 0
-2558 2587 0
-451 -2558 2559 0
-2559 2588 0
-452 -2559 2560 0
-2560 2589 0
-453 -2560 2561 0
-2561 2590 0
-454 -2561 2562 0
-2562 2591 0
-455 -2562 2563 0
-2563 2592 0
-456 -2563 2564 0
-2564 2593 0
-457 -2564 2565 0
-2565 2594 0
-458 -2565 2566 0
-2566 2595 0
-459 -2566 2567 0
-2567 2596 0
-460 -2567 2568 0
-2568 2597 0
-461 -2568 2569 0
-2569 2598 0
-462 -2569 2570 0
-2570 2599 0
-463 -2570 2571 0
-2571 2600 0
-464 -2571 2572 0
-2572 2601 0
-465 -2572 2573 0
-2573 2602 0
-466 -2573 2574 0
-2574 2603 0
-467 -2574 2575 0
-2575 2604 0
-468 -2575 2576 0
-2576 2605 0
-469 -2576 2577 0
-2577 2606 0
-470 -2577 2578 0
-2578 2607 0
-471 -2578 2579 0
-2579 2608 0
-472 -2579 2580 0
-2580 2609 0
-473 -2580 2581 0
-2581 2610 0
-474 -2581 2582 0
-2582 2611 0
-475 -2582 2583 0
-2583 2612 0
-476 -2583 2584 0
-2584 2613 0
-477 -2584 2585 0
-2585 2614 0
-478 -2585 2586 0
-2586 2615 0
-479 -2586 0
-451 2587 0
-2587 2616 0
-452 -2587 2588 0
-2588 2617 0
-453 -2588 2589 0
-2589 2618 0
-454 -2589 2590 0
-2590 2619 0
-455 -2590 2591 0
-2591 2620 0
-456 -2591 2592 0
-2592 2621 0
-457 -2592 2593 0
-2593 2622 0
-458 -2593 2594 0
-2594 2623 0
-459 -2594 2595 0
-2595 2624 0
-460 -2595 2596 0
-2596 2625 0
-461 -2596 2597 0
-2597 2626 0
-462 -2597 2598 0
-2598 2627 0
-463 -2598 2599 0
-2599 2628 0
-464 -2599 2600 0
-2600 2629 0
-465 -2600 2601 0
-2601 2630 0
-466 -2601 2602 0
-2602 2631 0
-467 -2602 2603 0
-2603 2632 0
-468 -2603 2604 0
-2604 2633 0
-469 -2604 2605 0
-2605 2634 0
-470 -2605 2606 0
-2606 2635 0
-471 -2606 2607 0
-2607 2636 0
-472 -2607 2608 0
-2608 2637 0
-473 -2608 2609 0
-2609 2638 0
-474 -2609 2610 0
-2610 2639 0
-475 -2610 2611 0
-2611 2640 0
-476 -2611 2612 0
-2612 2641 0
-477 -2612 2613 0
-2613 2642 0
-478 -2613 2614 0
-2614 2643 0
-479 -2614 2615 0
-2615 2644 0
-480 -2615 0
-452 2616 0
-2616 2645 0
-453 -2616 2617 0
-2617 2646 0
-454 -2617 2618 0
-2618 2647 0
-455 -2618 2619 0
-2619 2648 0
-456 -2619 2620 0
-2620 2649 0
-457 -2620 2621 0
-2621 2650 0
-458 -2621 2622 0
-2622 2651 0
-459 -2622 2623 0
-2623 2652 0
-460 -2623 2624 0
-2624 2653 0
-461 -2624 2625 0
-2625 2654 0
-462 -2625 2626 0
-2626 2655 0
-463 -2626 2627 0
-2627 2656 0
-464 -2627 2628 0
-2628 2657 0
-465 -2628 2629 0
-2629 2658 0
-466 -2629 2630 0
-2630 2659 0
-467 -2630 2631 0
-2631 2660 0
-468 -2631 2632 0
-2632 2661 0
-469 -2632 2633 0
-2633 2662 0
-470 -2633 2634 0
-2634 2663 0
-471 -2634 2635 0
-2635 2664 0
-472 -2635 2636 0
-2636 2665 0
-473 -2636 2637 0
-2637 2666 0
-474 -2637 2638 0
-2638 2667 0
-475 -2638 2639 0
-2639 2668 0
-476 -2639 2640 0
-2640 2669 0
-477 -2640 2641 0
-2641 2670 0
-478 -2641 2642 0
-2642 2671 0
-479 -2642 2643 0
-2643 2672 0
-480 -2643 2644 0
-2644 2673 0
-481 -2644 0
-453 2645 0
-2645 2674 0
-454 -2645 2646 0
-2646 2675 0
-455 -2646 2647 0
-2647 2676 0
-456 -2647 2648 0
-2648 2677 0
-457 -2648 2649 0
-2649 2678 0
-458 -2649 2650 0
-2650 2679 0
-459 -2650 2651 0
-2651 2680 0
-460 -2651 2652 0
-2652 2681 0
-461 -2652 2653 0
-2653 2682 0
-462 -2653 2654 0
-2654 2683 0
-463 -2654 2655 0
-2655 2684 0
-464 -2655 2656 0
-2656 2685 0
-465 -2656 2657 0
-2657 2686 0
-466 -2657 2658 0
-2658 2687 0
-467 -2658 2659 0
-2659 2688 0
-468 -2659 2660 0
-2660 2689 0
-469 -2660 2661 0
-2661 2690 0
-470 -2661 2662 0
-2662 2691 0
-471 -2662 2663 0
-2663 2692 0
-472 -2663 2664 0
-2664 2693 0
-473 -2664 2665 0
-2665 2694 0
-474 -2665 2666 0
-2666 2695 0
-475 -2666 2667 0
-2667 2696 0
-476 -2667 2668 0
-2668 2697 0
-477 -2668 2669 0
-2669 2698 0
-478 -2669 2670 0
-2670 2699 0
-479 -2670 2671 0
-2671 2700 0
-480 -2671 2672 0
-2672 2701 0
-481 -2672 2673 0
-2673 2702 0
-482 -2673 0
-454 2674 0
-2674 2703 0
-455 -2674 2675 0
-2675 2704 0
-456 -2675 2676 0
-2676 2705 0
-457 -2676 2677 0
-2677 2706 0
-458 -2677 2678 0
-2678 2707 0
-459 -2678 2679 0
-2679 2708 0
-460 -2679 2680 0
-2680 2709 0
-461 -2680 2681 0
-2681 2710 0
-462 -2681 2682 0
-2682 2711 0
-463 -2682 2683 0
-2683 2712 0
-464 -2683 2684 0
-2684 2713 0
-465 -2684 2685 0
-2685 2714 0
-466 -2685 2686 0
-2686 2715 0
-467 -2686 2687 0
-2687 2716 0
-468 -2687 2688 0
-2688 2717 0
-469 -2688 2689 0
-2689 2718 0
-470 -2689 2690 0
-2690 2719 0
-471 -2690 2691 0
-2691 2720 0
-472 -2691 2692 0
-2692 2721 0
-473 -2692 2693 0
-2693 2722 0
-474 -2693 2694 0
-2694 2723 0
-475 -2694 2695 0
-2695 2724 0
-476 -2695 2696 0
-2696 2725 0
-477 -2696 2697 0
-2697 2726 0
-478 -2697 2698 0
-2698 2727 0
-479 -2698 2699 0
-2699 2728 0
-480 -2699 2700 0
-2700 2729 0
-481 -2700 2701 0
-2701 2730 0
-482 -2701 2702 0
-2702 2731 0
-483 -2702 0
-455 2703 0
-2703 2732 0
-456 -2703 2704 0
-2704 2733 0
-457 -2704 2705 0
-2705 2734 0
-458 -2705 2706 0
-2706 2735 0
-459 -2706 2707 0
-2707 2736 0
-460 -2707 2708 0
-2708 2737 0
-461 -2708 2709 0
-2709 2738 0
-462 -2709 2710 0
-2710 2739 0
-463 -2710 2711 0
-2711 2740 0
-464 -2711 2712 0
-2712 2741 0
-465 -2712 2713 0
-2713 2742 0
-466 -2713 2714 0
-2714 2743 0
-467 -2714 2715 0
-2715 2744 0
-468 -2715 2716 0
-2716 2745 0
-469 -2716 2717 0
-2717 2746 0
-470 -2717 2718 0
-2718 2747 0
-471 -2718 2719 0
-2719 2748 0
-472 -2719 2720 0
-2720 2749 0
-473 -2720 2721 0
-2721 2750 0
-474 -2721 2722 0
-2722 2751 0
-475 -2722 2723 0
-2723 2752 0
-476 -2723 2724 0
-2724 2753 0
-477 -2724 2725 0
-2725 2754 0
-478 -2725 2726 0
-2726 2755 0
-479 -2726 2727 0
-2727 2756 0
-480 -2727 2728 0
-2728 2757 0
-481 -2728 2729 0
-2729 2758 0
-482 -2729 2730 0
-2730 2759 0
-483 -2730 2731 0
-2731 2760 0
-484 -2731 0
-456 2732 0
-2732 2761 0
-457 -2732 2733 0
-2733 2762 0
-458 -2733 2734 0
-2734 2763 0
-459 -2734 2735 0
-2735 2764 0
-460 -2735 2736 0
-2736 2765 0
-461 -2736 2737 0
-2737 2766 0
-462 -2737 2738 0
-2738 2767 0
-463 -2738 2739 0
-2739 2768 0
-464 -2739 2740 0
-2740 2769 0
-465 -2740 2741 0
-2741 2770 0
-466 -2741 2742 0
-2742 2771 0
-467 -2742 2743 0
-2743 2772 0
-468 -2743 2744 0
-2744 2773 0
-469 -2744 2745 0
-2745 2774 0
-470 -2745 2746 0
-2746 2775 0
-471 -2746 2747 0
-2747 2776 0
-472 -2747 2748 0
-2748 2777 0
-473 -2748 2749 0
-2749 2778 0
-474 -2749 2750 0
-2750 2779 0
-475 -2750 2751 0
-2751 2780 0
-476 -2751 2752 0
-2752 2781 0
-477 -2752 2753 0
-2753 2782 0
-478 -2753 2754 0
-2754 2783 0
-479 -2754 2755 0
-2755 2784 0
-480 -2755 2756 0
-2756 2785 0
-481 -2756 2757 0
-2757 2786 0
-482 -2757 2758 0
-2758 2787 0
-483 -2758 2759 0
-2759 2788 0
-484 -2759 2760 0
-2760 2789 0
-485 -2760 0
-457 2761 0
-2761 2790 0
-458 -2761 2762 0
-2762 2791 0
-459 -2762 2763 0
-2763 2792 0
-460 -2763 2764 0
-2764 2793 0
-461 -2764 2765 0
-2765 2794 0
-462 -2765 2766 0
-2766 2795 0
-463 -2766 2767 0
-2767 2796 0
-464 -2767 2768 0
-2768 2797 0
-465 -2768 2769 0
-2769 2798 0
-466 -2769 2770 0
-2770 2799 0
-467 -2770 2771 0
-2771 2800 0
-468 -2771 2772 0
-2772 2801 0
-469 -2772 2773 0
-2773 2802 0
-470 -2773 2774 0
-2774 2803 0
-471 -2774 2775 0
-2775 2804 0
-472 -2775 2776 0
-2776 2805 0
-473 -2776 2777 0
-2777 2806 0
-474 -2777 2778 0
-2778 2807 0
-475 -2778 2779 0
-2779 2808 0
-476 -2779 2780 0
-2780 2809 0
-477 -2780 2781 0
-2781 2810 0
-478 -2781 2782 0
-2782 2811 0
-479 -2782 2783 0
-2783 2812 0
-480 -2783 2784 0
-2784 2813 0
-481 -2784 2785 0
-2785 2814 0
-482 -2785 2786 0
-2786 2815 0
-483 -2786 2787 0
-2787 2816 0
-484 -2787 2788 0
-2788 2817 0
-485 -2788 2789 0
-2789 2818 0
-486 -2789 0
-458 2790 0
-2790 2819 0
-459 -2790 2791 0
-2791 2820 0
-460 -2791 2792 0
-2792 2821 0
-461 -2792 2793 0
-2793 2822 0
-462 -2793 2794 0
-2794 2823 0
-463 -2794 2795 0
-2795 2824 0
-464 -2795 2796 0
-2796 2825 0
-465 -2796 2797 0
-2797 2826 0
-466 -2797 2798 0
-2798 2827 0
-467 -2798 2799 0
-2799 2828 0
-468 -2799 2800 0
-2800 2829 0
-469 -2800 2801 0
-2801 2830 0
-470 -2801 2802 0
-2802 2831 0
-471 -2802 2803 0
-2803 2832 0
-472 -2803 2804 0
-2804 2833 0
-473 -2804 2805 0
-2805 2834 0
-474 -2805 2806 0
-2806 2835 0
-475 -2806 2807 0
-2807 2836 0
-476 -2807 2808 0
-2808 2837 0
-477 -2808 2809 0
-2809 2838 0
-478 -2809 2810 0
-2810 2839 0
-479 -2810 2811 0
-2811 2840 0
-480 -2811 2812 0
-2812 2841 0
-481 -2812 2813 0
-2813 2842 0
-482 -2813 2814 0
-2814 2843 0
-483 -2814 2815 0
-2815 2844 0
-484 -2815 2816 0
-2816 2845 0
-485 -2816 2817 0
-2817 2846 0
-486 -2817 2818 0
-2818 2847 0
-487 -2818 0
-459 2819 0
-2819 2848 0
-460 -2819 2820 0
-2820 2849 0
-461 -2820 2821 0
-2821 2850 0
-462 -2821 2822 0
-2822 2851 0
-463 -2822 2823 0
-2823 2852 0
-464 -2823 2824 0
-2824 2853 0
-465 -2824 2825 0
-2825 2854 0
-466 -2825 2826 0
-2826 2855 0
-467 -2826 2827 0
-2827 2856 0
-468 -2827 2828 0
-2828 2857 0
-469 -2828 2829 0
-2829 2858 0
-470 -2829 2830 0
-2830 2859 0
-471 -2830 2831 0
-2831 2860 0
-472 -2831 2832 0
-2832 2861 0
-473 -2832 2833 0
-2833 2862 0
-474 -2833 2834 0
-2834 2863 0
-475 -2834 2835 0
-2835 2864 0
-476 -2835 2836 0
-2836 2865 0
-477 -2836 2837 0
-2837 2866 0
-478 -2837 2838 0
-2838 2867 0
-479 -2838 2839 0
-2839 2868 0
-480 -2839 2840 0
-2840 2869 0
-481 -2840 2841 0
-2841 2870 0
-482 -2841 2842 0
-2842 2871 0
-483 -2842 2843 0
-2843 2872 0
-484 -2843 2844 0
-2844 2873 0
-485 -2844 2845 0
-2845 2874 0
-486 -2845 2846 0
-2846 2875 0
-487 -2846 2847 0
-2847 2876 0
-488 -2847 0
-460 2848 0
-2848 2877 0
-461 -2848 2849 0
-2849 2878 0
-462 -2849 2850 0
-2850 2879 0
-463 -2850 2851 0
-2851 2880 0
-464 -2851 2852 0
-2852 2881 0
-465 -2852 2853 0
-2853 2882 0
-466 -2853 2854 0
-2854 2883 0
-467 -2854 2855 0
-2855 2884 0
-468 -2855 2856 0
-2856 2885 0
-469 -2856 2857 0
-2857 2886 0
-470 -2857 2858 0
-2858 2887 0
-471 -2858 2859 0
-2859 2888 0
-472 -2859 2860 0
-2860 2889 0
-473 -2860 2861 0
-2861 2890 0
-474 -2861 2862 0
-2862 2891 0
-475 -2862 2863 0
-2863 2892 0
-476 -2863 2864 0
-2864 2893 0
-477 -2864 2865 0
-2865 2894 0
-478 -2865 2866 0
-2866 2895 0
-479 -2866 2867 0
-2867 2896 0
-480 -2867 2868 0
-2868 2897 0
-481 -2868 2869 0
-2869 2898 0
-482 -2869 2870 0
-2870 2899 0
-483 -2870 2871 0
-2871 2900 0
-484 -2871 2872 0
-2872 2901 0
-485 -2872 2873 0
-2873 2902 0
-486 -2873 2874 0
-2874 2903 0
-487 -2874 2875 0
-2875 2904 0
-488 -2875 2876 0
-2876 2905 0
-489 -2876 0
-461 2877 0
-2877 2906 0
-462 -2877 2878 0
-2878 2907 0
-463 -2878 2879 0
-2879 2908 0
-464 -2879 2880 0
-2880 2909 0
-465 -2880 2881 0
-2881 2910 0
-466 -2881 2882 0
-2882 2911 0
-467 -2882 2883 0
-2883 2912 0
-468 -2883 2884 0
-2884 2913 0
-469 -2884 2885 0
-2885 2914 0
-470 -2885 2886 0
-2886 2915 0
-471 -2886 2887 0
-2887 2916 0
-472 -2887 2888 0
-2888 2917 0
-473 -2888 2889 0
-2889 2918 0
-474 -2889 2890 0
-2890 2919 0
-475 -2890 2891 0
-2891 2920 0
-476 -2891 2892 0
-2892 2921 0
-477 -2892 2893 0
-2893 2922 0
-478 -2893 2894 0
-2894 2923 0
-479 -2894 2895 0
-2895 2924 0
-480 -2895 2896 0
-2896 2925 0
-481 -2896 2897 0
-2897 2926 0
-482 -2897 2898 0
-2898 2927 0
-483 -2898 2899 0
-2899 2928 0
-484 -2899 2900 0
-2900 2929 0
-485 -2900 2901 0
-2901 2930 0
-486 -2901 2902 0
-2902 2931 0
-487 -2902 2903 0
-2903 2932 0
-488 -2903 2904 0
-2904 2933 0
-489 -2904 2905 0
-2905 2934 0
-490 -2905 0
-462 2906 0
-2906 2935 0
-463 -2906 2907 0
-2907 2936 0
-464 -2907 2908 0
-2908 2937 0
-465 -2908 2909 0
-2909 2938 0
-466 -2909 2910 0
-2910 2939 0
-467 -2910 2911 0
-2911 2940 0
-468 -2911 2912 0
-2912 2941 0
-469 -2912 2913 0
-2913 2942 0
-470 -2913 2914 0
-2914 2943 0
-471 -2914 2915 0
-2915 2944 0
-472 -2915 2916 0
-2916 2945 0
-473 -2916 2917 0
-2917 2946 0
-474 -2917 2918 0
-2918 2947 0
-475 -2918 2919 0
-2919 2948 0
-476 -2919 2920 0
-2920 2949 0
-477 -2920 2921 0
-2921 2950 0
-478 -2921 2922 0
-2922 2951 0
-479 -2922 2923 0
-2923 2952 0
-480 -2923 2924 0
-2924 2953 0
-481 -2924 2925 0
-2925 2954 0
-482 -2925 2926 0
-2926 2955 0
-483 -2926 2927 0
-2927 2956 0
-484 -2927 2928 0
-2928 2957 0
-485 -2928 2929 0
-2929 2958 0
-486 -2929 2930 0
-2930 2959 0
-487 -2930 2931 0
-2931 2960 0
-488 -2931 2932 0
-2932 2961 0
-489 -2932 2933 0
-2933 2962 0
-490 -2933 2934 0
-2934 2963 0
-491 -2934 0
-463 2935 0
-2935 2964 0
-464 -2935 2936 0
-2936 2965 0
-465 -2936 2937 0
-2937 2966 0
-466 -2937 2938 0
-2938 2967 0
-467 -2938 2939 0
-2939 2968 0
-468 -2939 2940 0
-2940 2969 0
-469 -2940 2941 0
-2941 2970 0
-470 -2941 2942 0
-2942 2971 0
-471 -2942 2943 0
-2943 2972 0
-472 -2943 2944 0
-2944 2973 0
-473 -2944 2945 0
-2945 2974 0
-474 -2945 2946 0
-2946 2975 0
-475 -2946 2947 0
-2947 2976 0
-476 -2947 2948 0
-2948 2977 0
-477 -2948 2949 0
-2949 2978 0
-478 -2949 2950 0
-2950 2979 0
-479 -2950 2951 0
-2951 2980 0
-480 -2951 2952 0
-2952 2981 0
-481 -2952 2953 0
-2953 2982 0
-482 -2953 2954 0
-2954 2983 0
-483 -2954 2955 0
-2955 2984 0
-484 -2955 2956 0
-2956 2985 0
-485 -2956 2957 0
-2957 2986 0
-486 -2957 2958 0
-2958 2987 0
-487 -2958 2959 0
-2959 2988 0
-488 -2959 2960 0
-2960 2989 0
-489 -2960 2961 0
-2961 2990 0
-490 -2961 2962 0
-2962 2991 0
-491 -2962 2963 0
-2963 2992 0
-492 -2963 0
-464 2964 0
-2964 2993 0
-465 -2964 2965 0
-2965 2994 0
-466 -2965 2966 0
-2966 2995 0
-467 -2966 2967 0
-2967 2996 0
-468 -2967 2968 0
-2968 2997 0
-469 -2968 2969 0
-2969 2998 0
-470 -2969 2970 0
-2970 2999 0
-471 -2970 2971 0
-2971 3000 0
-472 -2971 2972 0
-2972 3001 0
-473 -2972 2973 0
-2973 3002 0
-474 -2973 2974 0
-2974 3003 0
-475 -2974 2975 0
-2975 3004 0
-476 -2975 2976 0
-2976 3005 0
-477 -2976 2977 0
-2977 3006 0
-478 -2977 2978 0
-2978 3007 0
-479 -2978 2979 0
-2979 3008 0
-480 -2979 2980 0
-2980 3009 0
-481 -2980 2981 0
-2981 3010 0
-482 -2981 2982 0
-2982 3011 0
-483 -2982 2983 0
-2983 3012 0
-484 -2983 2984 0
-2984 3013 0
-485 -2984 2985 0
-2985 3014 0
-486 -2985 2986 0
-2986 3015 0
-487 -2986 2987 0
-2987 3016 0
-488 -2987 2988 0
-2988 3017 0
-489 -2988 2989 0
-2989 3018 0
-490 -2989 2990 0
-2990 3019 0
-491 -2990 2991 0
-2991 3020 0
-492 -2991 2992 0
-2992 3021 0
-493 -2992 0
-465 2993 0
-2993 3022 0
-466 -2993 2994 0
-2994 3023 0
-467 -2994 2995 0
-2995 3024 0
-468 -2995 2996 0
-2996 3025 0
-469 -2996 2997 0
-2997 3026 0
-470 -2997 2998 0
-2998 3027 0
-471 -2998 2999 0
-2999 3028 0
-472 -2999 3000 0
-3000 3029 0
-473 -3000 3001 0
-3001 3030 0
-474 -3001 3002 0
-3002 3031 0
-475 -3002 3003 0
-3003 3032 0
-476 -3003 3004 0
-3004 3033 0
-477 -3004 3005 0
-3005 3034 0
-478 -3005 3006 0
-3006 3035 0
-479 -3006 3007 0
-3007 3036 0
-480 -3007 3008 0
-3008 3037 0
-481 -3008 3009 0
-3009 3038 0
-482 -3009 3010 0
-3010 3039 0
-483 -3010 3011 0
-3011 3040 0
-484 -3011 3012 0
-3012 3041 0
-485 -3012 3013 0
-3013 3042 0
-486 -3013 3014 0
-3014 3043 0
-487 -3014 3015 0
-3015 3044 0
-488 -3015 3016 0
-3016 3045 0
-489 -3016 3017 0
-3017 3046 0
-490 -3017 3018 0
-3018 3047 0
-491 -3018 3019 0
-3019 3048 0
-492 -3019 3020 0
-3020 3049 0
-493 -3020 3021 0
-3021 3050 0
-494 -3021 0
-466 3022 0
-3022 3051 0
-467 -3022 3023 0
-3023 3052 0
-468 -3023 3024 0
-3024 3053 0
-469 -3024 3025 0
-3025 3054 0
-470 -3025 3026 0
-3026 3055 0
-471 -3026 3027 0
-3027 3056 0
-472 -3027 3028 0
-3028 3057 0
-473 -3028 3029 0
-3029 3058 0
-474 -3029 3030 0
-3030 3059 0
-475 -3030 3031 0
-3031 3060 0
-476 -3031 3032 0
-3032 3061 0
-477 -3032 3033 0
-3033 3062 0
-478 -3033 3034 0
-3034 3063 0
-479 -3034 3035 0
-3035 3064 0
-480 -3035 3036 0
-3036 3065 0
-481 -3036 3037 0
-3037 3066 0
-482 -3037 3038 0
-3038 3067 0
-483 -3038 3039 0
-3039 3068 0
-484 -3039 3040 0
-3040 3069 0
-485 -3040 3041 0
-3041 3070 0
-486 -3041 3042 0
-3042 3071 0
-487 -3042 3043 0
-3043 3072 0
-488 -3043 3044 0
-3044 3073 0
-489 -3044 3045 0
-3045 3074 0
-490 -3045 3046 0
-3046 3075 0
-491 -3046 3047 0
-3047 3076 0
-492 -3047 3048 0
-3048 3077 0
-493 -3048 3049 0
-3049 3078 0
-494 -3049 3050 0
-3050 3079 0
-495 -3050 0
-467 3051 0
-3051 3080 0
-468 -3051 3052 0
-3052 3081 0
-469 -3052 3053 0
-3053 3082 0
-470 -3053 3054 0
-3054 3083 0
-471 -3054 3055 0
-3055 3084 0
-472 -3055 3056 0
-3056 3085 0
-473 -3056 3057 0
-3057 3086 0
-474 -3057 3058 0
-3058 3087 0
-475 -3058 3059 0
-3059 3088 0
-476 -3059 3060 0
-3060 3089 0
-477 -3060 3061 0
-3061 3090 0
-478 -3061 3062 0
-3062 3091 0
-479 -3062 3063 0
-3063 3092 0
-480 -3063 3064 0
-3064 3093 0
-481 -3064 3065 0
-3065 3094 0
-482 -3065 3066 0
-3066 3095 0
-483 -3066 3067 0
-3067 3096 0
-484 -3067 3068 0
-3068 3097 0
-485 -3068 3069 0
-3069 3098 0
-486 -3069 3070 0
-3070 3099 0
-487 -3070 3071 0
-3071 3100 0
-488 -3071 3072 0
-3072 3101 0
-489 -3072 3073 0
-3073 3102 0
-490 -3073 3074 0
-3074 3103 0
-491 -3074 3075 0
-3075 3104 0
-492 -3075 3076 0
-3076 3105 0
-493 -3076 3077 0
-3077 3106 0
-494 -3077 3078 0
-3078 3107 0
-495 -3078 3079 0
-3079 3108 0
-496 -3079 0
-468 3080 0
-3080 3109 0
-469 -3080 3081 0
-3081 3110 0
-470 -3081 3082 0
-3082 3111 0
-471 -3082 3083 0
-3083 3112 0
-472 -3083 3084 0
-3084 3113 0
-473 -3084 3085 0
-3085 3114 0
-474 -3085 3086 0
-3086 3115 0
-475 -3086 3087 0
-3087 3116 0
-476 -3087 3088 0
-3088 3117 0
-477 -3088 3089 0
-3089 3118 0
-478 -3089 3090 0
-3090 3119 0
-479 -3090 3091 0
-3091 3120 0
-480 -3091 3092 0
-3092 3121 0
-481 -3092 3093 0
-3093 3122 0
-482 -3093 3094 0
-3094 3123 0
-483 -3094 3095 0
-3095 3124 0
-484 -3095 3096 0
-3096 3125 0
-485 -3096 3097 0
-3097 3126 0
-486 -3097 3098 0
-3098 3127 0
-487 -3098 3099 0
-3099 3128 0
-488 -3099 3100 0
-3100 3129 0
-489 -3100 3101 0
-3101 3130 0
-490 -3101 3102 0
-3102 3131 0
-491 -3102 3103 0
-3103 3132 0
-492 -3103 3104 0
-3104 3133 0
-493 -3104 3105 0
-3105 3134 0
-494 -3105 3106 0
-3106 3135 0
-495 -3106 3107 0
-3107 3136 0
-496 -3107 3108 0
-3108 3137 0
-497 -3108 0
-469 3109 0
-3109 3138 0
-470 -3109 3110 0
-3110 3139 0
-471 -3110 3111 0
-3111 3140 0
-472 -3111 3112 0
-3112 3141 0
-473 -3112 3113 0
-3113 3142 0
-474 -3113 3114 0
-3114 3143 0
-475 -3114 3115 0
-3115 3144 0
-476 -3115 3116 0
-3116 3145 0
-477 -3116 3117 0
-3117 3146 0
-478 -3117 3118 0
-3118 3147 0
-479 -3118 3119 0
-3119 3148 0
-480 -3119 3120 0
-3120 3149 0
-481 -3120 3121 0
-3121 3150 0
-482 -3121 3122 0
-3122 3151 0
-483 -3122 3123 0
-3123 3152 0
-484 -3123 3124 0
-3124 3153 0
-485 -3124 3125 0
-3125 3154 0
-486 -3125 3126 0
-3126 3155 0
-487 -3126 3127 0
-3127 3156 0
-488 -3127 3128 0
-3128 3157 0
-489 -3128 3129 0
-3129 3158 0
-490 -3129 3130 0
-3130 3159 0
-491 -3130 3131 0
-3131 3160 0
-492 -3131 3132 0
-3132 3161 0
-493 -3132 3133 0
-3133 3162 0
-494 -3133 3134 0
-3134 3163 0
-495 -3134 3135 0
-3135 3164 0
-496 -3135 3136 0
-3136 3165 0
-497 -3136 3137 0
-3137 3166 0
-498 -3137 0
-470 3138 0
-3138 3167 0
-471 -3138 3139 0
-3139 3168 0
-472 -3139 3140 0
-3140 3169 0
-473 -3140 3141 0
-3141 3170 0
-474 -3141 3142 0
-3142 3171 0
-475 -3142 3143 0
-3143 3172 0
-476 -3143 3144 0
-3144 3173 0
-477 -3144 3145 0
-3145 3174 0
-478 -3145 3146 0
-3146 3175 0
-479 -3146 3147 0
-3147 3176 0
-480 -3147 3148 0
-3148 3177 0
-481 -3148 3149 0
-3149 3178 0
-482 -3149 3150 0
-3150 3179 0
-483 -3150 3151 0
-3151 3180 0
-484 -3151 3152 0
-3152 3181 0
-485 -3152 3153 0
-3153 3182 0
-486 -3153 3154 0
-3154 3183 0
-487 -3154 3155 0
-3155 3184 0
-488 -3155 3156 0
-3156 3185 0
-489 -3156 3157 0
-3157 3186 0
-490 -3157 3158 0
-3158 3187 0
-491 -3158 3159 0
-3159 3188 0
-492 -3159 3160 0
-3160 3189 0
-493 -3160 3161 0
-3161 3190 0
-494 -3161 3162 0
-3162 3191 0
-495 -3162 3163 0
-3163 3192 0
-496 -3163 3164 0
-3164 3193 0
-497 -3164 3165 0
-3165 3194 0
-498 -3165 3166 0
-3166 3195 0
-499 -3166 0
-471 3167 0
-3167 3196 0
-472 -3167 3168 0
-3168 3197 0
-473 -3168 3169 0
-3169 3198 0
-474 -3169 3170 0
-3170 3199 0
-475 -3170 3171 0
-3171 3200 0
-476 -3171 3172 0
-3172 3201 0
-477 -3172 3173 0
-3173 3202 0
-478 -3173 3174 0
-3174 3203 0
-479 -3174 3175 0
-3175 3204 0
-480 -3175 3176 0
-3176 3205 0
-481 -3176 3177 0
-3177 3206 0
-482 -3177 3178 0
-3178 3207 0
-483 -3178 3179 0
-3179 3208 0
-484 -3179 3180 0
-3180 3209 0
-485 -3180 3181 0
-3181 3210 0
-486 -3181 3182 0
-3182 3211 0
-487 -3182 3183 0
-3183 3212 0
-488 -3183 3184 0
-3184 3213 0
-489 -3184 3185 0
-3185 3214 0
-490 -3185 3186 0
-3186 3215 0
-491 -3186 3187 0
-3187 3216 0
-492 -3187 3188 0
-3188 3217 0
-493 -3188 3189 0
-3189 3218 0
-494 -3189 3190 0
-3190 3219 0
-495 -3190 3191 0
-3191 3220 0
-496 -3191 3192 0
-3192 3221 0
-497 -3192 3193 0
-3193 3222 0
-498 -3193 3194 0
-3194 3223 0
-499 -3194 3195 0
-3195 3224 0
-500 -3195 0
-472 3196 0
-3196 3225 0
-473 -3196 3197 0
-3197 3226 0
-474 -3197 3198 0
-3198 3227 0
-475 -3198 3199 0
-3199 3228 0
-476 -3199 3200 0
-3200 3229 0
-477 -3200 3201 0
-3201 3230 0
-478 -3201 3202 0
-3202 3231 0
-479 -3202 3203 0
-3203 3232 0
-480 -3203 3204 0
-3204 3233 0
-481 -3204 3205 0
-3205 3234 0
-482 -3205 3206 0
-3206 3235 0
-483 -3206 3207 0
-3207 3236 0
-484 -3207 3208 0
-3208 3237 0
-485 -3208 3209 0
-3209 3238 0
-486 -3209 3210 0
-3210 3239 0
-487 -3210 3211 0
-3211 3240 0
-488 -3211 3212 0
-3212 3241 0
-489 -3212 3213 0
-3213 3242 0
-490 -3213 3214 0
-3214 3243 0
-491 -3214 3215 0
-3215 3244 0
-492 -3215 3216 0
-3216 3245 0
-493 -3216 3217 0
-3217 3246 0
-494 -3217 3218 0
-3218 3247 0
-495 -3218 3219 0
-3219 3248 0
-496 -3219 3220 0
-3220 3249 0
-497 -3220 3221 0
-3221 3250 0
-498 -3221 3222 0
-3222 3251 0
-499 -3222 3223 0
-3223 3252 0
-500 -3223 3224 0
-3224 3253 0
-501 -3224 0
-473 3225 0
-3225 3254 0
-474 -3225 3226 0
-3226 3255 0
-475 -3226 3227 0
-3227 3256 0
-476 -3227 3228 0
-3228 3257 0
-477 -3228 3229 0
-3229 3258 0
-478 -3229 3230 0
-3230 3259 0
-479 -3230 3231 0
-3231 3260 0
-480 -3231 3232 0
-3232 3261 0
-481 -3232 3233 0
-3233 3262 0
-482 -3233 3234 0
-3234 3263 0
-483 -3234 3235 0
-3235 3264 0
-484 -3235 3236 0
-3236 3265 0
-485 -3236 3237 0
-3237 3266 0
-486 -3237 3238 0
-3238 3267 0
-487 -3238 3239 0
-3239 3268 0
-488 -3239 3240 0
-3240 3269 0
-489 -3240 3241 0
-3241 3270 0
-490 -3241 3242 0
-3242 3271 0
-491 -3242 3243 0
-3243 3272 0
-492 -3243 3244 0
-3244 3273 0
-493 -3244 3245 0
-3245 3274 0
-494 -3245 3246 0
-3246 3275 0
-495 -3246 3247 0
-3247 3276 0
-496 -3247 3248 0
-3248 3277 0
-497 -3248 3249 0
-3249 3278 0
-498 -3249 3250 0
-3250 3279 0
-499 -3250 3251 0
-3251 3280 0
-500 -3251 3252 0
-3252 3281 0
-501 -3252 3253 0
-3253 3282 0
-502 -3253 0
-474 3254 0
-3254 3283 0
-475 -3254 3255 0
-3255 3284 0
-476 -3255 3256 0
-3256 3285 0
-477 -3256 3257 0
-3257 3286 0
-478 -3257 3258 0
-3258 3287 0
-479 -3258 3259 0
-3259 3288 0
-480 -3259 3260 0
-3260 3289 0
-481 -3260 3261 0
-3261 3290 0
-482 -3261 3262 0
-3262 3291 0
-483 -3262 3263 0
-3263 3292 0
-484 -3263 3264 0
-3264 3293 0
-485 -3264 3265 0
-3265 3294 0
-486 -3265 3266 0
-3266 3295 0
-487 -3266 3267 0
-3267 3296 0
-488 -3267 3268 0
-3268 3297 0
-489 -3268 3269 0
-3269 3298 0
-490 -3269 3270 0
-3270 3299 0
-491 -3270 3271 0
-3271 3300 0
-492 -3271 3272 0
-3272 3301 0
-493 -3272 3273 0
-3273 3302 0
-494 -3273 3274 0
-3274 3303 0
-495 -3274 3275 0
-3275 3304 0
-496 -3275 3276 0
-3276 3305 0
-497 -3276 3277 0
-3277 3306 0
-498 -3277 3278 0
-3278 3307 0
-499 -3278 3279 0
-3279 3308 0
-500 -3279 3280 0
-3280 3309 0
-501 -3280 3281 0
-3281 3310 0
-502 -3281 3282 0
-3282 3311 0
-503 -3282 0
-475 3283 0
-3283 3312 0
-476 -3283 3284 0
-3284 3313 0
-477 -3284 3285 0
-3285 3314 0
-478 -3285 3286 0
-3286 3315 0
-479 -3286 3287 0
-3287 3316 0
-480 -3287 3288 0
-3288 3317 0
-481 -3288 3289 0
-3289 3318 0
-482 -3289 3290 0
-3290 3319 0
-483 -3290 3291 0
-3291 3320 0
-484 -3291 3292 0
-3292 3321 0
-485 -3292 3293 0
-3293 3322 0
-486 -3293 3294 0
-3294 3323 0
-487 -3294 3295 0
-3295 3324 0
-488 -3295 3296 0
-3296 3325 0
-489 -3296 3297 0
-3297 3326 0
-490 -3297 3298 0
-3298 3327 0
-491 -3298 3299 0
-3299 3328 0
-492 -3299 3300 0
-3300 3329 0
-493 -3300 3301 0
-3301 3330 0
-494 -3301 3302 0
-3302 3331 0
-495 -3302 3303 0
-3303 3332 0
-496 -3303 3304 0
-3304 3333 0
-497 -3304 3305 0
-3305 3334 0
-498 -3305 3306 0
-3306 3335 0
-499 -3306 3307 0
-3307 3336 0
-500 -3307 3308 0
-3308 3337 0
-501 -3308 3309 0
-3309 3338 0
-502 -3309 3310 0
-3310 3339 0
-503 -3310 3311 0
-3311 3340 0
-504 -3311 0
-476 3312 0
-3312 3341 0
-477 -3312 3313 0
-3313 3342 0
-478 -3313 3314 0
-3314 3343 0
-479 -3314 3315 0
-3315 3344 0
-480 -3315 3316 0
-3316 3345 0
-481 -3316 3317 0
-3317 3346 0
-482 -3317 3318 0
-3318 3347 0
-483 -3318 3319 0
-3319 3348 0
-484 -3319 3320 0
-3320 3349 0
-485 -3320 3321 0
-3321 3350 0
-486 -3321 3322 0
-3322 3351 0
-487 -3322 3323 0
-3323 3352 0
-488 -3323 3324 0
-3324 3353 0
-489 -3324 3325 0
-3325 3354 0
-490 -3325 3326 0
-3326 3355 0
-491 -3326 3327 0
-3327 3356 0
-492 -3327 3328 0
-3328 3357 0
-493 -3328 3329 0
-3329 3358 0
-494 -3329 3330 0
-3330 3359 0
-495 -3330 3331 0
-3331 3360 0
-496 -3331 3332 0
-3332 3361 0
-497 -3332 3333 0
-3333 3362 0
-498 -3333 3334 0
-3334 3363 0
-499 -3334 3335 0
-3335 3364 0
-500 -3335 3336 0
-3336 3365 0
-501 -3336 3337 0
-3337 3366 0
-502 -3337 3338 0
-3338 3367 0
-503 -3338 3339 0
-3339 3368 0
-504 -3339 3340 0
-3340 3369 0
-505 -3340 0
-477 3341 0
-3341 3370 0
-478 -3341 3342 0
-3342 3371 0
-479 -3342 3343 0
-3343 3372 0
-480 -3343 3344 0
-3344 3373 0
-481 -3344 3345 0
-3345 3374 0
-482 -3345 3346 0
-3346 3375 0
-483 -3346 3347 0
-3347 3376 0
-484 -3347 3348 0
-3348 3377 0
-485 -3348 3349 0
-3349 3378 0
-486 -3349 3350 0
-3350 3379 0
-487 -3350 3351 0
-3351 3380 0
-488 -3351 3352 0
-3352 3381 0
-489 -3352 3353 0
-3353 3382 0
-490 -3353 3354 0
-3354 3383 0
-491 -3354 3355 0
-3355 3384 0
-492 -3355 3356 0
-3356 3385 0
-493 -3356 3357 0
-3357 3386 0
-494 -3357 3358 0
-3358 3387 0
-495 -3358 3359 0
-3359 3388 0
-496 -3359 3360 0
-3360 3389 0
-497 -3360 3361 0
-3361 3390 0
-498 -3361 3362 0
-3362 3391 0
-499 -3362 3363 0
-3363 3392 0
-500 -3363 3364 0
-3364 3393 0
-501 -3364 3365 0
-3365 3394 0
-502 -3365 3366 0
-3366 3395 0
-503 -3366 3367 0
-3367 3396 0
-504 -3367 3368 0
-3368 3397 0
-505 -3368 3369 0
-3369 3398 0
-506 -3369 0
-478 3370 0
-3370 3399 0
-479 -3370 3371 0
-3371 3400 0
-480 -3371 3372 0
-3372 3401 0
-481 -3372 3373 0
-3373 3402 0
-482 -3373 3374 0
-3374 3403 0
-483 -3374 3375 0
-3375 3404 0
-484 -3375 3376 0
-3376 3405 0
-485 -3376 3377 0
-3377 3406 0
-486 -3377 3378 0
-3378 3407 0
-487 -3378 3379 0
-3379 3408 0
-488 -3379 3380 0
-3380 3409 0
-489 -3380 3381 0
-3381 3410 0
-490 -3381 3382 0
-3382 3411 0
-491 -3382 3383 0
-3383 3412 0
-492 -3383 3384 0
-3384 3413 0
-493 -3384 3385 0
-3385 3414 0
-494 -3385 3386 0
-3386 3415 0
-495 -3386 3387 0
-3387 3416 0
-496 -3387 3388 0
-3388 3417 0
-497 -3388 3389 0
-3389 3418 0
-498 -3389 3390 0
-3390 3419 0
-499 -3390 3391 0
-3391 3420 0
-500 -3391 3392 0
-3392 3421 0
-501 -3392 3393 0
-3393 3422 0
-502 -3393 3394 0
-3394 3423 0
-503 -3394 3395 0
-3395 3424 0
-504 -3395 3396 0
-3396 3425 0
-505 -3396 3397 0
-3397 3426 0
-506 -3397 3398 0
-3398 3427 0
-507 -3398 0
-479 3399 0
-3399 3428 0
-480 -3399 3400 0
-3400 3429 0
-481 -3400 3401 0
-3401 3430 0
-482 -3401 3402 0
-3402 3431 0
-483 -3402 3403 0
-3403 3432 0
-484 -3403 3404 0
-3404 3433 0
-485 -3404 3405 0
-3405 3434 0
-486 -3405 3406 0
-3406 3435 0
-487 -3406 3407 0
-3407 3436 0
-488 -3407 3408 0
-3408 3437 0
-489 -3408 3409 0
-3409 3438 0
-490 -3409 3410 0
-3410 3439 0
-491 -3410 3411 0
-3411 3440 0
-492 -3411 3412 0
-3412 3441 0
-493 -3412 3413 0
-3413 3442 0
-494 -3413 3414 0
-3414 3443 0
-495 -3414 3415 0
-3415 3444 0
-496 -3415 3416 0
-3416 3445 0
-497 -3416 3417 0
-3417 3446 0
-498 -3417 3418 0
-3418 3447 0
-499 -3418 3419 0
-3419 3448 0
-500 -3419 3420 0
-3420 3449 0
-501 -3420 3421 0
-3421 3450 0
-502 -3421 3422 0
-3422 3451 0
-503 -3422 3423 0
-3423 3452 0
-504 -3423 3424 0
-3424 3453 0
-505 -3424 3425 0
-3425 3454 0
-506 -3425 3426 0
-3426 3455 0
-507 -3426 3427 0
-3427 3456 0
-508 -3427 0
-480 3428 0
-3428 3457 0
-481 -3428 3429 0
-3429 3458 0
-482 -3429 3430 0
-3430 3459 0
-483 -3430 3431 0
-3431 3460 0
-484 -3431 3432 0
-3432 3461 0
-485 -3432 3433 0
-3433 3462 0
-486 -3433 3434 0
-3434 3463 0
-487 -3434 3435 0
-3435 3464 0
-488 -3435 3436 0
-3436 3465 0
-489 -3436 3437 0
-3437 3466 0
-490 -3437 3438 0
-3438 3467 0
-491 -3438 3439 0
-3439 3468 0
-492 -3439 3440 0
-3440 3469 0
-493 -3440 3441 0
-3441 3470 0
-494 -3441 3442 0
-3442 3471 0
-495 -3442 3443 0
-3443 3472 0
-496 -3443 3444 0
-3444 3473 0
-497 -3444 3445 0
-3445 3474 0
-498 -3445 3446 0
-3446 3475 0
-499 -3446 3447 0
-3447 3476 0
-500 -3447 3448 0
-3448 3477 0
-501 -3448 3449 0
-3449 3478 0
-502 -3449 3450 0
-3450 3479 0
-503 -3450 3451 0
-3451 3480 0
-504 -3451 3452 0
-3452 3481 0
-505 -3452 3453 0
-3453 3482 0
-506 -3453 3454 0
-3454 3483 0
-507 -3454 3455 0
-3455 3484 0
-508 -3455 3456 0
-3456 3485 0
-509 -3456 0
-481 3457 0
-3457 3486 0
-482 -3457 3458 0
-3458 3487 0
-483 -3458 3459 0
-3459 3488 0
-484 -3459 3460 0
-3460 3489 0
-485 -3460 3461 0
-3461 3490 0
-486 -3461 3462 0
-3462 3491 0
-487 -3462 3463 0
-3463 3492 0
-488 -3463 3464 0
-3464 3493 0
-489 -3464 3465 0
-3465 3494 0
-490 -3465 3466 0
-3466 3495 0
-491 -3466 3467 0
-3467 3496 0
-492 -3467 3468 0
-3468 3497 0
-493 -3468 3469 0
-3469 3498 0
-494 -3469 3470 0
-3470 3499 0
-495 -3470 3471 0
-3471 3500 0
-496 -3471 3472 0
-3472 3501 0
-497 -3472 3473 0
-3473 3502 0
-498 -3473 3474 0
-3474 3503 0
-499 -3474 3475 0
-3475 3504 0
-500 -3475 3476 0
-3476 3505 0
-501 -3476 3477 0
-3477 3506 0
-502 -3477 3478 0
-3478 3507 0
-503 -3478 3479 0
-3479 3508 0
-504 -3479 3480 0
-3480 3509 0
-505 -3480 3481 0
-3481 3510 0
-506 -3481 3482 0
-3482 3511 0
-507 -3482 3483 0
-3483 3512 0
-508 -3483 3484 0
-3484 3513 0
-509 -3484 3485 0
-3485 3514 0
-510 -3485 0
-482 3486 0
-3486 3515 0
-483 -3486 3487 0
-3487 3516 0
-484 -3487 3488 0
-3488 3517 0
-485 -3488 3489 0
-3489 3518 0
-486 -3489 3490 0
-3490 3519 0
-487 -3490 3491 0
-3491 3520 0
-488 -3491 3492 0
-3492 3521 0
-489 -3492 3493 0
-3493 3522 0
-490 -3493 3494 0
-3494 3523 0
-491 -3494 3495 0
-3495 3524 0
-492 -3495 3496 0
-3496 3525 0
-493 -3496 3497 0
-3497 3526 0
-494 -3497 3498 0
-3498 3527 0
-495 -3498 3499 0
-3499 3528 0
-496 -3499 3500 0
-3500 3529 0
-497 -3500 3501 0
-3501 3530 0
-498 -3501 3502 0
-3502 3531 0
-499 -3502 3503 0
-3503 3532 0
-500 -3503 3504 0
-3504 3533 0
-501 -3504 3505 0
-3505 3534 0
-502 -3505 3506 0
-3506 3535 0
-503 -3506 3507 0
-3507 3536 0
-504 -3507 3508 0
-3508 3537 0
-505 -3508 3509 0
-3509 3538 0
-506 -3509 3510 0
-3510 3539 0
-507 -3510 3511 0
-3511 3540 0
-508 -3511 3512 0
-3512 3541 0
-509 -3512 3513 0
-3513 3542 0
-510 -3513 3514 0
-3514 3543 0
-511 -3514 0
-483 3515 0
-3515 3544 0
-484 -3515 3516 0
-3516 3545 0
-485 -3516 3517 0
-3517 3546 0
-486 -3517 3518 0
-3518 3547 0
-487 -3518 3519 0
-3519 3548 0
-488 -3519 3520 0
-3520 3549 0
-489 -3520 3521 0
-3521 3550 0
-490 -3521 3522 0
-3522 3551 0
-491 -3522 3523 0
-3523 3552 0
-492 -3523 3524 0
-3524 3553 0
-493 -3524 3525 0
-3525 3554 0
-494 -3525 3526 0
-3526 3555 0
-495 -3526 3527 0
-3527 3556 0
-496 -3527 3528 0
-3528 3557 0
-497 -3528 3529 0
-3529 3558 0
-498 -3529 3530 0
-3530 3559 0
-499 -3530 3531 0
-3531 3560 0
-500 -3531 3532 0
-3532 3561 0
-501 -3532 3533 0
-3533 3562 0
-502 -3533 3534 0
-3534 3563 0
-503 -3534 3535 0
-3535 3564 0
-504 -3535 3536 0
-3536 3565 0
-505 -3536 3537 0
-3537 3566 0
-506 -3537 3538 0
-3538 3567 0
-507 -3538 3539 0
-3539 3568 0
-508 -3539 3540 0
-3540 3569 0
-509 -3540 3541 0
-3541 3570 0
-510 -3541 3542 0
-3542 3571 0
-511 -3542 3543 0
-3543 3572 0
-512 -3543 0
-484 3544 0
-3544 3573 0
-485 -3544 3545 0
-3545 3574 0
-486 -3545 3546 0
-3546 3575 0
-487 -3546 3547 0
-3547 3576 0
-488 -3547 3548 0
-3548 3577 0
-489 -3548 3549 0
-3549 3578 0
-490 -3549 3550 0
-3550 3579 0
-491 -3550 3551 0
-3551 3580 0
-492 -3551 3552 0
-3552 3581 0
-493 -3552 3553 0
-3553 3582 0
-494 -3553 3554 0
-3554 3583 0
-495 -3554 3555 0
-3555 3584 0
-496 -3555 3556 0
-3556 3585 0
-497 -3556 3557 0
-3557 3586 0
-498 -3557 3558 0
-3558 3587 0
-499 -3558 3559 0
-3559 3588 0
-500 -3559 3560 0
-3560 3589 0
-501 -3560 3561 0
-3561 3590 0
-502 -3561 3562 0
-3562 3591 0
-503 -3562 3563 0
-3563 3592 0
-504 -3563 3564 0
-3564 3593 0
-505 -3564 3565 0
-3565 3594 0
-506 -3565 3566 0
-3566 3595 0
-507 -3566 3567 0
-3567 3596 0
-508 -3567 3568 0
-3568 3597 0
-509 -3568 3569 0
-3569 3598 0
-510 -3569 3570 0
-3570 3599 0
-511 -3570 3571 0
-3571 3600 0
-512 -3571 3572 0
-3572 3601 0
-513 -3572 0
-485 3573 0
-3573 3602 0
-486 -3573 3574 0
-3574 3603 0
-487 -3574 3575 0
-3575 3604 0
-488 -3575 3576 0
-3576 3605 0
-489 -3576 3577 0
-3577 3606 0
-490 -3577 3578 0
-3578 3607 0
-491 -3578 3579 0
-3579 3608 0
-492 -3579 3580 0
-3580 3609 0
-493 -3580 3581 0
-3581 3610 0
-494 -3581 3582 0
-3582 3611 0
-495 -3582 3583 0
-3583 3612 0
-496 -3583 3584 0
-3584 3613 0
-497 -3584 3585 0
-3585 3614 0
-498 -3585 3586 0
-3586 3615 0
-499 -3586 3587 0
-3587 3616 0
-500 -3587 3588 0
-3588 3617 0
-501 -3588 3589 0
-3589 3618 0
-502 -3589 3590 0
-3590 3619 0
-503 -3590 3591 0
-3591 3620 0
-504 -3591 3592 0
-3592 3621 0
-505 -3592 3593 0
-3593 3622 0
-506 -3593 3594 0
-3594 3623 0
-507 -3594 3595 0
-3595 3624 0
-508 -3595 3596 0
-3596 3625 0
-509 -3596 3597 0
-3597 3626 0
-510 -3597 3598 0
-3598 3627 0
-511 -3598 3599 0
-3599 3628 0
-512 -3599 3600 0
-3600 3629 0
-513 -3600 3601 0
-3601 3630 0
-514 -3601 0
-486 3602 0
-3602 3631 0
-487 -3602 3603 0
-3603 3632 0
-488 -3603 3604 0
-3604 3633 0
-489 -3604 3605 0
-3605 3634 0
-490 -3605 3606 0
-3606 3635 0
-491 -3606 3607 0
-3607 3636 0
-492 -3607 3608 0
-3608 3637 0
-493 -3608 3609 0
-3609 3638 0
-494 -3609 3610 0
-3610 3639 0
-495 -3610 3611 0
-3611 3640 0
-496 -3611 3612 0
-3612 3641 0
-497 -3612 3613 0
-3613 3642 0
-498 -3613 3614 0
-3614 3643 0
-499 -3614 3615 0
-3615 3644 0
-500 -3615 3616 0
-3616 3645 0
-501 -3616 3617 0
-3617 3646 0
-502 -3617 3618 0
-3618 3647 0
-503 -3618 3619 0
-3619 3648 0
-504 -3619 3620 0
-3620 3649 0
-505 -3620 3621 0
-3621 3650 0
-506 -3621 3622 0
-3622 3651 0
-507 -3622 3623 0
-3623 3652 0
-508 -3623 3624 0
-3624 3653 0
-509 -3624 3625 0
-3625 3654 0
-510 -3625 3626 0
-3626 3655 0
-511 -3626 3627 0
-3627 3656 0
-512 -3627 3628 0
-3628 3657 0
-513 -3628 3629 0
-3629 3658 0
-514 -3629 3630 0
-3630 3659 0
-515 -3630 0
-487 3631 0
-3631 3660 0
-488 -3631 3632 0
-3632 3661 0
-489 -3632 3633 0
-3633 3662 0
-490 -3633 3634 0
-3634 3663 0
-491 -3634 3635 0
-3635 3664 0
-492 -3635 3636 0
-3636 3665 0
-493 -3636 3637 0
-3637 3666 0
-494 -3637 3638 0
-3638 3667 0
-495 -3638 3639 0
-3639 3668 0
-496 -3639 3640 0
-3640 3669 0
-497 -3640 3641 0
-3641 3670 0
-498 -3641 3642 0
-3642 3671 0
-499 -3642 3643 0
-3643 3672 0
-500 -3643 3644 0
-3644 3673 0
-501 -3644 3645 0
-3645 3674 0
-502 -3645 3646 0
-3646 3675 0
-503 -3646 3647 0
-3647 3676 0
-504 -3647 3648 0
-3648 3677 0
-505 -3648 3649 0
-3649 3678 0
-506 -3649 3650 0
-3650 3679 0
-507 -3650 3651 0
-3651 3680 0
-508 -3651 3652 0
-3652 3681 0
-509 -3652 3653 0
-3653 3682 0
-510 -3653 3654 0
-3654 3683 0
-511 -3654 3655 0
-3655 3684 0
-512 -3655 3656 0
-3656 3685 0
-513 -3656 3657 0
-3657 3686 0
-514 -3657 3658 0
-3658 3687 0
-515 -3658 3659 0
-3659 3688 0
-516 -3659 0
-488 3660 0
-3660 3689 0
-489 -3660 3661 0
-3661 3690 0
-490 -3661 3662 0
-3662 3691 0
-491 -3662 3663 0
-3663 3692 0
-492 -3663 3664 0
-3664 3693 0
-493 -3664 3665 0
-3665 3694 0
-494 -3665 3666 0
-3666 3695 0
-495 -3666 3667 0
-3667 3696 0
-496 -3667 3668 0
-3668 3697 0
-497 -3668 3669 0
-3669 3698 0
-498 -3669 3670 0
-3670 3699 0
-499 -3670 3671 0
-3671 3700 0
-500 -3671 3672 0
-3672 3701 0
-501 -3672 3673 0
-3673 3702 0
-502 -3673 3674 0
-3674 3703 0
-503 -3674 3675 0
-3675 3704 0
-504 -3675 3676 0
-3676 3705 0
-505 -3676 3677 0
-3677 3706 0
-506 -3677 3678 0
-3678 3707 0
-507 -3678 3679 0
-3679 3708 0
-508 -3679 3680 0
-3680 3709 0
-509 -3680 3681 0
-3681 3710 0
-510 -3681 3682 0
-3682 3711 0
-511 -3682 3683 0
-3683 3712 0
-512 -3683 3684 0
-3684 3713 0
-513 -3684 3685 0
-3685 3714 0
-514 -3685 3686 0
-3686 3715 0
-515 -3686 3687 0
-3687 3716 0
-516 -3687 3688 0
-3688 3717 0
-517 -3688 0
-489 3689 0
-3689 3718 0
-490 -3689 3690 0
-3690 3719 0
-491 -3690 3691 0
-3691 3720 0
-492 -3691 3692 0
-3692 3721 0
-493 -3692 3693 0
-3693 3722 0
-494 -3693 3694 0
-3694 3723 0
-495 -3694 3695 0
-3695 3724 0
-496 -3695 3696 0
-3696 3725 0
-497 -3696 3697 0
-3697 3726 0
-498 -3697 3698 0
-3698 3727 0
-499 -3698 3699 0
-3699 3728 0
-500 -3699 3700 0
-3700 3729 0
-501 -3700 3701 0
-3701 3730 0
-502 -3701 3702 0
-3702 3731 0
-503 -3702 3703 0
-3703 3732 0
-504 -3703 3704 0
-3704 3733 0
-505 -3704 3705 0
-3705 3734 0
-506 -3705 3706 0
-3706 3735 0
-507 -3706 3707 0
-3707 3736 0
-508 -3707 3708 0
-3708 3737 0
-509 -3708 3709 0
-3709 3738 0
-510 -3709 3710 0
-3710 3739 0
-511 -3710 3711 0
-3711 3740 0
-512 -3711 3712 0
-3712 3741 0
-513 -3712 3713 0
-3713 3742 0
-514 -3713 3714 0
-3714 3743 0
-515 -3714 3715 0
-3715 3744 0
-516 -3715 3716 0
-3716 3745 0
-517 -3716 3717 0
-3717 3746 0
-518 -3717 0
-490 3718 0
-3718 3747 0
-491 -3718 3719 0
-3719 3748 0
-492 -3719 3720 0
-3720 3749 0
-493 -3720 3721 0
-3721 3750 0
-494 -3721 3722 0
-3722 3751 0
-495 -3722 3723 0
-3723 3752 0
-496 -3723 3724 0
-3724 3753 0
-497 -3724 3725 0
-3725 3754 0
-498 -3725 3726 0
-3726 3755 0
-499 -3726 3727 0
-3727 3756 0
-500 -3727 3728 0
-3728 3757 0
-501 -3728 3729 0
-3729 3758 0
-502 -3729 3730 0
-3730 3759 0
-503 -3730 3731 0
-3731 3760 0
-504 -3731 3732 0
-3732 3761 0
-505 -3732 3733 0
-3733 3762 0
-506 -3733 3734 0
-3734 3763 0
-507 -3734 3735 0
-3735 3764 0
-508 -3735 3736 0
-3736 3765 0
-509 -3736 3737 0
-3737 3766 0
-510 -3737 3738 0
-3738 3767 0
-511 -3738 3739 0
-3739 3768 0
-512 -3739 3740 0
-3740 3769 0
-513 -3740 3741 0
-3741 3770 0
-514 -3741 3742 0
-3742 3771 0
-515 -3742 3743 0
-3743 3772 0
-516 -3743 3744 0
-3744 3773 0
-517 -3744 3745 0
-3745 3774 0
-518 -3745 3746 0
-3746 3775 0
-519 -3746 0
-491 3747 0
-3747 3776 0
-492 -3747 3748 0
-3748 3777 0
-493 -3748 3749 0
-3749 3778 0
-494 -3749 3750 0
-3750 3779 0
-495 -3750 3751 0
-3751 3780 0
-496 -3751 3752 0
-3752 3781 0
-497 -3752 3753 0
-3753 3782 0
-498 -3753 3754 0
-3754 3783 0
-499 -3754 3755 0
-3755 3784 0
-500 -3755 3756 0
-3756 3785 0
-501 -3756 3757 0
-3757 3786 0
-502 -3757 3758 0
-3758 3787 0
-503 -3758 3759 0
-3759 3788 0
-504 -3759 3760 0
-3760 3789 0
-505 -3760 3761 0
-3761 3790 0
-506 -3761 3762 0
-3762 3791 0
-507 -3762 3763 0
-3763 3792 0
-508 -3763 3764 0
-3764 3793 0
-509 -3764 3765 0
-3765 3794 0
-510 -3765 3766 0
-3766 3795 0
-511 -3766 3767 0
-3767 3796 0
-512 -3767 3768 0
-3768 3797 0
-513 -3768 3769 0
-3769 3798 0
-514 -3769 3770 0
-3770 3799 0
-515 -3770 3771 0
-3771 3800 0
-516 -3771 3772 0
-3772 3801 0
-517 -3772 3773 0
-3773 3802 0
-518 -3773 3774 0
-3774 3803 0
-519 -3774 3775 0
-3775 3804 0
-520 -3775 0
-492 3776 0
-3776 3805 0
-493 -3776 3777 0
-3777 3806 0
-494 -3777 3778 0
-3778 3807 0
-495 -3778 3779 0
-3779 3808 0
-496 -3779 3780 0
-3780 3809 0
-497 -3780 3781 0
-3781 3810 0
-498 -3781 3782 0
-3782 3811 0
-499 -3782 3783 0
-3783 3812 0
-500 -3783 3784 0
-3784 3813 0
-501 -3784 3785 0
-3785 3814 0
-502 -3785 3786 0
-3786 3815 0
-503 -3786 3787 0
-3787 3816 0
-504 -3787 3788 0
-3788 3817 0
-505 -3788 3789 0
-3789 3818 0
-506 -3789 3790 0
-3790 3819 0
-507 -3790 3791 0
-3791 3820 0
-508 -3791 3792 0
-3792 3821 0
-509 -3792 3793 0
-3793 3822 0
-510 -3793 3794 0
-3794 3823 0
-511 -3794 3795 0
-3795 3824 0
-512 -3795 3796 0
-3796 3825 0
-513 -3796 3797 0
-3797 3826 0
-514 -3797 3798 0
-3798 3827 0
-515 -3798 3799 0
-3799 3828 0
-516 -3799 3800 0
-3800 3829 0
-517 -3800 3801 0
-3801 3830 0
-518 -3801 3802 0
-3802 3831 0
-519 -3802 3803 0
-3803 3832 0
-520 -3803 3804 0
-3804 3833 0
-521 -3804 0
-493 3805 0
-3805 3834 0
-494 -3805 3806 0
-3806 3835 0
-495 -3806 3807 0
-3807 3836 0
-496 -3807 3808 0
-3808 3837 0
-497 -3808 3809 0
-3809 3838 0
-498 -3809 3810 0
-3810 3839 0
-499 -3810 3811 0
-3811 3840 0
-500 -3811 3812 0
-3812 3841 0
-501 -3812 3813 0
-3813 3842 0
-502 -3813 3814 0
-3814 3843 0
-503 -3814 3815 0
-3815 3844 0
-504 -3815 3816 0
-3816 3845 0
-505 -3816 3817 0
-3817 3846 0
-506 -3817 3818 0
-3818 3847 0
-507 -3818 3819 0
-3819 3848 0
-508 -3819 3820 0
-3820 3849 0
-509 -3820 3821 0
-3821 3850 0
-510 -3821 3822 0
-3822 3851 0
-511 -3822 3823 0
-3823 3852 0
-512 -3823 3824 0
-3824 3853 0
-513 -3824 3825 0
-3825 3854 0
-514 -3825 3826 0
-3826 3855 0
-515 -3826 3827 0
-3827 3856 0
-516 -3827 3828 0
-3828 3857 0
-517 -3828 3829 0
-3829 3858 0
-518 -3829 3830 0
-3830 3859 0
-519 -3830 3831 0
-3831 3860 0
-520 -3831 3832 0
-3832 3861 0
-521 -3832 3833 0
-3833 3862 0
-522 -3833 0
-494 3834 0
-3834 3863 0
-495 -3834 3835 0
-3835 3864 0
-496 -3835 3836 0
-3836 3865 0
-497 -3836 3837 0
-3837 3866 0
-498 -3837 3838 0
-3838 3867 0
-499 -3838 3839 0
-3839 3868 0
-500 -3839 3840 0
-3840 3869 0
-501 -3840 3841 0
-3841 3870 0
-502 -3841 3842 0
-3842 3871 0
-503 -3842 3843 0
-3843 3872 0
-504 -3843 3844 0
-3844 3873 0
-505 -3844 3845 0
-3845 3874 0
-506 -3845 3846 0
-3846 3875 0
-507 -3846 3847 0
-3847 3876 0
-508 -3847 3848 0
-3848 3877 0
-509 -3848 3849 0
-3849 3878 0
-510 -3849 3850 0
-3850 3879 0
-511 -3850 3851 0
-3851 3880 0
-512 -3851 3852 0
-3852 3881 0
-513 -3852 3853 0
-3853 3882 0
-514 -3853 3854 0
-3854 3883 0
-515 -3854 3855 0
-3855 3884 0
-516 -3855 3856 0
-3856 3885 0
-517 -3856 3857 0
-3857 3886 0
-518 -3857 3858 0
-3858 3887 0
-519 -3858 3859 0
-3859 3888 0
-520 -3859 3860 0
-3860 3889 0
-521 -3860 3861 0
-3861 3890 0
-522 -3861 3862 0
-3862 3891 0
-523 -3862 0
-495 3863 0
-3863 3892 0
-496 -3863 3864 0
-3864 3893 0
-497 -3864 3865 0
-3865 3894 0
-498 -3865 3866 0
-3866 3895 0
-499 -3866 3867 0
-3867 3896 0
-500 -3867 3868 0
-3868 3897 0
-501 -3868 3869 0
-3869 3898 0
-502 -3869 3870 0
-3870 3899 0
-503 -3870 3871 0
-3871 3900 0
-504 -3871 3872 0
-3872 3901 0
-505 -3872 3873 0
-3873 3902 0
-506 -3873 3874 0
-3874 3903 0
-507 -3874 3875 0
-3875 3904 0
-508 -3875 3876 0
-3876 3905 0
-509 -3876 3877 0
-3877 3906 0
-510 -3877 3878 0
-3878 3907 0
-511 -3878 3879 0
-3879 3908 0
-512 -3879 3880 0
-3880 3909 0
-513 -3880 3881 0
-3881 3910 0
-514 -3881 3882 0
-3882 3911 0
-515 -3882 3883 0
-3883 3912 0
-516 -3883 3884 0
-3884 3913 0
-517 -3884 3885 0
-3885 3914 0
-518 -3885 3886 0
-3886 3915 0
-519 -3886 3887 0
-3887 3916 0
-520 -3887 3888 0
-3888 3917 0
-521 -3888 3889 0
-3889 3918 0
-522 -3889 3890 0
-3890 3919 0
-523 -3890 3891 0
-3891 3920 0
-524 -3891 0
-496 3892 0
-3892 3921 0
-497 -3892 3893 0
-3893 3922 0
-498 -3893 3894 0
-3894 3923 0
-499 -3894 3895 0
-3895 3924 0
-500 -3895 3896 0
-3896 3925 0
-501 -3896 3897 0
-3897 3926 0
-502 -3897 3898 0
-3898 3927 0
-503 -3898 3899 0
-3899 3928 0
-504 -3899 3900 0
-3900 3929 0
-505 -3900 3901 0
-3901 3930 0
-506 -3901 3902 0
-3902 3931 0
-507 -3902 3903 0
-3903 3932 0
-508 -3903 3904 0
-3904 3933 0
-509 -3904 3905 0
-3905 3934 0
-510 -3905 3906 0
-3906 3935 0
-511 -3906 3907 0
-3907 3936 0
-512 -3907 3908 0
-3908 3937 0
-513 -3908 3909 0
-3909 3938 0
-514 -3909 3910 0
-3910 3939 0
-515 -3910 3911 0
-3911 3940 0
-516 -3911 3912 0
-3912 3941 0
-517 -3912 3913 0
-3913 3942 0
-518 -3913 3914 0
-3914 3943 0
-519 -3914 3915 0
-3915 3944 0
-520 -3915 3916 0
-3916 3945 0
-521 -3916 3917 0
-3917 3946 0
-522 -3917 3918 0
-3918 3947 0
-523 -3918 3919 0
-3919 3948 0
-524 -3919 3920 0
-3920 3949 0
-525 -3920 0
-497 3921 0
-3921 3950 0
-498 -3921 3922 0
-3922 3951 0
-499 -3922 3923 0
-3923 3952 0
-500 -3923 3924 0
-3924 3953 0
-501 -3924 3925 0
-3925 3954 0
-502 -3925 3926 0
-3926 3955 0
-503 -3926 3927 0
-3927 3956 0
-504 -3927 3928 0
-3928 3957 0
-505 -3928 3929 0
-3929 3958 0
-506 -3929 3930 0
-3930 3959 0
-507 -3930 3931 0
-3931 3960 0
-508 -3931 3932 0
-3932 3961 0
-509 -3932 3933 0
-3933 3962 0
-510 -3933 3934 0
-3934 3963 0
-511 -3934 3935 0
-3935 3964 0
-512 -3935 3936 0
-3936 3965 0
-513 -3936 3937 0
-3937 3966 0
-514 -3937 3938 0
-3938 3967 0
-515 -3938 3939 0
-3939 3968 0
-516 -3939 3940 0
-3940 3969 0
-517 -3940 3941 0
-3941 3970 0
-518 -3941 3942 0
-3942 3971 0
-519 -3942 3943 0
-3943 3972 0
-520 -3943 3944 0
-3944 3973 0
-521 -3944 3945 0
-3945 3974 0
-522 -3945 3946 0
-3946 3975 0
-523 -3946 3947 0
-3947 3976 0
-524 -3947 3948 0
-3948 3977 0
-525 -3948 3949 0
-3949 3978 0
-526 -3949 0
-498 3950 0
-3950 3979 0
-499 -3950 3951 0
-3951 3980 0
-500 -3951 3952 0
-3952 3981 0
-501 -3952 3953 0
-3953 3982 0
-502 -3953 3954 0
-3954 3983 0
-503 -3954 3955 0
-3955 3984 0
-504 -3955 3956 0
-3956 3985 0
-505 -3956 3957 0
-3957 3986 0
-506 -3957 3958 0
-3958 3987 0
-507 -3958 3959 0
-3959 3988 0
-508 -3959 3960 0
-3960 3989 0
-509 -3960 3961 0
-3961 3990 0
-510 -3961 3962 0
-3962 3991 0
-511 -3962 3963 0
-3963 3992 0
-512 -3963 3964 0
-3964 3993 0
-513 -3964 3965 0
-3965 3994 0
-514 -3965 3966 0
-3966 3995 0
-515 -3966 3967 0
-3967 3996 0
-516 -3967 3968 0
-3968 3997 0
-517 -3968 3969 0
-3969 3998 0
-518 -3969 3970 0
-3970 3999 0
-519 -3970 3971 0
-3971 4000 0
-520 -3971 3972 0
-3972 4001 0
-521 -3972 3973 0
-3973 4002 0
-522 -3973 3974 0
-3974 4003 0
-523 -3974 3975 0
-3975 4004 0
-524 -3975 3976 0
-3976 4005 0
-525 -3976 3977 0
-3977 4006 0
-526 -3977 3978 0
-3978 4007 0
-527 -3978 0
-499 3979 0
-3979 4008 0
-500 -3979 3980 0
-3980 4009 0
-501 -3980 3981 0
-3981 4010 0
-502 -3981 3982 0
-3982 4011 0
-503 -3982 3983 0
-3983 4012 0
-504 -3983 3984 0
-3984 4013 0
-505 -3984 3985 0
-3985 4014 0
-506 -3985 3986 0
-3986 4015 0
-507 -3986 3987 0
-3987 4016 0
-508 -3987 3988 0
-3988 4017 0
-509 -3988 3989 0
-3989 4018 0
-510 -3989 3990 0
-3990 4019 0
-511 -3990 3991 0
-3991 4020 0
-512 -3991 3992 0
-3992 4021 0
-513 -3992 3993 0
-3993 4022 0
-514 -3993 3994 0
-3994 4023 0
-515 -3994 3995 0
-3995 4024 0
-516 -3995 3996 0
-3996 4025 0
-517 -3996 3997 0
-3997 4026 0
-518 -3997 3998 0
-3998 4027 0
-519 -3998 3999 0
-3999 4028 0
-520 -3999 4000 0
-4000 4029 0
-521 -4000 4001 0
-4001 4030 0
-522 -4001 4002 0
-4002 4031 0
-523 -4002 4003 0
-4003 4032 0
-524 -4003 4004 0
-4004 4033 0
-525 -4004 4005 0
-4005 4034 0
-526 -4005 4006 0
-4006 4035 0
-527 -4006 4007 0
-4007 4036 0
-528 -4007 0
-500 4008 0
-4008 4037 0
-501 -4008 4009 0
-4009 4038 0
-502 -4009 4010 0
-4010 4039 0
-503 -4010 4011 0
-4011 4040 0
-504 -4011 4012 0
-4012 4041 0
-505 -4012 4013 0
-4013 4042 0
-506 -4013 4014 0
-4014 4043 0
-507 -4014 4015 0
-4015 4044 0
-508 -4015 4016 0
-4016 4045 0
-509 -4016 4017 0
-4017 4046 0
-510 -4017 4018 0
-4018 4047 0
-511 -4018 4019 0
-4019 4048 0
-512 -4019 4020 0
-4020 4049 0
-513 -4020 4021 0
-4021 4050 0
-514 -4021 4022 0
-4022 4051 0
-515 -4022 4023 0
-4023 4052 0
-516 -4023 4024 0
-4024 4053 0
-517 -4024 4025 0
-4025 4054 0
-518 -4025 4026 0
-4026 4055 0
-519 -4026 4027 0
-4027 4056 0
-520 -4027 4028 0
-4028 4057 0
-521 -4028 4029 0
-4029 4058 0
-522 -4029 4030 0
-4030 4059 0
-523 -4030 4031 0
-4031 4060 0
-524 -4031 4032 0
-4032 4061 0
-525 -4032 4033 0
-4033 4062 0
-526 -4033 4034 0
-4034 4063 0
-527 -4034 4035 0
-4035 4064 0
-528 -4035 4036 0
-4036 4065 0
-529 -4036 0
-501 4037 0
-4037 4066 0
-502 -4037 4038 0
-4038 4067 0
-503 -4038 4039 0
-4039 4068 0
-504 -4039 4040 0
-4040 4069 0
-505 -4040 4041 0
-4041 4070 0
-506 -4041 4042 0
-4042 4071 0
-507 -4042 4043 0
-4043 4072 0
-508 -4043 4044 0
-4044 4073 0
-509 -4044 4045 0
-4045 4074 0
-510 -4045 4046 0
-4046 4075 0
-511 -4046 4047 0
-4047 4076 0
-512 -4047 4048 0
-4048 4077 0
-513 -4048 4049 0
-4049 4078 0
-514 -4049 4050 0
-4050 4079 0
-515 -4050 4051 0
-4051 4080 0
-516 -4051 4052 0
-4052 4081 0
-517 -4052 4053 0
-4053 4082 0
-518 -4053 4054 0
-4054 4083 0
-519 -4054 4055 0
-4055 4084 0
-520 -4055 4056 0
-4056 4085 0
-521 -4056 4057 0
-4057 4086 0
-522 -4057 4058 0
-4058 4087 0
-523 -4058 4059 0
-4059 4088 0
-524 -4059 4060 0
-4060 4089 0
-525 -4060 4061 0
-4061 4090 0
-526 -4061 4062 0
-4062 4091 0
-527 -4062 4063 0
-4063 4092 0
-528 -4063 4064 0
-4064 4093 0
-529 -4064 4065 0
-4065 4094 0
-530 -4065 0
-502 4066 0
-4066 4095 0
-503 -4066 4067 0
-4067 4096 0
-504 -4067 4068 0
-4068 4097 0
-505 -4068 4069 0
-4069 4098 0
-506 -4069 4070 0
-4070 4099 0
-507 -4070 4071 0
-4071 4100 0
-508 -4071 4072 0
-4072 4101 0
-509 -4072 4073 0
-4073 4102 0
-510 -4073 4074 0
-4074 4103 0
-511 -4074 4075 0
-4075 4104 0
-512 -4075 4076 0
-4076 4105 0
-513 -4076 4077 0
-4077 4106 0
-514 -4077 4078 0
-4078 4107 0
-515 -4078 4079 0
-4079 4108 0
-516 -4079 4080 0
-4080 4109 0
-517 -4080 4081 0
-4081 4110 0
-518 -4081 4082 0
-4082 4111 0
-519 -4082 4083 0
-4083 4112 0
-520 -4083 4084 0
-4084 4113 0
-521 -4084 4085 0
-4085 4114 0
-522 -4085 4086 0
-4086 4115 0
-523 -4086 4087 0
-4087 4116 0
-524 -4087 4088 0
-4088 4117 0
-525 -4088 4089 0
-4089 4118 0
-526 -4089 4090 0
-4090 4119 0
-527 -4090 4091 0
-4091 4120 0
-528 -4091 4092 0
-4092 4121 0
-529 -4092 4093 0
-4093 4122 0
-530 -4093 4094 0
-4094 4123 0
-531 -4094 0
-503 4095 0
-4095 4124 0
-504 -4095 4096 0
-4096 4125 0
-505 -4096 4097 0
-4097 4126 0
-506 -4097 4098 0
-4098 4127 0
-507 -4098 4099 0
-4099 4128 0
-508 -4099 4100 0
-4100 4129 0
-509 -4100 4101 0
-4101 4130 0
-510 -4101 4102 0
-4102 4131 0
-511 -4102 4103 0
-4103 4132 0
-512 -4103 4104 0
-4104 4133 0
-513 -4104 4105 0
-4105 4134 0
-514 -4105 4106 0
-4106 4135 0
-515 -4106 4107 0
-4107 4136 0
-516 -4107 4108 0
-4108 4137 0
-517 -4108 4109 0
-4109 4138 0
-518 -4109 4110 0
-4110 4139 0
-519 -4110 4111 0
-4111 4140 0
-520 -4111 4112 0
-4112 4141 0
-521 -4112 4113 0
-4113 4142 0
-522 -4113 4114 0
-4114 4143 0
-523 -4114 4115 0
-4115 4144 0
-524 -4115 4116 0
-4116 4145 0
-525 -4116 4117 0
-4117 4146 0
-526 -4117 4118 0
-4118 4147 0
-527 -4118 4119 0
-4119 4148 0
-528 -4119 4120 0
-4120 4149 0
-529 -4120 4121 0
-4121 4150 0
-530 -4121 4122 0
-4122 4151 0
-531 -4122 4123 0
-4123 4152 0
-532 -4123 0
-504 4124 0
-4124 4153 0
-505 -4124 4125 0
-4125 4154 0
-506 -4125 4126 0
-4126 4155 0
-507 -4126 4127 0
-4127 4156 0
-508 -4127 4128 0
-4128 4157 0
-509 -4128 4129 0
-4129 4158 0
-510 -4129 4130 0
-4130 4159 0
-511 -4130 4131 0
-4131 4160 0
-512 -4131 4132 0
-4132 4161 0
-513 -4132 4133 0
-4133 4162 0
-514 -4133 4134 0
-4134 4163 0
-515 -4134 4135 0
-4135 4164 0
-516 -4135 4136 0
-4136 4165 0
-517 -4136 4137 0
-4137 4166 0
-518 -4137 4138 0
-4138 4167 0
-519 -4138 4139 0
-4139 4168 0
-520 -4139 4140 0
-4140 4169 0
-521 -4140 4141 0
-4141 4170 0
-522 -4141 4142 0
-4142 4171 0
-523 -4142 4143 0
-4143 4172 0
-524 -4143 4144 0
-4144 4173 0
-525 -4144 4145 0
-4145 4174 0
-526 -4145 4146 0
-4146 4175 0
-527 -4146 4147 0
-4147 4176 0
-528 -4147 4148 0
-4148 4177 0
-529 -4148 4149 0
-4149 4178 0
-530 -4149 4150 0
-4150 4179 0
-531 -4150 4151 0
-4151 4180 0
-532 -4151 4152 0
-4152 4181 0
-533 -4152 0
-505 4153 0
-4153 4182 0
-506 -4153 4154 0
-4154 4183 0
-507 -4154 4155 0
-4155 4184 0
-508 -4155 4156 0
-4156 4185 0
-509 -4156 4157 0
-4157 4186 0
-510 -4157 4158 0
-4158 4187 0
-511 -4158 4159 0
-4159 4188 0
-512 -4159 4160 0
-4160 4189 0
-513 -4160 4161 0
-4161 4190 0
-514 -4161 4162 0
-4162 4191 0
-515 -4162 4163 0
-4163 4192 0
-516 -4163 4164 0
-4164 4193 0
-517 -4164 4165 0
-4165 4194 0
-518 -4165 4166 0
-4166 4195 0
-519 -4166 4167 0
-4167 4196 0
-520 -4167 4168 0
-4168 4197 0
-521 -4168 4169 0
-4169 4198 0
-522 -4169 4170 0
-4170 4199 0
-523 -4170 4171 0
-4171 4200 0
-524 -4171 4172 0
-4172 4201 0
-525 -4172 4173 0
-4173 4202 0
-526 -4173 4174 0
-4174 4203 0
-527 -4174 4175 0
-4175 4204 0
-528 -4175 4176 0
-4176 4205 0
-529 -4176 4177 0
-4177 4206 0
-530 -4177 4178 0
-4178 4207 0
-531 -4178 4179 0
-4179 4208 0
-532 -4179 4180 0
-4180 4209 0
-533 -4180 4181 0
-4181 4210 0
-534 -4181 0
-506 4182 0
-4182 4211 0
-507 -4182 4183 0
-4183 4212 0
-508 -4183 4184 0
-4184 4213 0
-509 -4184 4185 0
-4185 4214 0
-510 -4185 4186 0
-4186 4215 0
-511 -4186 4187 0
-4187 4216 0
-512 -4187 4188 0
-4188 4217 0
-513 -4188 4189 0
-4189 4218 0
-514 -4189 4190 0
-4190 4219 0
-515 -4190 4191 0
-4191 4220 0
-516 -4191 4192 0
-4192 4221 0
-517 -4192 4193 0
-4193 4222 0
-518 -4193 4194 0
-4194 4223 0
-519 -4194 4195 0
-4195 4224 0
-520 -4195 4196 0
-4196 4225 0
-521 -4196 4197 0
-4197 4226 0
-522 -4197 4198 0
-4198 4227 0
-523 -4198 4199 0
-4199 4228 0
-524 -4199 4200 0
-4200 4229 0
-525 -4200 4201 0
-4201 4230 0
-526 -4201 4202 0
-4202 4231 0
-527 -4202 4203 0
-4203 4232 0
-528 -4203 4204 0
-4204 4233 0
-529 -4204 4205 0
-4205 4234 0
-530 -4205 4206 0
-4206 4235 0
-531 -4206 4207 0
-4207 4236 0
-532 -4207 4208 0
-4208 4237 0
-533 -4208 4209 0
-4209 4238 0
-534 -4209 4210 0
-4210 4239 0
-535 -4210 0
-507 4211 0
-4211 4240 0
-508 -4211 4212 0
-4212 4241 0
-509 -4212 4213 0
-4213 4242 0
-510 -4213 4214 0
-4214 4243 0
-511 -4214 4215 0
-4215 4244 0
-512 -4215 4216 0
-4216 4245 0
-513 -4216 4217 0
-4217 4246 0
-514 -4217 4218 0
-4218 4247 0
-515 -4218 4219 0
-4219 4248 0
-516 -4219 4220 0
-4220 4249 0
-517 -4220 4221 0
-4221 4250 0
-518 -4221 4222 0
-4222 4251 0
-519 -4222 4223 0
-4223 4252 0
-520 -4223 4224 0
-4224 4253 0
-521 -4224 4225 0
-4225 4254 0
-522 -4225 4226 0
-4226 4255 0
-523 -4226 4227 0
-4227 4256 0
-524 -4227 4228 0
-4228 4257 0
-525 -4228 4229 0
-4229 4258 0
-526 -4229 4230 0
-4230 4259 0
-527 -4230 4231 0
-4231 4260 0
-528 -4231 4232 0
-4232 4261 0
-529 -4232 4233 0
-4233 4262 0
-530 -4233 4234 0
-4234 4263 0
-531 -4234 4235 0
-4235 4264 0
-532 -4235 4236 0
-4236 4265 0
-533 -4236 4237 0
-4237 4266 0
-534 -4237 4238 0
-4238 4267 0
-535 -4238 4239 0
-4239 4268 0
-536 -4239 0
-508 4240 0
-4240 4269 0
-509 -4240 4241 0
-4241 4270 0
-510 -4241 4242 0
-4242 4271 0
-511 -4242 4243 0
-4243 4272 0
-512 -4243 4244 0
-4244 4273 0
-513 -4244 4245 0
-4245 4274 0
-514 -4245 4246 0
-4246 4275 0
-515 -4246 4247 0
-4247 4276 0
-516 -4247 4248 0
-4248 4277 0
-517 -4248 4249 0
-4249 4278 0
-518 -4249 4250 0
-4250 4279 0
-519 -4250 4251 0
-4251 4280 0
-520 -4251 4252 0
-4252 4281 0
-521 -4252 4253 0
-4253 4282 0
-522 -4253 4254 0
-4254 4283 0
-523 -4254 4255 0
-4255 4284 0
-524 -4255 4256 0
-4256 4285 0
-525 -4256 4257 0
-4257 4286 0
-526 -4257 4258 0
-4258 4287 0
-527 -4258 4259 0
-4259 4288 0
-528 -4259 4260 0
-4260 4289 0
-529 -4260 4261 0
-4261 4290 0
-530 -4261 4262 0
-4262 4291 0
-531 -4262 4263 0
-4263 4292 0
-532 -4263 4264 0
-4264 4293 0
-533 -4264 4265 0
-4265 4294 0
-534 -4265 4266 0
-4266 4295 0
-535 -4266 4267 0
-4267 4296 0
-536 -4267 4268 0
-4268 4297 0
-537 -4268 0
-509 4269 0
-4269 4298 0
-510 -4269 4270 0
-4270 4299 0
-511 -4270 4271 0
-4271 4300 0
-512 -4271 4272 0
-4272 4301 0
-513 -4272 4273 0
-4273 4302 0
-514 -4273 4274 0
-4274 4303 0
-515 -4274 4275 0
-4275 4304 0
-516 -4275 4276 0
-4276 4305 0
-517 -4276 4277 0
-4277 4306 0
-518 -4277 4278 0
-4278 4307 0
-519 -4278 4279 0
-4279 4308 0
-520 -4279 4280 0
-4280 4309 0
-521 -4280 4281 0
-4281 4310 0
-522 -4281 4282 0
-4282 4311 0
-523 -4282 4283 0
-4283 4312 0
-524 -4283 4284 0
-4284 4313 0
-525 -4284 4285 0
-4285 4314 0
-526 -4285 4286 0
-4286 4315 0
-527 -4286 4287 0
-4287 4316 0
-528 -4287 4288 0
-4288 4317 0
-529 -4288 4289 0
-4289 4318 0
-530 -4289 4290 0
-4290 4319 0
-531 -4290 4291 0
-4291 4320 0
-532 -4291 4292 0
-4292 4321 0
-533 -4292 4293 0
-4293 4322 0
-534 -4293 4294 0
-4294 4323 0
-535 -4294 4295 0
-4295 4324 0
-536 -4295 4296 0
-4296 4325 0
-537 -4296 4297 0
-4297 4326 0
-538 -4297 0
-510 4298 0
-4298 4327 0
-511 -4298 4299 0
-4299 4328 0
-512 -4299 4300 0
-4300 4329 0
-513 -4300 4301 0
-4301 4330 0
-514 -4301 4302 0
-4302 4331 0
-515 -4302 4303 0
-4303 4332 0
-516 -4303 4304 0
-4304 4333 0
-517 -4304 4305 0
-4305 4334 0
-518 -4305 4306 0
-4306 4335 0
-519 -4306 4307 0
-4307 4336 0
-520 -4307 4308 0
-4308 4337 0
-521 -4308 4309 0
-4309 4338 0
-522 -4309 4310 0
-4310 4339 0
-523 -4310 4311 0
-4311 4340 0
-524 -4311 4312 0
-4312 4341 0
-525 -4312 4313 0
-4313 4342 0
-526 -4313 4314 0
-4314 4343 0
-527 -4314 4315 0
-4315 4344 0
-528 -4315 4316 0
-4316 4345 0
-529 -4316 4317 0
-4317 4346 0
-530 -4317 4318 0
-4318 4347 0
-531 -4318 4319 0
-4319 4348 0
-532 -4319 4320 0
-4320 4349 0
-533 -4320 4321 0
-4321 4350 0
-534 -4321 4322 0
-4322 4351 0
-535 -4322 4323 0
-4323 4352 0
-536 -4323 4324 0
-4324 4353 0
-537 -4324 4325 0
-4325 4354 0
-538 -4325 4326 0
-4326 4355 0
-539 -4326 0
-511 4327 0
-4327 4356 0
-512 -4327 4328 0
-4328 4357 0
-513 -4328 4329 0
-4329 4358 0
-514 -4329 4330 0
-4330 4359 0
-515 -4330 4331 0
-4331 4360 0
-516 -4331 4332 0
-4332 4361 0
-517 -4332 4333 0
-4333 4362 0
-518 -4333 4334 0
-4334 4363 0
-519 -4334 4335 0
-4335 4364 0
-520 -4335 4336 0
-4336 4365 0
-521 -4336 4337 0
-4337 4366 0
-522 -4337 4338 0
-4338 4367 0
-523 -4338 4339 0
-4339 4368 0
-524 -4339 4340 0
-4340 4369 0
-525 -4340 4341 0
-4341 4370 0
-526 -4341 4342 0
-4342 4371 0
-527 -4342 4343 0
-4343 4372 0
-528 -4343 4344 0
-4344 4373 0
-529 -4344 4345 0
-4345 4374 0
-530 -4345 4346 0
-4346 4375 0
-531 -4346 4347 0
-4347 4376 0
-532 -4347 4348 0
-4348 4377 0
-533 -4348 4349 0
-4349 4378 0
-534 -4349 4350 0
-4350 4379 0
-535 -4350 4351 0
-4351 4380 0
-536 -4351 4352 0
-4352 4381 0
-537 -4352 4353 0
-4353 4382 0
-538 -4353 4354 0
-4354 4383 0
-539 -4354 4355 0
-4355 4384 0
-540 -4355 0
-512 4356 0
-4356 4385 0
-513 -4356 4357 0
-4357 4386 0
-514 -4357 4358 0
-4358 4387 0
-515 -4358 4359 0
-4359 4388 0
-516 -4359 4360 0
-4360 4389 0
-517 -4360 4361 0
-4361 4390 0
-518 -4361 4362 0
-4362 4391 0
-519 -4362 4363 0
-4363 4392 0
-520 -4363 4364 0
-4364 4393 0
-521 -4364 4365 0
-4365 4394 0
-522 -4365 4366 0
-4366 4395 0
-523 -4366 4367 0
-4367 4396 0
-524 -4367 4368 0
-4368 4397 0
-525 -4368 4369 0
-4369 4398 0
-526 -4369 4370 0
-4370 4399 0
-527 -4370 4371 0
-4371 4400 0
-528 -4371 4372 0
-4372 4401 0
-529 -4372 4373 0
-4373 4402 0
-530 -4373 4374 0
-4374 4403 0
-531 -4374 4375 0
-4375 4404 0
-532 -4375 4376 0
-4376 4405 0
-533 -4376 4377 0
-4377 4406 0
-534 -4377 4378 0
-4378 4407 0
-535 -4378 4379 0
-4379 4408 0
-536 -4379 4380 0
-4380 4409 0
-537 -4380 4381 0
-4381 4410 0
-538 -4381 4382 0
-4382 4411 0
-539 -4382 4383 0
-4383 4412 0
-540 -4383 4384 0
-4384 4413 0
-541 -4384 0
-513 4385 0
-4385 4414 0
-514 -4385 4386 0
-4386 4415 0
-515 -4386 4387 0
-4387 4416 0
-516 -4387 4388 0
-4388 4417 0
-517 -4388 4389 0
-4389 4418 0
-518 -4389 4390 0
-4390 4419 0
-519 -4390 4391 0
-4391 4420 0
-520 -4391 4392 0
-4392 4421 0
-521 -4392 4393 0
-4393 4422 0
-522 -4393 4394 0
-4394 4423 0
-523 -4394 4395 0
-4395 4424 0
-524 -4395 4396 0
-4396 4425 0
-525 -4396 4397 0
-4397 4426 0
-526 -4397 4398 0
-4398 4427 0
-527 -4398 4399 0
-4399 4428 0
-528 -4399 4400 0
-4400 4429 0
-529 -4400 4401 0
-4401 4430 0
-530 -4401 4402 0
-4402 4431 0
-531 -4402 4403 0
-4403 4432 0
-532 -4403 4404 0
-4404 4433 0
-533 -4404 4405 0
-4405 4434 0
-534 -4405 4406 0
-4406 4435 0
-535 -4406 4407 0
-4407 4436 0
-536 -4407 4408 0
-4408 4437 0
-537 -4408 4409 0
-4409 4438 0
-538 -4409 4410 0
-4410 4439 0
-539 -4410 4411 0
-4411 4440 0
-540 -4411 4412 0
-4412 4441 0
-541 -4412 4413 0
-4413 4442 0
-542 -4413 0
-514 4414 0
-4414 4443 0
-515 -4414 4415 0
-4415 4444 0
-516 -4415 4416 0
-4416 4445 0
-517 -4416 4417 0
-4417 4446 0
-518 -4417 4418 0
-4418 4447 0
-519 -4418 4419 0
-4419 4448 0
-520 -4419 4420 0
-4420 4449 0
-521 -4420 4421 0
-4421 4450 0
-522 -4421 4422 0
-4422 4451 0
-523 -4422 4423 0
-4423 4452 0
-524 -4423 4424 0
-4424 4453 0
-525 -4424 4425 0
-4425 4454 0
-526 -4425 4426 0
-4426 4455 0
-527 -4426 4427 0
-4427 4456 0
-528 -4427 4428 0
-4428 4457 0
-529 -4428 4429 0
-4429 4458 0
-530 -4429 4430 0
-4430 4459 0
-531 -4430 4431 0
-4431 4460 0
-532 -4431 4432 0
-4432 4461 0
-533 -4432 4433 0
-4433 4462 0
-534 -4433 4434 0
-4434 4463 0
-535 -4434 4435 0
-4435 4464 0
-536 -4435 4436 0
-4436 4465 0
-537 -4436 4437 0
-4437 4466 0
-538 -4437 4438 0
-4438 4467 0
-539 -4438 4439 0
-4439 4468 0
-540 -4439 4440 0
-4440 4469 0
-541 -4440 4441 0
-4441 4470 0
-542 -4441 4442 0
-4442 4471 0
-543 -4442 0
-515 4443 0
-4443 4472 0
-516 -4443 4444 0
-4444 4473 0
-517 -4444 4445 0
-4445 4474 0
-518 -4445 4446 0
-4446 4475 0
-519 -4446 4447 0
-4447 4476 0
-520 -4447 4448 0
-4448 4477 0
-521 -4448 4449 0
-4449 4478 0
-522 -4449 4450 0
-4450 4479 0
-523 -4450 4451 0
-4451 4480 0
-524 -4451 4452 0
-4452 4481 0
-525 -4452 4453 0
-4453 4482 0
-526 -4453 4454 0
-4454 4483 0
-527 -4454 4455 0
-4455 4484 0
-528 -4455 4456 0
-4456 4485 0
-529 -4456 4457 0
-4457 4486 0
-530 -4457 4458 0
-4458 4487 0
-531 -4458 4459 0
-4459 4488 0
-532 -4459 4460 0
-4460 4489 0
-533 -4460 4461 0
-4461 4490 0
-534 -4461 4462 0
-4462 4491 0
-535 -4462 4463 0
-4463 4492 0
-536 -4463 4464 0
-4464 4493 0
-537 -4464 4465 0
-4465 4494 0
-538 -4465 4466 0
-4466 4495 0
-539 -4466 4467 0
-4467 4496 0
-540 -4467 4468 0
-4468 4497 0
-541 -4468 4469 0
-4469 4498 0
-542 -4469 4470 0
-4470 4499 0
-543 -4470 4471 0
-4471 4500 0
-544 -4471 0
-516 4472 0
-4472 4501 0
-517 -4472 4473 0
-4473 4502 0
-518 -4473 4474 0
-4474 4503 0
-519 -4474 4475 0
-4475 4504 0
-520 -4475 4476 0
-4476 4505 0
-521 -4476 4477 0
-4477 4506 0
-522 -4477 4478 0
-4478 4507 0
-523 -4478 4479 0
-4479 4508 0
-524 -4479 4480 0
-4480 4509 0
-525 -4480 4481 0
-4481 4510 0
-526 -4481 4482 0
-4482 4511 0
-527 -4482 4483 0
-4483 4512 0
-528 -4483 4484 0
-4484 4513 0
-529 -4484 4485 0
-4485 4514 0
-530 -4485 4486 0
-4486 4515 0
-531 -4486 4487 0
-4487 4516 0
-532 -4487 4488 0
-4488 4517 0
-533 -4488 4489 0
-4489 4518 0
-534 -4489 4490 0
-4490 4519 0
-535 -4490 4491 0
-4491 4520 0
-536 -4491 4492 0
-4492 4521 0
-537 -4492 4493 0
-4493 4522 0
-538 -4493 4494 0
-4494 4523 0
-539 -4494 4495 0
-4495 4524 0
-540 -4495 4496 0
-4496 4525 0
-541 -4496 4497 0
-4497 4526 0
-542 -4497 4498 0
-4498 4527 0
-543 -4498 4499 0
-4499 4528 0
-544 -4499 4500 0
-4500 4529 0
-545 -4500 0
-517 4501 0
-4501 4530 0
-518 -4501 4502 0
-4502 4531 0
-519 -4502 4503 0
-4503 4532 0
-520 -4503 4504 0
-4504 4533 0
-521 -4504 4505 0
-4505 4534 0
-522 -4505 4506 0
-4506 4535 0
-523 -4506 4507 0
-4507 4536 0
-524 -4507 4508 0
-4508 4537 0
-525 -4508 4509 0
-4509 4538 0
-526 -4509 4510 0
-4510 4539 0
-527 -4510 4511 0
-4511 4540 0
-528 -4511 4512 0
-4512 4541 0
-529 -4512 4513 0
-4513 4542 0
-530 -4513 4514 0
-4514 4543 0
-531 -4514 4515 0
-4515 4544 0
-532 -4515 4516 0
-4516 4545 0
-533 -4516 4517 0
-4517 4546 0
-534 -4517 4518 0
-4518 4547 0
-535 -4518 4519 0
-4519 4548 0
-536 -4519 4520 0
-4520 4549 0
-537 -4520 4521 0
-4521 4550 0
-538 -4521 4522 0
-4522 4551 0
-539 -4522 4523 0
-4523 4552 0
-540 -4523 4524 0
-4524 4553 0
-541 -4524 4525 0
-4525 4554 0
-542 -4525 4526 0
-4526 4555 0
-543 -4526 4527 0
-4527 4556 0
-544 -4527 4528 0
-4528 4557 0
-545 -4528 4529 0
-4529 4558 0
-546 -4529 0
-518 4530 0
-4530 4559 0
-519 -4530 4531 0
-4531 4560 0
-520 -4531 4532 0
-4532 4561 0
-521 -4532 4533 0
-4533 4562 0
-522 -4533 4534 0
-4534 4563 0
-523 -4534 4535 0
-4535 4564 0
-524 -4535 4536 0
-4536 4565 0
-525 -4536 4537 0
-4537 4566 0
-526 -4537 4538 0
-4538 4567 0
-527 -4538 4539 0
-4539 4568 0
-528 -4539 4540 0
-4540 4569 0
-529 -4540 4541 0
-4541 4570 0
-530 -4541 4542 0
-4542 4571 0
-531 -4542 4543 0
-4543 4572 0
-532 -4543 4544 0
-4544 4573 0
-533 -4544 4545 0
-4545 4574 0
-534 -4545 4546 0
-4546 4575 0
-535 -4546 4547 0
-4547 4576 0
-536 -4547 4548 0
-4548 4577 0
-537 -4548 4549 0
-4549 4578 0
-538 -4549 4550 0
-4550 4579 0
-539 -4550 4551 0
-4551 4580 0
-540 -4551 4552 0
-4552 4581 0
-541 -4552 4553 0
-4553 4582 0
-542 -4553 4554 0
-4554 4583 0
-543 -4554 4555 0
-4555 4584 0
-544 -4555 4556 0
-4556 4585 0
-545 -4556 4557 0
-4557 4586 0
-546 -4557 4558 0
-4558 4587 0
-547 -4558 0
-519 4559 0
-4559 4588 0
-520 -4559 4560 0
-4560 4589 0
-521 -4560 4561 0
-4561 4590 0
-522 -4561 4562 0
-4562 4591 0
-523 -4562 4563 0
-4563 4592 0
-524 -4563 4564 0
-4564 4593 0
-525 -4564 4565 0
-4565 4594 0
-526 -4565 4566 0
-4566 4595 0
-527 -4566 4567 0
-4567 4596 0
-528 -4567 4568 0
-4568 4597 0
-529 -4568 4569 0
-4569 4598 0
-530 -4569 4570 0
-4570 4599 0
-531 -4570 4571 0
-4571 4600 0
-532 -4571 4572 0
-4572 4601 0
-533 -4572 4573 0
-4573 4602 0
-534 -4573 4574 0
-4574 4603 0
-535 -4574 4575 0
-4575 4604 0
-536 -4575 4576 0
-4576 4605 0
-537 -4576 4577 0
-4577 4606 0
-538 -4577 4578 0
-4578 4607 0
-539 -4578 4579 0
-4579 4608 0
-540 -4579 4580 0
-4580 4609 0
-541 -4580 4581 0
-4581 4610 0
-542 -4581 4582 0
-4582 4611 0
-543 -4582 4583 0
-4583 4612 0
-544 -4583 4584 0
-4584 4613 0
-545 -4584 4585 0
-4585 4614 0
-546 -4585 4586 0
-4586 4615 0
-547 -4586 4587 0
-4587 4616 0
-548 -4587 0
-520 4588 0
-4588 4617 0
-521 -4588 4589 0
-4589 4618 0
-522 -4589 4590 0
-4590 4619 0
-523 -4590 4591 0
-4591 4620 0
-524 -4591 4592 0
-4592 4621 0
-525 -4592 4593 0
-4593 4622 0
-526 -4593 4594 0
-4594 4623 0
-527 -4594 4595 0
-4595 4624 0
-528 -4595 4596 0
-4596 4625 0
-529 -4596 4597 0
-4597 4626 0
-530 -4597 4598 0
-4598 4627 0
-531 -4598 4599 0
-4599 4628 0
-532 -4599 4600 0
-4600 4629 0
-533 -4600 4601 0
-4601 4630 0
-534 -4601 4602 0
-4602 4631 0
-535 -4602 4603 0
-4603 4632 0
-536 -4603 4604 0
-4604 4633 0
-537 -4604 4605 0
-4605 4634 0
-538 -4605 4606 0
-4606 4635 0
-539 -4606 4607 0
-4607 4636 0
-540 -4607 4608 0
-4608 4637 0
-541 -4608 4609 0
-4609 4638 0
-542 -4609 4610 0
-4610 4639 0
-543 -4610 4611 0
-4611 4640 0
-544 -4611 4612 0
-4612 4641 0
-545 -4612 4613 0
-4613 4642 0
-546 -4613 4614 0
-4614 4643 0
-547 -4614 4615 0
-4615 4644 0
-548 -4615 4616 0
-4616 4645 0
-549 -4616 0
-521 4617 0
-4617 4646 0
-522 -4617 4618 0
-4618 4647 0
-523 -4618 4619 0
-4619 4648 0
-524 -4619 4620 0
-4620 4649 0
-525 -4620 4621 0
-4621 4650 0
-526 -4621 4622 0
-4622 4651 0
-527 -4622 4623 0
-4623 4652 0
-528 -4623 4624 0
-4624 4653 0
-529 -4624 4625 0
-4625 4654 0
-530 -4625 4626 0
-4626 4655 0
-531 -4626 4627 0
-4627 4656 0
-532 -4627 4628 0
-4628 4657 0
-533 -4628 4629 0
-4629 4658 0
-534 -4629 4630 0
-4630 4659 0
-535 -4630 4631 0
-4631 4660 0
-536 -4631 4632 0
-4632 4661 0
-537 -4632 4633 0
-4633 4662 0
-538 -4633 4634 0
-4634 4663 0
-539 -4634 4635 0
-4635 4664 0
-540 -4635 4636 0
-4636 4665 0
-541 -4636 4637 0
-4637 4666 0
-542 -4637 4638 0
-4638 4667 0
-543 -4638 4639 0
-4639 4668 0
-544 -4639 4640 0
-4640 4669 0
-545 -4640 4641 0
-4641 4670 0
-546 -4641 4642 0
-4642 4671 0
-547 -4642 4643 0
-4643 4672 0
-548 -4643 4644 0
-4644 4673 0
-549 -4644 4645 0
-4645 4674 0
-550 -4645 0
-522 4646 0
-4646 4675 0
-523 -4646 4647 0
-4647 4676 0
-524 -4647 4648 0
-4648 4677 0
-525 -4648 4649 0
-4649 4678 0
-526 -4649 4650 0
-4650 4679 0
-527 -4650 4651 0
-4651 4680 0
-528 -4651 4652 0
-4652 4681 0
-529 -4652 4653 0
-4653 4682 0
-530 -4653 4654 0
-4654 4683 0
-531 -4654 4655 0
-4655 4684 0
-532 -4655 4656 0
-4656 4685 0
-533 -4656 4657 0
-4657 4686 0
-534 -4657 4658 0
-4658 4687 0
-535 -4658 4659 0
-4659 4688 0
-536 -4659 4660 0
-4660 4689 0
-537 -4660 4661 0
-4661 4690 0
-538 -4661 4662 0
-4662 4691 0
-539 -4662 4663 0
-4663 4692 0
-540 -4663 4664 0
-4664 4693 0
-541 -4664 4665 0
-4665 4694 0
-542 -4665 4666 0
-4666 4695 0
-543 -4666 4667 0
-4667 4696 0
-544 -4667 4668 0
-4668 4697 0
-545 -4668 4669 0
-4669 4698 0
-546 -4669 4670 0
-4670 4699 0
-547 -4670 4671 0
-4671 4700 0
-548 -4671 4672 0
-4672 4701 0
-549 -4672 4673 0
-4673 4702 0
-550 -4673 4674 0
-4674 4703 0
-551 -4674 0
-523 4675 0
-4675 4704 0
-524 -4675 4676 0
-4676 4705 0
-525 -4676 4677 0
-4677 4706 0
-526 -4677 4678 0
-4678 4707 0
-527 -4678 4679 0
-4679 4708 0
-528 -4679 4680 0
-4680 4709 0
-529 -4680 4681 0
-4681 4710 0
-530 -4681 4682 0
-4682 4711 0
-531 -4682 4683 0
-4683 4712 0
-532 -4683 4684 0
-4684 4713 0
-533 -4684 4685 0
-4685 4714 0
-534 -4685 4686 0
-4686 4715 0
-535 -4686 4687 0
-4687 4716 0
-536 -4687 4688 0
-4688 4717 0
-537 -4688 4689 0
-4689 4718 0
-538 -4689 4690 0
-4690 4719 0
-539 -4690 4691 0
-4691 4720 0
-540 -4691 4692 0
-4692 4721 0
-541 -4692 4693 0
-4693 4722 0
-542 -4693 4694 0
-4694 4723 0
-543 -4694 4695 0
-4695 4724 0
-544 -4695 4696 0
-4696 4725 0
-545 -4696 4697 0
-4697 4726 0
-546 -4697 4698 0
-4698 4727 0
-547 -4698 4699 0
-4699 4728 0
-548 -4699 4700 0
-4700 4729 0
-549 -4700 4701 0
-4701 4730 0
-550 -4701 4702 0
-4702 4731 0
-551 -4702 4703 0
-4703 4732 0
-552 -4703 0
-524 4704 0
-4704 4733 0
-525 -4704 4705 0
-4705 4734 0
-526 -4705 4706 0
-4706 4735 0
-527 -4706 4707 0
-4707 4736 0
-528 -4707 4708 0
-4708 4737 0
-529 -4708 4709 0
-4709 4738 0
-530 -4709 4710 0
-4710 4739 0
-531 -4710 4711 0
-4711 4740 0
-532 -4711 4712 0
-4712 4741 0
-533 -4712 4713 0
-4713 4742 0
-534 -4713 4714 0
-4714 4743 0
-535 -4714 4715 0
-4715 4744 0
-536 -4715 4716 0
-4716 4745 0
-537 -4716 4717 0
-4717 4746 0
-538 -4717 4718 0
-4718 4747 0
-539 -4718 4719 0
-4719 4748 0
-540 -4719 4720 0
-4720 4749 0
-541 -4720 4721 0
-4721 4750 0
-542 -4721 4722 0
-4722 4751 0
-543 -4722 4723 0
-4723 4752 0
-544 -4723 4724 0
-4724 4753 0
-545 -4724 4725 0
-4725 4754 0
-546 -4725 4726 0
-4726 4755 0
-547 -4726 4727 0
-4727 4756 0
-548 -4727 4728 0
-4728 4757 0
-549 -4728 4729 0
-4729 4758 0
-550 -4729 4730 0
-4730 4759 0
-551 -4730 4731 0
-4731 4760 0
-552 -4731 4732 0
-4732 4761 0
-553 -4732 0
-525 4733 0
-4733 4762 0
-526 -4733 4734 0
-4734 4763 0
-527 -4734 4735 0
-4735 4764 0
-528 -4735 4736 0
-4736 4765 0
-529 -4736 4737 0
-4737 4766 0
-530 -4737 4738 0
-4738 4767 0
-531 -4738 4739 0
-4739 4768 0
-532 -4739 4740 0
-4740 4769 0
-533 -4740 4741 0
-4741 4770 0
-534 -4741 4742 0
-4742 4771 0
-535 -4742 4743 0
-4743 4772 0
-536 -4743 4744 0
-4744 4773 0
-537 -4744 4745 0
-4745 4774 0
-538 -4745 4746 0
-4746 4775 0
-539 -4746 4747 0
-4747 4776 0
-540 -4747 4748 0
-4748 4777 0
-541 -4748 4749 0
-4749 4778 0
-542 -4749 4750 0
-4750 4779 0
-543 -4750 4751 0
-4751 4780 0
-544 -4751 4752 0
-4752 4781 0
-545 -4752 4753 0
-4753 4782 0
-546 -4753 4754 0
-4754 4783 0
-547 -4754 4755 0
-4755 4784 0
-548 -4755 4756 0
-4756 4785 0
-549 -4756 4757 0
-4757 4786 0
-550 -4757 4758 0
-4758 4787 0
-551 -4758 4759 0
-4759 4788 0
-552 -4759 4760 0
-4760 4789 0
-553 -4760 4761 0
-4761 4790 0
-554 -4761 0
-526 4762 0
-4762 4791 0
-527 -4762 4763 0
-4763 4792 0
-528 -4763 4764 0
-4764 4793 0
-529 -4764 4765 0
-4765 4794 0
-530 -4765 4766 0
-4766 4795 0
-531 -4766 4767 0
-4767 4796 0
-532 -4767 4768 0
-4768 4797 0
-533 -4768 4769 0
-4769 4798 0
-534 -4769 4770 0
-4770 4799 0
-535 -4770 4771 0
-4771 4800 0
-536 -4771 4772 0
-4772 4801 0
-537 -4772 4773 0
-4773 4802 0
-538 -4773 4774 0
-4774 4803 0
-539 -4774 4775 0
-4775 4804 0
-540 -4775 4776 0
-4776 4805 0
-541 -4776 4777 0
-4777 4806 0
-542 -4777 4778 0
-4778 4807 0
-543 -4778 4779 0
-4779 4808 0
-544 -4779 4780 0
-4780 4809 0
-545 -4780 4781 0
-4781 4810 0
-546 -4781 4782 0
-4782 4811 0
-547 -4782 4783 0
-4783 4812 0
-548 -4783 4784 0
-4784 4813 0
-549 -4784 4785 0
-4785 4814 0
-550 -4785 4786 0
-4786 4815 0
-551 -4786 4787 0
-4787 4816 0
-552 -4787 4788 0
-4788 4817 0
-553 -4788 4789 0
-4789 4818 0
-554 -4789 4790 0
-4790 4819 0
-555 -4790 0
-527 4791 0
-4791 4820 0
-528 -4791 4792 0
-4792 4821 0
-529 -4792 4793 0
-4793 4822 0
-530 -4793 4794 0
-4794 4823 0
-531 -4794 4795 0
-4795 4824 0
-532 -4795 4796 0
-4796 4825 0
-533 -4796 4797 0
-4797 4826 0
-534 -4797 4798 0
-4798 4827 0
-535 -4798 4799 0
-4799 4828 0
-536 -4799 4800 0
-4800 4829 0
-537 -4800 4801 0
-4801 4830 0
-538 -4801 4802 0
-4802 4831 0
-539 -4802 4803 0
-4803 4832 0
-540 -4803 4804 0
-4804 4833 0
-541 -4804 4805 0
-4805 4834 0
-542 -4805 4806 0
-4806 4835 0
-543 -4806 4807 0
-4807 4836 0
-544 -4807 4808 0
-4808 4837 0
-545 -4808 4809 0
-4809 4838 0
-546 -4809 4810 0
-4810 4839 0
-547 -4810 4811 0
-4811 4840 0
-548 -4811 4812 0
-4812 4841 0
-549 -4812 4813 0
-4813 4842 0
-550 -4813 4814 0
-4814 4843 0
-551 -4814 4815 0
-4815 4844 0
-552 -4815 4816 0
-4816 4845 0
-553 -4816 4817 0
-4817 4846 0
-554 -4817 4818 0
-4818 4847 0
-555 -4818 4819 0
-4819 4848 0
-556 -4819 0
-528 4820 0
-4820 4849 0
-529 -4820 4821 0
-4821 4850 0
-530 -4821 4822 0
-4822 4851 0
-531 -4822 4823 0
-4823 4852 0
-532 -4823 4824 0
-4824 4853 0
-533 -4824 4825 0
-4825 4854 0
-534 -4825 4826 0
-4826 4855 0
-535 -4826 4827 0
-4827 4856 0
-536 -4827 4828 0
-4828 4857 0
-537 -4828 4829 0
-4829 4858 0
-538 -4829 4830 0
-4830 4859 0
-539 -4830 4831 0
-4831 4860 0
-540 -4831 4832 0
-4832 4861 0
-541 -4832 4833 0
-4833 4862 0
-542 -4833 4834 0
-4834 4863 0
-543 -4834 4835 0
-4835 4864 0
-544 -4835 4836 0
-4836 4865 0
-545 -4836 4837 0
-4837 4866 0
-546 -4837 4838 0
-4838 4867 0
-547 -4838 4839 0
-4839 4868 0
-548 -4839 4840 0
-4840 4869 0
-549 -4840 4841 0
-4841 4870 0
-550 -4841 4842 0
-4842 4871 0
-551 -4842 4843 0
-4843 4872 0
-552 -4843 4844 0
-4844 4873 0
-553 -4844 4845 0
-4845 4874 0
-554 -4845 4846 0
-4846 4875 0
-555 -4846 4847 0
-4847 4876 0
-556 -4847 4848 0
-4848 4877 0
-557 -4848 0
-529 4849 0
-4849 4878 0
-530 -4849 4850 0
-4850 4879 0
-531 -4850 4851 0
-4851 4880 0
-532 -4851 4852 0
-4852 4881 0
-533 -4852 4853 0
-4853 4882 0
-534 -4853 4854 0
-4854 4883 0
-535 -4854 4855 0
-4855 4884 0
-536 -4855 4856 0
-4856 4885 0
-537 -4856 4857 0
-4857 4886 0
-538 -4857 4858 0
-4858 4887 0
-539 -4858 4859 0
-4859 4888 0
-540 -4859 4860 0
-4860 4889 0
-541 -4860 4861 0
-4861 4890 0
-542 -4861 4862 0
-4862 4891 0
-543 -4862 4863 0
-4863 4892 0
-544 -4863 4864 0
-4864 4893 0
-545 -4864 4865 0
-4865 4894 0
-546 -4865 4866 0
-4866 4895 0
-547 -4866 4867 0
-4867 4896 0
-548 -4867 4868 0
-4868 4897 0
-549 -4868 4869 0
-4869 4898 0
-550 -4869 4870 0
-4870 4899 0
-551 -4870 4871 0
-4871 4900 0
-552 -4871 4872 0
-4872 4901 0
-553 -4872 4873 0
-4873 4902 0
-554 -4873 4874 0
-4874 4903 0
-555 -4874 4875 0
-4875 4904 0
-556 -4875 4876 0
-4876 4905 0
-557 -4876 4877 0
-4877 4906 0
-558 -4877 0
-530 4878 0
-4878 4907 0
-531 -4878 4879 0
-4879 4908 0
-532 -4879 4880 0
-4880 4909 0
-533 -4880 4881 0
-4881 4910 0
-534 -4881 4882 0
-4882 4911 0
-535 -4882 4883 0
-4883 4912 0
-536 -4883 4884 0
-4884 4913 0
-537 -4884 4885 0
-4885 4914 0
-538 -4885 4886 0
-4886 4915 0
-539 -4886 4887 0
-4887 4916 0
-540 -4887 4888 0
-4888 4917 0
-541 -4888 4889 0
-4889 4918 0
-542 -4889 4890 0
-4890 4919 0
-543 -4890 4891 0
-4891 4920 0
-544 -4891 4892 0
-4892 4921 0
-545 -4892 4893 0
-4893 4922 0
-546 -4893 4894 0
-4894 4923 0
-547 -4894 4895 0
-4895 4924 0
-548 -4895 4896 0
-4896 4925 0
-549 -4896 4897 0
-4897 4926 0
-550 -4897 4898 0
-4898 4927 0
-551 -4898 4899 0
-4899 4928 0
-552 -4899 4900 0
-4900 4929 0
-553 -4900 4901 0
-4901 4930 0
-554 -4901 4902 0
-4902 4931 0
-555 -4902 4903 0
-4903 4932 0
-556 -4903 4904 0
-4904 4933 0
-557 -4904 4905 0
-4905 4934 0
-558 -4905 4906 0
-4906 4935 0
-559 -4906 0
-531 4907 0
-4907 4936 0
-532 -4907 4908 0
-4908 4937 0
-533 -4908 4909 0
-4909 4938 0
-534 -4909 4910 0
-4910 4939 0
-535 -4910 4911 0
-4911 4940 0
-536 -4911 4912 0
-4912 4941 0
-537 -4912 4913 0
-4913 4942 0
-538 -4913 4914 0
-4914 4943 0
-539 -4914 4915 0
-4915 4944 0
-540 -4915 4916 0
-4916 4945 0
-541 -4916 4917 0
-4917 4946 0
-542 -4917 4918 0
-4918 4947 0
-543 -4918 4919 0
-4919 4948 0
-544 -4919 4920 0
-4920 4949 0
-545 -4920 4921 0
-4921 4950 0
-546 -4921 4922 0
-4922 4951 0
-547 -4922 4923 0
-4923 4952 0
-548 -4923 4924 0
-4924 4953 0
-549 -4924 4925 0
-4925 4954 0
-550 -4925 4926 0
-4926 4955 0
-551 -4926 4927 0
-4927 4956 0
-552 -4927 4928 0
-4928 4957 0
-553 -4928 4929 0
-4929 4958 0
-554 -4929 4930 0
-4930 4959 0
-555 -4930 4931 0
-4931 4960 0
-556 -4931 4932 0
-4932 4961 0
-557 -4932 4933 0
-4933 4962 0
-558 -4933 4934 0
-4934 4963 0
-559 -4934 4935 0
-4935 4964 0
-560 -4935 0
-532 4936 0
-4936 4965 0
-533 -4936 4937 0
-4937 4966 0
-534 -4937 4938 0
-4938 4967 0
-535 -4938 4939 0
-4939 4968 0
-536 -4939 4940 0
-4940 4969 0
-537 -4940 4941 0
-4941 4970 0
-538 -4941 4942 0
-4942 4971 0
-539 -4942 4943 0
-4943 4972 0
-540 -4943 4944 0
-4944 4973 0
-541 -4944 4945 0
-4945 4974 0
-542 -4945 4946 0
-4946 4975 0
-543 -4946 4947 0
-4947 4976 0
-544 -4947 4948 0
-4948 4977 0
-545 -4948 4949 0
-4949 4978 0
-546 -4949 4950 0
-4950 4979 0
-547 -4950 4951 0
-4951 4980 0
-548 -4951 4952 0
-4952 4981 0
-549 -4952 4953 0
-4953 4982 0
-550 -4953 4954 0
-4954 4983 0
-551 -4954 4955 0
-4955 4984 0
-552 -4955 4956 0
-4956 4985 0
-553 -4956 4957 0
-4957 4986 0
-554 -4957 4958 0
-4958 4987 0
-555 -4958 4959 0
-4959 4988 0
-556 -4959 4960 0
-4960 4989 0
-557 -4960 4961 0
-4961 4990 0
-558 -4961 4962 0
-4962 4991 0
-559 -4962 4963 0
-4963 4992 0
-560 -4963 4964 0
-4964 4993 0
-561 -4964 0
-533 4965 0
-4965 4994 0
-534 -4965 4966 0
-4966 4995 0
-535 -4966 4967 0
-4967 4996 0
-536 -4967 4968 0
-4968 4997 0
-537 -4968 4969 0
-4969 4998 0
-538 -4969 4970 0
-4970 4999 0
-539 -4970 4971 0
-4971 5000 0
-540 -4971 4972 0
-4972 5001 0
-541 -4972 4973 0
-4973 5002 0
-542 -4973 4974 0
-4974 5003 0
-543 -4974 4975 0
-4975 5004 0
-544 -4975 4976 0
-4976 5005 0
-545 -4976 4977 0
-4977 5006 0
-546 -4977 4978 0
-4978 5007 0
-547 -4978 4979 0
-4979 5008 0
-548 -4979 4980 0
-4980 5009 0
-549 -4980 4981 0
-4981 5010 0
-550 -4981 4982 0
-4982 5011 0
-551 -4982 4983 0
-4983 5012 0
-552 -4983 4984 0
-4984 5013 0
-553 -4984 4985 0
-4985 5014 0
-554 -4985 4986 0
-4986 5015 0
-555 -4986 4987 0
-4987 5016 0
-556 -4987 4988 0
-4988 5017 0
-557 -4988 4989 0
-4989 5018 0
-558 -4989 4990 0
-4990 5019 0
-559 -4990 4991 0
-4991 5020 0
-560 -4991 4992 0
-4992 5021 0
-561 -4992 4993 0
-4993 5022 0
-562 -4993 0
-534 4994 0
-4994 5023 0
-535 -4994 4995 0
-4995 5024 0
-536 -4995 4996 0
-4996 5025 0
-537 -4996 4997 0
-4997 5026 0
-538 -4997 4998 0
-4998 5027 0
-539 -4998 4999 0
-4999 5028 0
-540 -4999 5000 0
-5000 5029 0
-541 -5000 5001 0
-5001 5030 0
-542 -5001 5002 0
-5002 5031 0
-543 -5002 5003 0
-5003 5032 0
-544 -5003 5004 0
-5004 5033 0
-545 -5004 5005 0
-5005 5034 0
-546 -5005 5006 0
-5006 5035 0
-547 -5006 5007 0
-5007 5036 0
-548 -5007 5008 0
-5008 5037 0
-549 -5008 5009 0
-5009 5038 0
-550 -5009 5010 0
-5010 5039 0
-551 -5010 5011 0
-5011 5040 0
-552 -5011 5012 0
-5012 5041 0
-553 -5012 5013 0
-5013 5042 0
-554 -5013 5014 0
-5014 5043 0
-555 -5014 5015 0
-5015 5044 0
-556 -5015 5016 0
-5016 5045 0
-557 -5016 5017 0
-5017 5046 0
-558 -5017 5018 0
-5018 5047 0
-559 -5018 5019 0
-5019 5048 0
-560 -5019 5020 0
-5020 5049 0
-561 -5020 5021 0
-5021 5050 0
-562 -5021 5022 0
-5022 5051 0
-563 -5022 0
-535 5023 0
-5023 5052 0
-536 -5023 5024 0
-5024 5053 0
-537 -5024 5025 0
-5025 5054 0
-538 -5025 5026 0
-5026 5055 0
-539 -5026 5027 0
-5027 5056 0
-540 -5027 5028 0
-5028 5057 0
-541 -5028 5029 0
-5029 5058 0
-542 -5029 5030 0
-5030 5059 0
-543 -5030 5031 0
-5031 5060 0
-544 -5031 5032 0
-5032 5061 0
-545 -5032 5033 0
-5033 5062 0
-546 -5033 5034 0
-5034 5063 0
-547 -5034 5035 0
-5035 5064 0
-548 -5035 5036 0
-5036 5065 0
-549 -5036 5037 0
-5037 5066 0
-550 -5037 5038 0
-5038 5067 0
-551 -5038 5039 0
-5039 5068 0
-552 -5039 5040 0
-5040 5069 0
-553 -5040 5041 0
-5041 5070 0
-554 -5041 5042 0
-5042 5071 0
-555 -5042 5043 0
-5043 5072 0
-556 -5043 5044 0
-5044 5073 0
-557 -5044 5045 0
-5045 5074 0
-558 -5045 5046 0
-5046 5075 0
-559 -5046 5047 0
-5047 5076 0
-560 -5047 5048 0
-5048 5077 0
-561 -5048 5049 0
-5049 5078 0
-562 -5049 5050 0
-5050 5079 0
-563 -5050 5051 0
-5051 5080 0
-564 -5051 0
-536 5052 0
-5052 5081 0
-537 -5052 5053 0
-5053 5082 0
-538 -5053 5054 0
-5054 5083 0
-539 -5054 5055 0
-5055 5084 0
-540 -5055 5056 0
-5056 5085 0
-541 -5056 5057 0
-5057 5086 0
-542 -5057 5058 0
-5058 5087 0
-543 -5058 5059 0
-5059 5088 0
-544 -5059 5060 0
-5060 5089 0
-545 -5060 5061 0
-5061 5090 0
-546 -5061 5062 0
-5062 5091 0
-547 -5062 5063 0
-5063 5092 0
-548 -5063 5064 0
-5064 5093 0
-549 -5064 5065 0
-5065 5094 0
-550 -5065 5066 0
-5066 5095 0
-551 -5066 5067 0
-5067 5096 0
-552 -5067 5068 0
-5068 5097 0
-553 -5068 5069 0
-5069 5098 0
-554 -5069 5070 0
-5070 5099 0
-555 -5070 5071 0
-5071 5100 0
-556 -5071 5072 0
-5072 5101 0
-557 -5072 5073 0
-5073 5102 0
-558 -5073 5074 0
-5074 5103 0
-559 -5074 5075 0
-5075 5104 0
-560 -5075 5076 0
-5076 5105 0
-561 -5076 5077 0
-5077 5106 0
-562 -5077 5078 0
-5078 5107 0
-563 -5078 5079 0
-5079 5108 0
-564 -5079 5080 0
-5080 5109 0
-565 -5080 0
-537 5081 0
-5081 5110 0
-538 -5081 5082 0
-5082 5111 0
-539 -5082 5083 0
-5083 5112 0
-540 -5083 5084 0
-5084 5113 0
-541 -5084 5085 0
-5085 5114 0
-542 -5085 5086 0
-5086 5115 0
-543 -5086 5087 0
-5087 5116 0
-544 -5087 5088 0
-5088 5117 0
-545 -5088 5089 0
-5089 5118 0
-546 -5089 5090 0
-5090 5119 0
-547 -5090 5091 0
-5091 5120 0
-548 -5091 5092 0
-5092 5121 0
-549 -5092 5093 0
-5093 5122 0
-550 -5093 5094 0
-5094 5123 0
-551 -5094 5095 0
-5095 5124 0
-552 -5095 5096 0
-5096 5125 0
-553 -5096 5097 0
-5097 5126 0
-554 -5097 5098 0
-5098 5127 0
-555 -5098 5099 0
-5099 5128 0
-556 -5099 5100 0
-5100 5129 0
-557 -5100 5101 0
-5101 5130 0
-558 -5101 5102 0
-5102 5131 0
-559 -5102 5103 0
-5103 5132 0
-560 -5103 5104 0
-5104 5133 0
-561 -5104 5105 0
-5105 5134 0
-562 -5105 5106 0
-5106 5135 0
-563 -5106 5107 0
-5107 5136 0
-564 -5107 5108 0
-5108 5137 0
-565 -5108 5109 0
-5109 5138 0
-566 -5109 0
-538 5110 0
-5110 5139 0
-539 -5110 5111 0
-5111 5140 0
-540 -5111 5112 0
-5112 5141 0
-541 -5112 5113 0
-5113 5142 0
-542 -5113 5114 0
-5114 5143 0
-543 -5114 5115 0
-5115 5144 0
-544 -5115 5116 0
-5116 5145 0
-545 -5116 5117 0
-5117 5146 0
-546 -5117 5118 0
-5118 5147 0
-547 -5118 5119 0
-5119 5148 0
-548 -5119 5120 0
-5120 5149 0
-549 -5120 5121 0
-5121 5150 0
-550 -5121 5122 0
-5122 5151 0
-551 -5122 5123 0
-5123 5152 0
-552 -5123 5124 0
-5124 5153 0
-553 -5124 5125 0
-5125 5154 0
-554 -5125 5126 0
-5126 5155 0
-555 -5126 5127 0
-5127 5156 0
-556 -5127 5128 0
-5128 5157 0
-557 -5128 5129 0
-5129 5158 0
-558 -5129 5130 0
-5130 5159 0
-559 -5130 5131 0
-5131 5160 0
-560 -5131 5132 0
-5132 5161 0
-561 -5132 5133 0
-5133 5162 0
-562 -5133 5134 0
-5134 5163 0
-563 -5134 5135 0
-5135 5164 0
-564 -5135 5136 0
-5136 5165 0
-565 -5136 5137 0
-5137 5166 0
-566 -5137 5138 0
-5138 5167 0
-567 -5138 0
-539 5139 0
-5139 5168 0
-540 -5139 5140 0
-5140 5169 0
-541 -5140 5141 0
-5141 5170 0
-542 -5141 5142 0
-5142 5171 0
-543 -5142 5143 0
-5143 5172 0
-544 -5143 5144 0
-5144 5173 0
-545 -5144 5145 0
-5145 5174 0
-546 -5145 5146 0
-5146 5175 0
-547 -5146 5147 0
-5147 5176 0
-548 -5147 5148 0
-5148 5177 0
-549 -5148 5149 0
-5149 5178 0
-550 -5149 5150 0
-5150 5179 0
-551 -5150 5151 0
-5151 5180 0
-552 -5151 5152 0
-5152 5181 0
-553 -5152 5153 0
-5153 5182 0
-554 -5153 5154 0
-5154 5183 0
-555 -5154 5155 0
-5155 5184 0
-556 -5155 5156 0
-5156 5185 0
-557 -5156 5157 0
-5157 5186 0
-558 -5157 5158 0
-5158 5187 0
-559 -5158 5159 0
-5159 5188 0
-560 -5159 5160 0
-5160 5189 0
-561 -5160 5161 0
-5161 5190 0
-562 -5161 5162 0
-5162 5191 0
-563 -5162 5163 0
-5163 5192 0
-564 -5163 5164 0
-5164 5193 0
-565 -5164 5165 0
-5165 5194 0
-566 -5165 5166 0
-5166 5195 0
-567 -5166 5167 0
-5167 5196 0
-568 -5167 0
-540 5168 0
-5168 5197 0
-541 -5168 5169 0
-5169 5198 0
-542 -5169 5170 0
-5170 5199 0
-543 -5170 5171 0
-5171 5200 0
-544 -5171 5172 0
-5172 5201 0
-545 -5172 5173 0
-5173 5202 0
-546 -5173 5174 0
-5174 5203 0
-547 -5174 5175 0
-5175 5204 0
-548 -5175 5176 0
-5176 5205 0
-549 -5176 5177 0
-5177 5206 0
-550 -5177 5178 0
-5178 5207 0
-551 -5178 5179 0
-5179 5208 0
-552 -5179 5180 0
-5180 5209 0
-553 -5180 5181 0
-5181 5210 0
-554 -5181 5182 0
-5182 5211 0
-555 -5182 5183 0
-5183 5212 0
-556 -5183 5184 0
-5184 5213 0
-557 -5184 5185 0
-5185 5214 0
-558 -5185 5186 0
-5186 5215 0
-559 -5186 5187 0
-5187 5216 0
-560 -5187 5188 0
-5188 5217 0
-561 -5188 5189 0
-5189 5218 0
-562 -5189 5190 0
-5190 5219 0
-563 -5190 5191 0
-5191 5220 0
-564 -5191 5192 0
-5192 5221 0
-565 -5192 5193 0
-5193 5222 0
-566 -5193 5194 0
-5194 5223 0
-567 -5194 5195 0
-5195 5224 0
-568 -5195 5196 0
-5196 5225 0
-569 -5196 0
-541 5197 0
-5197 5226 0
-542 -5197 5198 0
-5198 5227 0
-543 -5198 5199 0
-5199 5228 0
-544 -5199 5200 0
-5200 5229 0
-545 -5200 5201 0
-5201 5230 0
-546 -5201 5202 0
-5202 5231 0
-547 -5202 5203 0
-5203 5232 0
-548 -5203 5204 0
-5204 5233 0
-549 -5204 5205 0
-5205 5234 0
-550 -5205 5206 0
-5206 5235 0
-551 -5206 5207 0
-5207 5236 0
-552 -5207 5208 0
-5208 5237 0
-553 -5208 5209 0
-5209 5238 0
-554 -5209 5210 0
-5210 5239 0
-555 -5210 5211 0
-5211 5240 0
-556 -5211 5212 0
-5212 5241 0
-557 -5212 5213 0
-5213 5242 0
-558 -5213 5214 0
-5214 5243 0
-559 -5214 5215 0
-5215 5244 0
-560 -5215 5216 0
-5216 5245 0
-561 -5216 5217 0
-5217 5246 0
-562 -5217 5218 0
-5218 5247 0
-563 -5218 5219 0
-5219 5248 0
-564 -5219 5220 0
-5220 5249 0
-565 -5220 5221 0
-5221 5250 0
-566 -5221 5222 0
-5222 5251 0
-567 -5222 5223 0
-5223 5252 0
-568 -5223 5224 0
-5224 5253 0
-569 -5224 5225 0
-5225 5254 0
-570 -5225 0
-542 5226 0
-5226 5255 0
-543 -5226 5227 0
-5227 5256 0
-544 -5227 5228 0
-5228 5257 0
-545 -5228 5229 0
-5229 5258 0
-546 -5229 5230 0
-5230 5259 0
-547 -5230 5231 0
-5231 5260 0
-548 -5231 5232 0
-5232 5261 0
-549 -5232 5233 0
-5233 5262 0
-550 -5233 5234 0
-5234 5263 0
-551 -5234 5235 0
-5235 5264 0
-552 -5235 5236 0
-5236 5265 0
-553 -5236 5237 0
-5237 5266 0
-554 -5237 5238 0
-5238 5267 0
-555 -5238 5239 0
-5239 5268 0
-556 -5239 5240 0
-5240 5269 0
-557 -5240 5241 0
-5241 5270 0
-558 -5241 5242 0
-5242 5271 0
-559 -5242 5243 0
-5243 5272 0
-560 -5243 5244 0
-5244 5273 0
-561 -5244 5245 0
-5245 5274 0
-562 -5245 5246 0
-5246 5275 0
-563 -5246 5247 0
-5247 5276 0
-564 -5247 5248 0
-5248 5277 0
-565 -5248 5249 0
-5249 5278 0
-566 -5249 5250 0
-5250 5279 0
-567 -5250 5251 0
-5251 5280 0
-568 -5251 5252 0
-5252 5281 0
-569 -5252 5253 0
-5253 5282 0
-570 -5253 5254 0
-5254 5283 0
-571 -5254 0
-543 5255 0
-5255 5284 0
-544 -5255 5256 0
-5256 5285 0
-545 -5256 5257 0
-5257 5286 0
-546 -5257 5258 0
-5258 5287 0
-547 -5258 5259 0
-5259 5288 0
-548 -5259 5260 0
-5260 5289 0
-549 -5260 5261 0
-5261 5290 0
-550 -5261 5262 0
-5262 5291 0
-551 -5262 5263 0
-5263 5292 0
-552 -5263 5264 0
-5264 5293 0
-553 -5264 5265 0
-5265 5294 0
-554 -5265 5266 0
-5266 5295 0
-555 -5266 5267 0
-5267 5296 0
-556 -5267 5268 0
-5268 5297 0
-557 -5268 5269 0
-5269 5298 0
-558 -5269 5270 0
-5270 5299 0
-559 -5270 5271 0
-5271 5300 0
-560 -5271 5272 0
-5272 5301 0
-561 -5272 5273 0
-5273 5302 0
-562 -5273 5274 0
-5274 5303 0
-563 -5274 5275 0
-5275 5304 0
-564 -5275 5276 0
-5276 5305 0
-565 -5276 5277 0
-5277 5306 0
-566 -5277 5278 0
-5278 5307 0
-567 -5278 5279 0
-5279 5308 0
-568 -5279 5280 0
-5280 5309 0
-569 -5280 5281 0
-5281 5310 0
-570 -5281 5282 0
-5282 5311 0
-571 -5282 5283 0
-5283 5312 0
-572 -5283 0
-544 5284 0
-5284 5313 0
-545 -5284 5285 0
-5285 5314 0
-546 -5285 5286 0
-5286 5315 0
-547 -5286 5287 0
-5287 5316 0
-548 -5287 5288 0
-5288 5317 0
-549 -5288 5289 0
-5289 5318 0
-550 -5289 5290 0
-5290 5319 0
-551 -5290 5291 0
-5291 5320 0
-552 -5291 5292 0
-5292 5321 0
-553 -5292 5293 0
-5293 5322 0
-554 -5293 5294 0
-5294 5323 0
-555 -5294 5295 0
-5295 5324 0
-556 -5295 5296 0
-5296 5325 0
-557 -5296 5297 0
-5297 5326 0
-558 -5297 5298 0
-5298 5327 0
-559 -5298 5299 0
-5299 5328 0
-560 -5299 5300 0
-5300 5329 0
-561 -5300 5301 0
-5301 5330 0
-562 -5301 5302 0
-5302 5331 0
-563 -5302 5303 0
-5303 5332 0
-564 -5303 5304 0
-5304 5333 0
-565 -5304 5305 0
-5305 5334 0
-566 -5305 5306 0
-5306 5335 0
-567 -5306 5307 0
-5307 5336 0
-568 -5307 5308 0
-5308 5337 0
-569 -5308 5309 0
-5309 5338 0
-570 -5309 5310 0
-5310 5339 0
-571 -5310 5311 0
-5311 5340 0
-572 -5311 5312 0
-5312 5341 0
-573 -5312 0
-545 5313 0
-5313 5342 0
-546 -5313 5314 0
-5314 5343 0
-547 -5314 5315 0
-5315 5344 0
-548 -5315 5316 0
-5316 5345 0
-549 -5316 5317 0
-5317 5346 0
-550 -5317 5318 0
-5318 5347 0
-551 -5318 5319 0
-5319 5348 0
-552 -5319 5320 0
-5320 5349 0
-553 -5320 5321 0
-5321 5350 0
-554 -5321 5322 0
-5322 5351 0
-555 -5322 5323 0
-5323 5352 0
-556 -5323 5324 0
-5324 5353 0
-557 -5324 5325 0
-5325 5354 0
-558 -5325 5326 0
-5326 5355 0
-559 -5326 5327 0
-5327 5356 0
-560 -5327 5328 0
-5328 5357 0
-561 -5328 5329 0
-5329 5358 0
-562 -5329 5330 0
-5330 5359 0
-563 -5330 5331 0
-5331 5360 0
-564 -5331 5332 0
-5332 5361 0
-565 -5332 5333 0
-5333 5362 0
-566 -5333 5334 0
-5334 5363 0
-567 -5334 5335 0
-5335 5364 0
-568 -5335 5336 0
-5336 5365 0
-569 -5336 5337 0
-5337 5366 0
-570 -5337 5338 0
-5338 5367 0
-571 -5338 5339 0
-5339 5368 0
-572 -5339 5340 0
-5340 5369 0
-573 -5340 5341 0
-5341 5370 0
-574 -5341 0
-546 5342 0
-5342 5371 0
-547 -5342 5343 0
-5343 5372 0
-548 -5343 5344 0
-5344 5373 0
-549 -5344 5345 0
-5345 5374 0
-550 -5345 5346 0
-5346 5375 0
-551 -5346 5347 0
-5347 5376 0
-552 -5347 5348 0
-5348 5377 0
-553 -5348 5349 0
-5349 5378 0
-554 -5349 5350 0
-5350 5379 0
-555 -5350 5351 0
-5351 5380 0
-556 -5351 5352 0
-5352 5381 0
-557 -5352 5353 0
-5353 5382 0
-558 -5353 5354 0
-5354 5383 0
-559 -5354 5355 0
-5355 5384 0
-560 -5355 5356 0
-5356 5385 0
-561 -5356 5357 0
-5357 5386 0
-562 -5357 5358 0
-5358 5387 0
-563 -5358 5359 0
-5359 5388 0
-564 -5359 5360 0
-5360 5389 0
-565 -5360 5361 0
-5361 5390 0
-566 -5361 5362 0
-5362 5391 0
-567 -5362 5363 0
-5363 5392 0
-568 -5363 5364 0
-5364 5393 0
-569 -5364 5365 0
-5365 5394 0
-570 -5365 5366 0
-5366 5395 0
-571 -5366 5367 0
-5367 5396 0
-572 -5367 5368 0
-5368 5397 0
-573 -5368 5369 0
-5369 5398 0
-574 -5369 5370 0
-5370 5399 0
-575 -5370 0
-547 5371 0
-5371 5400 0
-548 -5371 5372 0
-5372 5401 0
-549 -5372 5373 0
-5373 5402 0
-550 -5373 5374 0
-5374 5403 0
-551 -5374 5375 0
-5375 5404 0
-552 -5375 5376 0
-5376 5405 0
-553 -5376 5377 0
-5377 5406 0
-554 -5377 5378 0
-5378 5407 0
-555 -5378 5379 0
-5379 5408 0
-556 -5379 5380 0
-5380 5409 0
-557 -5380 5381 0
-5381 5410 0
-558 -5381 5382 0
-5382 5411 0
-559 -5382 5383 0
-5383 5412 0
-560 -5383 5384 0
-5384 5413 0
-561 -5384 5385 0
-5385 5414 0
-562 -5385 5386 0
-5386 5415 0
-563 -5386 5387 0
-5387 5416 0
-564 -5387 5388 0
-5388 5417 0
-565 -5388 5389 0
-5389 5418 0
-566 -5389 5390 0
-5390 5419 0
-567 -5390 5391 0
-5391 5420 0
-568 -5391 5392 0
-5392 5421 0
-569 -5392 5393 0
-5393 5422 0
-570 -5393 5394 0
-5394 5423 0
-571 -5394 5395 0
-5395 5424 0
-572 -5395 5396 0
-5396 5425 0
-573 -5396 5397 0
-5397 5426 0
-574 -5397 5398 0
-5398 5427 0
-575 -5398 5399 0
-5399 5428 0
-576 -5399 0
-548 5400 0
-5400 5429 0
-549 -5400 5401 0
-5401 5430 0
-550 -5401 5402 0
-5402 5431 0
-551 -5402 5403 0
-5403 5432 0
-552 -5403 5404 0
-5404 5433 0
-553 -5404 5405 0
-5405 5434 0
-554 -5405 5406 0
-5406 5435 0
-555 -5406 5407 0
-5407 5436 0
-556 -5407 5408 0
-5408 5437 0
-557 -5408 5409 0
-5409 5438 0
-558 -5409 5410 0
-5410 5439 0
-559 -5410 5411 0
-5411 5440 0
-560 -5411 5412 0
-5412 5441 0
-561 -5412 5413 0
-5413 5442 0
-562 -5413 5414 0
-5414 5443 0
-563 -5414 5415 0
-5415 5444 0
-564 -5415 5416 0
-5416 5445 0
-565 -5416 5417 0
-5417 5446 0
-566 -5417 5418 0
-5418 5447 0
-567 -5418 5419 0
-5419 5448 0
-568 -5419 5420 0
-5420 5449 0
-569 -5420 5421 0
-5421 5450 0
-570 -5421 5422 0
-5422 5451 0
-571 -5422 5423 0
-5423 5452 0
-572 -5423 5424 0
-5424 5453 0
-573 -5424 5425 0
-5425 5454 0
-574 -5425 5426 0
-5426 5455 0
-575 -5426 5427 0
-5427 5456 0
-576 -5427 5428 0
-5428 5457 0
-577 -5428 0
-549 5429 0
-5429 5458 0
-550 -5429 5430 0
-5430 5459 0
-551 -5430 5431 0
-5431 5460 0
-552 -5431 5432 0
-5432 5461 0
-553 -5432 5433 0
-5433 5462 0
-554 -5433 5434 0
-5434 5463 0
-555 -5434 5435 0
-5435 5464 0
-556 -5435 5436 0
-5436 5465 0
-557 -5436 5437 0
-5437 5466 0
-558 -5437 5438 0
-5438 5467 0
-559 -5438 5439 0
-5439 5468 0
-560 -5439 5440 0
-5440 5469 0
-561 -5440 5441 0
-5441 5470 0
-562 -5441 5442 0
-5442 5471 0
-563 -5442 5443 0
-5443 5472 0
-564 -5443 5444 0
-5444 5473 0
-565 -5444 5445 0
-5445 5474 0
-566 -5445 5446 0
-5446 5475 0
-567 -5446 5447 0
-5447 5476 0
-568 -5447 5448 0
-5448 5477 0
-569 -5448 5449 0
-5449 5478 0
-570 -5449 5450 0
-5450 5479 0
-571 -5450 5451 0
-5451 5480 0
-572 -5451 5452 0
-5452 5481 0
-573 -5452 5453 0
-5453 5482 0
-574 -5453 5454 0
-5454 5483 0
-575 -5454 5455 0
-5455 5484 0
-576 -5455 5456 0
-5456 5485 0
-577 -5456 5457 0
-5457 5486 0
-578 -5457 0
-550 5458 0
-5458 5487 0
-551 -5458 5459 0
-5459 5488 0
-552 -5459 5460 0
-5460 5489 0
-553 -5460 5461 0
-5461 5490 0
-554 -5461 5462 0
-5462 5491 0
-555 -5462 5463 0
-5463 5492 0
-556 -5463 5464 0
-5464 5493 0
-557 -5464 5465 0
-5465 5494 0
-558 -5465 5466 0
-5466 5495 0
-559 -5466 5467 0
-5467 5496 0
-560 -5467 5468 0
-5468 5497 0
-561 -5468 5469 0
-5469 5498 0
-562 -5469 5470 0
-5470 5499 0
-563 -5470 5471 0
-5471 5500 0
-564 -5471 5472 0
-5472 5501 0
-565 -5472 5473 0
-5473 5502 0
-566 -5473 5474 0
-5474 5503 0
-567 -5474 5475 0
-5475 5504 0
-568 -5475 5476 0
-5476 5505 0
-569 -5476 5477 0
-5477 5506 0
-570 -5477 5478 0
-5478 5507 0
-571 -5478 5479 0
-5479 5508 0
-572 -5479 5480 0
-5480 5509 0
-573 -5480 5481 0
-5481 5510 0
-574 -5481 5482 0
-5482 5511 0
-575 -5482 5483 0
-5483 5512 0
-576 -5483 5484 0
-5484 5513 0
-577 -5484 5485 0
-5485 5514 0
-578 -5485 5486 0
-5486 5515 0
-579 -5486 0
-551 5487 0
-5487 5516 0
-552 -5487 5488 0
-5488 5517 0
-553 -5488 5489 0
-5489 5518 0
-554 -5489 5490 0
-5490 5519 0
-555 -5490 5491 0
-5491 5520 0
-556 -5491 5492 0
-5492 5521 0
-557 -5492 5493 0
-5493 5522 0
-558 -5493 5494 0
-5494 5523 0
-559 -5494 5495 0
-5495 5524 0
-560 -5495 5496 0
-5496 5525 0
-561 -5496 5497 0
-5497 5526 0
-562 -5497 5498 0
-5498 5527 0
-563 -5498 5499 0
-5499 5528 0
-564 -5499 5500 0
-5500 5529 0
-565 -5500 5501 0
-5501 5530 0
-566 -5501 5502 0
-5502 5531 0
-567 -5502 5503 0
-5503 5532 0
-568 -5503 5504 0
-5504 5533 0
-569 -5504 5505 0
-5505 5534 0
-570 -5505 5506 0
-5506 5535 0
-571 -5506 5507 0
-5507 5536 0
-572 -5507 5508 0
-5508 5537 0
-573 -5508 5509 0
-5509 5538 0
-574 -5509 5510 0
-5510 5539 0
-575 -5510 5511 0
-5511 5540 0
-576 -5511 5512 0
-5512 5541 0
-577 -5512 5513 0
-5513 5542 0
-578 -5513 5514 0
-5514 5543 0
-579 -5514 5515 0
-5515 5544 0
-580 -5515 0
-552 5516 0
-5516 5545 0
-553 -5516 5517 0
-5517 5546 0
-554 -5517 5518 0
-5518 5547 0
-555 -5518 5519 0
-5519 5548 0
-556 -5519 5520 0
-5520 5549 0
-557 -5520 5521 0
-5521 5550 0
-558 -5521 5522 0
-5522 5551 0
-559 -5522 5523 0
-5523 5552 0
-560 -5523 5524 0
-5524 5553 0
-561 -5524 5525 0
-5525 5554 0
-562 -5525 5526 0
-5526 5555 0
-563 -5526 5527 0
-5527 5556 0
-564 -5527 5528 0
-5528 5557 0
-565 -5528 5529 0
-5529 5558 0
-566 -5529 5530 0
-5530 5559 0
-567 -5530 5531 0
-5531 5560 0
-568 -5531 5532 0
-5532 5561 0
-569 -5532 5533 0
-5533 5562 0
-570 -5533 5534 0
-5534 5563 0
-571 -5534 5535 0
-5535 5564 0
-572 -5535 5536 0
-5536 5565 0
-573 -5536 5537 0
-5537 5566 0
-574 -5537 5538 0
-5538 5567 0
-575 -5538 5539 0
-5539 5568 0
-576 -5539 5540 0
-5540 5569 0
-577 -5540 5541 0
-5541 5570 0
-578 -5541 5542 0
-5542 5571 0
-579 -5542 5543 0
-5543 5572 0
-580 -5543 5544 0
-5544 5573 0
-581 -5544 0
-553 5545 0
-5545 5574 0
-554 -5545 5546 0
-5546 5575 0
-555 -5546 5547 0
-5547 5576 0
-556 -5547 5548 0
-5548 5577 0
-557 -5548 5549 0
-5549 5578 0
-558 -5549 5550 0
-5550 5579 0
-559 -5550 5551 0
-5551 5580 0
-560 -5551 5552 0
-5552 5581 0
-561 -5552 5553 0
-5553 5582 0
-562 -5553 5554 0
-5554 5583 0
-563 -5554 5555 0
-5555 5584 0
-564 -5555 5556 0
-5556 5585 0
-565 -5556 5557 0
-5557 5586 0
-566 -5557 5558 0
-5558 5587 0
-567 -5558 5559 0
-5559 5588 0
-568 -5559 5560 0
-5560 5589 0
-569 -5560 5561 0
-5561 5590 0
-570 -5561 5562 0
-5562 5591 0
-571 -5562 5563 0
-5563 5592 0
-572 -5563 5564 0
-5564 5593 0
-573 -5564 5565 0
-5565 5594 0
-574 -5565 5566 0
-5566 5595 0
-575 -5566 5567 0
-5567 5596 0
-576 -5567 5568 0
-5568 5597 0
-577 -5568 5569 0
-5569 5598 0
-578 -5569 5570 0
-5570 5599 0
-579 -5570 5571 0
-5571 5600 0
-580 -5571 5572 0
-5572 5601 0
-581 -5572 5573 0
-5573 5602 0
-582 -5573 0
-554 5574 0
-5574 5603 0
-555 -5574 5575 0
-5575 5604 0
-556 -5575 5576 0
-5576 5605 0
-557 -5576 5577 0
-5577 5606 0
-558 -5577 5578 0
-5578 5607 0
-559 -5578 5579 0
-5579 5608 0
-560 -5579 5580 0
-5580 5609 0
-561 -5580 5581 0
-5581 5610 0
-562 -5581 5582 0
-5582 5611 0
-563 -5582 5583 0
-5583 5612 0
-564 -5583 5584 0
-5584 5613 0
-565 -5584 5585 0
-5585 5614 0
-566 -5585 5586 0
-5586 5615 0
-567 -5586 5587 0
-5587 5616 0
-568 -5587 5588 0
-5588 5617 0
-569 -5588 5589 0
-5589 5618 0
-570 -5589 5590 0
-5590 5619 0
-571 -5590 5591 0
-5591 5620 0
-572 -5591 5592 0
-5592 5621 0
-573 -5592 5593 0
-5593 5622 0
-574 -5593 5594 0
-5594 5623 0
-575 -5594 5595 0
-5595 5624 0
-576 -5595 5596 0
-5596 5625 0
-577 -5596 5597 0
-5597 5626 0
-578 -5597 5598 0
-5598 5627 0
-579 -5598 5599 0
-5599 5628 0
-580 -5599 5600 0
-5600 5629 0
-581 -5600 5601 0
-5601 5630 0
-582 -5601 5602 0
-5602 5631 0
-583 -5602 0
-555 5603 0
-5603 5632 0
-556 -5603 5604 0
-5604 5633 0
-557 -5604 5605 0
-5605 5634 0
-558 -5605 5606 0
-5606 5635 0
-559 -5606 5607 0
-5607 5636 0
-560 -5607 5608 0
-5608 5637 0
-561 -5608 5609 0
-5609 5638 0
-562 -5609 5610 0
-5610 5639 0
-563 -5610 5611 0
-5611 5640 0
-564 -5611 5612 0
-5612 5641 0
-565 -5612 5613 0
-5613 5642 0
-566 -5613 5614 0
-5614 5643 0
-567 -5614 5615 0
-5615 5644 0
-568 -5615 5616 0
-5616 5645 0
-569 -5616 5617 0
-5617 5646 0
-570 -5617 5618 0
-5618 5647 0
-571 -5618 5619 0
-5619 5648 0
-572 -5619 5620 0
-5620 5649 0
-573 -5620 5621 0
-5621 5650 0
-574 -5621 5622 0
-5622 5651 0
-575 -5622 5623 0
-5623 5652 0
-576 -5623 5624 0
-5624 5653 0
-577 -5624 5625 0
-5625 5654 0
-578 -5625 5626 0
-5626 5655 0
-579 -5626 5627 0
-5627 5656 0
-580 -5627 5628 0
-5628 5657 0
-581 -5628 5629 0
-5629 5658 0
-582 -5629 5630 0
-5630 5659 0
-583 -5630 5631 0
-5631 5660 0
-584 -5631 0
-556 5632 0
-5632 5661 0
-557 -5632 5633 0
-5633 5662 0
-558 -5633 5634 0
-5634 5663 0
-559 -5634 5635 0
-5635 5664 0
-560 -5635 5636 0
-5636 5665 0
-561 -5636 5637 0
-5637 5666 0
-562 -5637 5638 0
-5638 5667 0
-563 -5638 5639 0
-5639 5668 0
-564 -5639 5640 0
-5640 5669 0
-565 -5640 5641 0
-5641 5670 0
-566 -5641 5642 0
-5642 5671 0
-567 -5642 5643 0
-5643 5672 0
-568 -5643 5644 0
-5644 5673 0
-569 -5644 5645 0
-5645 5674 0
-570 -5645 5646 0
-5646 5675 0
-571 -5646 5647 0
-5647 5676 0
-572 -5647 5648 0
-5648 5677 0
-573 -5648 5649 0
-5649 5678 0
-574 -5649 5650 0
-5650 5679 0
-575 -5650 5651 0
-5651 5680 0
-576 -5651 5652 0
-5652 5681 0
-577 -5652 5653 0
-5653 5682 0
-578 -5653 5654 0
-5654 5683 0
-579 -5654 5655 0
-5655 5684 0
-580 -5655 5656 0
-5656 5685 0
-581 -5656 5657 0
-5657 5686 0
-582 -5657 5658 0
-5658 5687 0
-583 -5658 5659 0
-5659 5688 0
-584 -5659 5660 0
-5660 5689 0
-585 -5660 0
-557 5661 0
-5661 5690 0
-558 -5661 5662 0
-5662 5691 0
-559 -5662 5663 0
-5663 5692 0
-560 -5663 5664 0
-5664 5693 0
-561 -5664 5665 0
-5665 5694 0
-562 -5665 5666 0
-5666 5695 0
-563 -5666 5667 0
-5667 5696 0
-564 -5667 5668 0
-5668 5697 0
-565 -5668 5669 0
-5669 5698 0
-566 -5669 5670 0
-5670 5699 0
-567 -5670 5671 0
-5671 5700 0
-568 -5671 5672 0
-5672 5701 0
-569 -5672 5673 0
-5673 5702 0
-570 -5673 5674 0
-5674 5703 0
-571 -5674 5675 0
-5675 5704 0
-572 -5675 5676 0
-5676 5705 0
-573 -5676 5677 0
-5677 5706 0
-574 -5677 5678 0
-5678 5707 0
-575 -5678 5679 0
-5679 5708 0
-576 -5679 5680 0
-5680 5709 0
-577 -5680 5681 0
-5681 5710 0
-578 -5681 5682 0
-5682 5711 0
-579 -5682 5683 0
-5683 5712 0
-580 -5683 5684 0
-5684 5713 0
-581 -5684 5685 0
-5685 5714 0
-582 -5685 5686 0
-5686 5715 0
-583 -5686 5687 0
-5687 5716 0
-584 -5687 5688 0
-5688 5717 0
-585 -5688 5689 0
-5689 5718 0
-586 -5689 0
-558 5690 0
-5690 5719 0
-559 -5690 5691 0
-5691 5720 0
-560 -5691 5692 0
-5692 5721 0
-561 -5692 5693 0
-5693 5722 0
-562 -5693 5694 0
-5694 5723 0
-563 -5694 5695 0
-5695 5724 0
-564 -5695 5696 0
-5696 5725 0
-565 -5696 5697 0
-5697 5726 0
-566 -5697 5698 0
-5698 5727 0
-567 -5698 5699 0
-5699 5728 0
-568 -5699 5700 0
-5700 5729 0
-569 -5700 5701 0
-5701 5730 0
-570 -5701 5702 0
-5702 5731 0
-571 -5702 5703 0
-5703 5732 0
-572 -5703 5704 0
-5704 5733 0
-573 -5704 5705 0
-5705 5734 0
-574 -5705 5706 0
-5706 5735 0
-575 -5706 5707 0
-5707 5736 0
-576 -5707 5708 0
-5708 5737 0
-577 -5708 5709 0
-5709 5738 0
-578 -5709 5710 0
-5710 5739 0
-579 -5710 5711 0
-5711 5740 0
-580 -5711 5712 0
-5712 5741 0
-581 -5712 5713 0
-5713 5742 0
-582 -5713 5714 0
-5714 5743 0
-583 -5714 5715 0
-5715 5744 0
-584 -5715 5716 0
-5716 5745 0
-585 -5716 5717 0
-5717 5746 0
-586 -5717 5718 0
-5718 5747 0
-587 -5718 0
-559 5719 0
-5719 5748 0
-560 -5719 5720 0
-5720 5749 0
-561 -5720 5721 0
-5721 5750 0
-562 -5721 5722 0
-5722 5751 0
-563 -5722 5723 0
-5723 5752 0
-564 -5723 5724 0
-5724 5753 0
-565 -5724 5725 0
-5725 5754 0
-566 -5725 5726 0
-5726 5755 0
-567 -5726 5727 0
-5727 5756 0
-568 -5727 5728 0
-5728 5757 0
-569 -5728 5729 0
-5729 5758 0
-570 -5729 5730 0
-5730 5759 0
-571 -5730 5731 0
-5731 5760 0
-572 -5731 5732 0
-5732 5761 0
-573 -5732 5733 0
-5733 5762 0
-574 -5733 5734 0
-5734 5763 0
-575 -5734 5735 0
-5735 5764 0
-576 -5735 5736 0
-5736 5765 0
-577 -5736 5737 0
-5737 5766 0
-578 -5737 5738 0
-5738 5767 0
-579 -5738 5739 0
-5739 5768 0
-580 -5739 5740 0
-5740 5769 0
-581 -5740 5741 0
-5741 5770 0
-582 -5741 5742 0
-5742 5771 0
-583 -5742 5743 0
-5743 5772 0
-584 -5743 5744 0
-5744 5773 0
-585 -5744 5745 0
-5745 5774 0
-586 -5745 5746 0
-5746 5775 0
-587 -5746 5747 0
-5747 5776 0
-588 -5747 0
-560 5748 0
-5748 5777 0
-561 -5748 5749 0
-5749 5778 0
-562 -5749 5750 0
-5750 5779 0
-563 -5750 5751 0
-5751 5780 0
-564 -5751 5752 0
-5752 5781 0
-565 -5752 5753 0
-5753 5782 0
-566 -5753 5754 0
-5754 5783 0
-567 -5754 5755 0
-5755 5784 0
-568 -5755 5756 0
-5756 5785 0
-569 -5756 5757 0
-5757 5786 0
-570 -5757 5758 0
-5758 5787 0
-571 -5758 5759 0
-5759 5788 0
-572 -5759 5760 0
-5760 5789 0
-573 -5760 5761 0
-5761 5790 0
-574 -5761 5762 0
-5762 5791 0
-575 -5762 5763 0
-5763 5792 0
-576 -5763 5764 0
-5764 5793 0
-577 -5764 5765 0
-5765 5794 0
-578 -5765 5766 0
-5766 5795 0
-579 -5766 5767 0
-5767 5796 0
-580 -5767 5768 0
-5768 5797 0
-581 -5768 5769 0
-5769 5798 0
-582 -5769 5770 0
-5770 5799 0
-583 -5770 5771 0
-5771 5800 0
-584 -5771 5772 0
-5772 5801 0
-585 -5772 5773 0
-5773 5802 0
-586 -5773 5774 0
-5774 5803 0
-587 -5774 5775 0
-5775 5804 0
-588 -5775 5776 0
-5776 5805 0
-589 -5776 0
-561 5777 0
-5777 5806 0
-562 -5777 5778 0
-5778 5807 0
-563 -5778 5779 0
-5779 5808 0
-564 -5779 5780 0
-5780 5809 0
-565 -5780 5781 0
-5781 5810 0
-566 -5781 5782 0
-5782 5811 0
-567 -5782 5783 0
-5783 5812 0
-568 -5783 5784 0
-5784 5813 0
-569 -5784 5785 0
-5785 5814 0
-570 -5785 5786 0
-5786 5815 0
-571 -5786 5787 0
-5787 5816 0
-572 -5787 5788 0
-5788 5817 0
-573 -5788 5789 0
-5789 5818 0
-574 -5789 5790 0
-5790 5819 0
-575 -5790 5791 0
-5791 5820 0
-576 -5791 5792 0
-5792 5821 0
-577 -5792 5793 0
-5793 5822 0
-578 -5793 5794 0
-5794 5823 0
-579 -5794 5795 0
-5795 5824 0
-580 -5795 5796 0
-5796 5825 0
-581 -5796 5797 0
-5797 5826 0
-582 -5797 5798 0
-5798 5827 0
-583 -5798 5799 0
-5799 5828 0
-584 -5799 5800 0
-5800 5829 0
-585 -5800 5801 0
-5801 5830 0
-586 -5801 5802 0
-5802 5831 0
-587 -5802 5803 0
-5803 5832 0
-588 -5803 5804 0
-5804 5833 0
-589 -5804 5805 0
-5805 5834 0
-590 -5805 0
-562 5806 0
-5806 5835 0
-563 -5806 5807 0
-5807 5836 0
-564 -5807 5808 0
-5808 5837 0
-565 -5808 5809 0
-5809 5838 0
-566 -5809 5810 0
-5810 5839 0
-567 -5810 5811 0
-5811 5840 0
-568 -5811 5812 0
-5812 5841 0
-569 -5812 5813 0
-5813 5842 0
-570 -5813 5814 0
-5814 5843 0
-571 -5814 5815 0
-5815 5844 0
-572 -5815 5816 0
-5816 5845 0
-573 -5816 5817 0
-5817 5846 0
-574 -5817 5818 0
-5818 5847 0
-575 -5818 5819 0
-5819 5848 0
-576 -5819 5820 0
-5820 5849 0
-577 -5820 5821 0
-5821 5850 0
-578 -5821 5822 0
-5822 5851 0
-579 -5822 5823 0
-5823 5852 0
-580 -5823 5824 0
-5824 5853 0
-581 -5824 5825 0
-5825 5854 0
-582 -5825 5826 0
-5826 5855 0
-583 -5826 5827 0
-5827 5856 0
-584 -5827 5828 0
-5828 5857 0
-585 -5828 5829 0
-5829 5858 0
-586 -5829 5830 0
-5830 5859 0
-587 -5830 5831 0
-5831 5860 0
-588 -5831 5832 0
-5832 5861 0
-589 -5832 5833 0
-5833 5862 0
-590 -5833 5834 0
-5834 5863 0
-591 -5834 0
-563 5835 0
-5835 5864 0
-564 -5835 5836 0
-5836 5865 0
-565 -5836 5837 0
-5837 5866 0
-566 -5837 5838 0
-5838 5867 0
-567 -5838 5839 0
-5839 5868 0
-568 -5839 5840 0
-5840 5869 0
-569 -5840 5841 0
-5841 5870 0
-570 -5841 5842 0
-5842 5871 0
-571 -5842 5843 0
-5843 5872 0
-572 -5843 5844 0
-5844 5873 0
-573 -5844 5845 0
-5845 5874 0
-574 -5845 5846 0
-5846 5875 0
-575 -5846 5847 0
-5847 5876 0
-576 -5847 5848 0
-5848 5877 0
-577 -5848 5849 0
-5849 5878 0
-578 -5849 5850 0
-5850 5879 0
-579 -5850 5851 0
-5851 5880 0
-580 -5851 5852 0
-5852 5881 0
-581 -5852 5853 0
-5853 5882 0
-582 -5853 5854 0
-5854 5883 0
-583 -5854 5855 0
-5855 5884 0
-584 -5855 5856 0
-5856 5885 0
-585 -5856 5857 0
-5857 5886 0
-586 -5857 5858 0
-5858 5887 0
-587 -5858 5859 0
-5859 5888 0
-588 -5859 5860 0
-5860 5889 0
-589 -5860 5861 0
-5861 5890 0
-590 -5861 5862 0
-5862 5891 0
-591 -5862 5863 0
-5863 5892 0
-592 -5863 0
-564 5864 0
-5864 5893 0
-565 -5864 5865 0
-5865 5894 0
-566 -5865 5866 0
-5866 5895 0
-567 -5866 5867 0
-5867 5896 0
-568 -5867 5868 0
-5868 5897 0
-569 -5868 5869 0
-5869 5898 0
-570 -5869 5870 0
-5870 5899 0
-571 -5870 5871 0
-5871 5900 0
-572 -5871 5872 0
-5872 5901 0
-573 -5872 5873 0
-5873 5902 0
-574 -5873 5874 0
-5874 5903 0
-575 -5874 5875 0
-5875 5904 0
-576 -5875 5876 0
-5876 5905 0
-577 -5876 5877 0
-5877 5906 0
-578 -5877 5878 0
-5878 5907 0
-579 -5878 5879 0
-5879 5908 0
-580 -5879 5880 0
-5880 5909 0
-581 -5880 5881 0
-5881 5910 0
-582 -5881 5882 0
-5882 5911 0
-583 -5882 5883 0
-5883 5912 0
-584 -5883 5884 0
-5884 5913 0
-585 -5884 5885 0
-5885 5914 0
-586 -5885 5886 0
-5886 5915 0
-587 -5886 5887 0
-5887 5916 0
-588 -5887 5888 0
-5888 5917 0
-589 -5888 5889 0
-5889 5918 0
-590 -5889 5890 0
-5890 5919 0
-591 -5890 5891 0
-5891 5920 0
-592 -5891 5892 0
-5892 5921 0
-593 -5892 0
-565 5893 0
-5893 5922 0
-566 -5893 5894 0
-5894 5923 0
-567 -5894 5895 0
-5895 5924 0
-568 -5895 5896 0
-5896 5925 0
-569 -5896 5897 0
-5897 5926 0
-570 -5897 5898 0
-5898 5927 0
-571 -5898 5899 0
-5899 5928 0
-572 -5899 5900 0
-5900 5929 0
-573 -5900 5901 0
-5901 5930 0
-574 -5901 5902 0
-5902 5931 0
-575 -5902 5903 0
-5903 5932 0
-576 -5903 5904 0
-5904 5933 0
-577 -5904 5905 0
-5905 5934 0
-578 -5905 5906 0
-5906 5935 0
-579 -5906 5907 0
-5907 5936 0
-580 -5907 5908 0
-5908 5937 0
-581 -5908 5909 0
-5909 5938 0
-582 -5909 5910 0
-5910 5939 0
-583 -5910 5911 0
-5911 5940 0
-584 -5911 5912 0
-5912 5941 0
-585 -5912 5913 0
-5913 5942 0
-586 -5913 5914 0
-5914 5943 0
-587 -5914 5915 0
-5915 5944 0
-588 -5915 5916 0
-5916 5945 0
-589 -5916 5917 0
-5917 5946 0
-590 -5917 5918 0
-5918 5947 0
-591 -5918 5919 0
-5919 5948 0
-592 -5919 5920 0
-5920 5949 0
-593 -5920 5921 0
-5921 5950 0
-594 -5921 0
-566 5922 0
-5922 5951 0
-567 -5922 5923 0
-5923 5952 0
-568 -5923 5924 0
-5924 5953 0
-569 -5924 5925 0
-5925 5954 0
-570 -5925 5926 0
-5926 5955 0
-571 -5926 5927 0
-5927 5956 0
-572 -5927 5928 0
-5928 5957 0
-573 -5928 5929 0
-5929 5958 0
-574 -5929 5930 0
-5930 5959 0
-575 -5930 5931 0
-5931 5960 0
-576 -5931 5932 0
-5932 5961 0
-577 -5932 5933 0
-5933 5962 0
-578 -5933 5934 0
-5934 5963 0
-579 -5934 5935 0
-5935 5964 0
-580 -5935 5936 0
-5936 5965 0
-581 -5936 5937 0
-5937 5966 0
-582 -5937 5938 0
-5938 5967 0
-583 -5938 5939 0
-5939 5968 0
-584 -5939 5940 0
-5940 5969 0
-585 -5940 5941 0
-5941 5970 0
-586 -5941 5942 0
-5942 5971 0
-587 -5942 5943 0
-5943 5972 0
-588 -5943 5944 0
-5944 5973 0
-589 -5944 5945 0
-5945 5974 0
-590 -5945 5946 0
-5946 5975 0
-591 -5946 5947 0
-5947 5976 0
-592 -5947 5948 0
-5948 5977 0
-593 -5948 5949 0
-5949 5978 0
-594 -5949 5950 0
-5950 5979 0
-595 -5950 0
-567 5951 0
-5951 5980 0
-568 -5951 5952 0
-5952 5981 0
-569 -5952 5953 0
-5953 5982 0
-570 -5953 5954 0
-5954 5983 0
-571 -5954 5955 0
-5955 5984 0
-572 -5955 5956 0
-5956 5985 0
-573 -5956 5957 0
-5957 5986 0
-574 -5957 5958 0
-5958 5987 0
-575 -5958 5959 0
-5959 5988 0
-576 -5959 5960 0
-5960 5989 0
-577 -5960 5961 0
-5961 5990 0
-578 -5961 5962 0
-5962 5991 0
-579 -5962 5963 0
-5963 5992 0
-580 -5963 5964 0
-5964 5993 0
-581 -5964 5965 0
-5965 5994 0
-582 -5965 5966 0
-5966 5995 0
-583 -5966 5967 0
-5967 5996 0
-584 -5967 5968 0
-5968 5997 0
-585 -5968 5969 0
-5969 5998 0
-586 -5969 5970 0
-5970 5999 0
-587 -5970 5971 0
-5971 6000 0
-588 -5971 5972 0
-5972 6001 0
-589 -5972 5973 0
-5973 6002 0
-590 -5973 5974 0
-5974 6003 0
-591 -5974 5975 0
-5975 6004 0
-592 -5975 5976 0
-5976 6005 0
-593 -5976 5977 0
-5977 6006 0
-594 -5977 5978 0
-5978 6007 0
-595 -5978 5979 0
-5979 6008 0
-596 -5979 0
-568 5980 0
-5980 6009 0
-569 -5980 5981 0
-5981 6010 0
-570 -5981 5982 0
-5982 6011 0
-571 -5982 5983 0
-5983 6012 0
-572 -5983 5984 0
-5984 6013 0
-573 -5984 5985 0
-5985 6014 0
-574 -5985 5986 0
-5986 6015 0
-575 -5986 5987 0
-5987 6016 0
-576 -5987 5988 0
-5988 6017 0
-577 -5988 5989 0
-5989 6018 0
-578 -5989 5990 0
-5990 6019 0
-579 -5990 5991 0
-5991 6020 0
-580 -5991 5992 0
-5992 6021 0
-581 -5992 5993 0
-5993 6022 0
-582 -5993 5994 0
-5994 6023 0
-583 -5994 5995 0
-5995 6024 0
-584 -5995 5996 0
-5996 6025 0
-585 -5996 5997 0
-5997 6026 0
-586 -5997 5998 0
-5998 6027 0
-587 -5998 5999 0
-5999 6028 0
-588 -5999 6000 0
-6000 6029 0
-589 -6000 6001 0
-6001 6030 0
-590 -6001 6002 0
-6002 6031 0
-591 -6002 6003 0
-6003 6032 0
-592 -6003 6004 0
-6004 6033 0
-593 -6004 6005 0
-6005 6034 0
-594 -6005 6006 0
-6006 6035 0
-595 -6006 6007 0
-6007 6036 0
-596 -6007 6008 0
-6008 6037 0
-597 -6008 0
-569 6009 0
-6009 6038 0
-570 -6009 6010 0
-6010 6039 0
-571 -6010 6011 0
-6011 6040 0
-572 -6011 6012 0
-6012 6041 0
-573 -6012 6013 0
-6013 6042 0
-574 -6013 6014 0
-6014 6043 0
-575 -6014 6015 0
-6015 6044 0
-576 -6015 6016 0
-6016 6045 0
-577 -6016 6017 0
-6017 6046 0
-578 -6017 6018 0
-6018 6047 0
-579 -6018 6019 0
-6019 6048 0
-580 -6019 6020 0
-6020 6049 0
-581 -6020 6021 0
-6021 6050 0
-582 -6021 6022 0
-6022 6051 0
-583 -6022 6023 0
-6023 6052 0
-584 -6023 6024 0
-6024 6053 0
-585 -6024 6025 0
-6025 6054 0
-586 -6025 6026 0
-6026 6055 0
-587 -6026 6027 0
-6027 6056 0
-588 -6027 6028 0
-6028 6057 0
-589 -6028 6029 0
-6029 6058 0
-590 -6029 6030 0
-6030 6059 0
-591 -6030 6031 0
-6031 6060 0
-592 -6031 6032 0
-6032 6061 0
-593 -6032 6033 0
-6033 6062 0
-594 -6033 6034 0
-6034 6063 0
-595 -6034 6035 0
-6035 6064 0
-596 -6035 6036 0
-6036 6065 0
-597 -6036 6037 0
-6037 6066 0
-598 -6037 0
-570 6038 0
-6038 6067 0
-571 -6038 6039 0
-6039 6068 0
-572 -6039 6040 0
-6040 6069 0
-573 -6040 6041 0
-6041 6070 0
-574 -6041 6042 0
-6042 6071 0
-575 -6042 6043 0
-6043 6072 0
-576 -6043 6044 0
-6044 6073 0
-577 -6044 6045 0
-6045 6074 0
-578 -6045 6046 0
-6046 6075 0
-579 -6046 6047 0
-6047 6076 0
-580 -6047 6048 0
-6048 6077 0
-581 -6048 6049 0
-6049 6078 0
-582 -6049 6050 0
-6050 6079 0
-583 -6050 6051 0
-6051 6080 0
-584 -6051 6052 0
-6052 6081 0
-585 -6052 6053 0
-6053 6082 0
-586 -6053 6054 0
-6054 6083 0
-587 -6054 6055 0
-6055 6084 0
-588 -6055 6056 0
-6056 6085 0
-589 -6056 6057 0
-6057 6086 0
-590 -6057 6058 0
-6058 6087 0
-591 -6058 6059 0
-6059 6088 0
-592 -6059 6060 0
-6060 6089 0
-593 -6060 6061 0
-6061 6090 0
-594 -6061 6062 0
-6062 6091 0
-595 -6062 6063 0
-6063 6092 0
-596 -6063 6064 0
-6064 6093 0
-597 -6064 6065 0
-6065 6094 0
-598 -6065 6066 0
-6066 6095 0
-599 -6066 0
-571 6067 0
-6067 6096 0
-572 -6067 6068 0
-6068 6097 0
-573 -6068 6069 0
-6069 6098 0
-574 -6069 6070 0
-6070 6099 0
-575 -6070 6071 0
-6071 6100 0
-576 -6071 6072 0
-6072 6101 0
-577 -6072 6073 0
-6073 6102 0
-578 -6073 6074 0
-6074 6103 0
-579 -6074 6075 0
-6075 6104 0
-580 -6075 6076 0
-6076 6105 0
-581 -6076 6077 0
-6077 6106 0
-582 -6077 6078 0
-6078 6107 0
-583 -6078 6079 0
-6079 6108 0
-584 -6079 6080 0
-6080 6109 0
-585 -6080 6081 0
-6081 6110 0
-586 -6081 6082 0
-6082 6111 0
-587 -6082 6083 0
-6083 6112 0
-588 -6083 6084 0
-6084 6113 0
-589 -6084 6085 0
-6085 6114 0
-590 -6085 6086 0
-6086 6115 0
-591 -6086 6087 0
-6087 6116 0
-592 -6087 6088 0
-6088 6117 0
-593 -6088 6089 0
-6089 6118 0
-594 -6089 6090 0
-6090 6119 0
-595 -6090 6091 0
-6091 6120 0
-596 -6091 6092 0
-6092 6121 0
-597 -6092 6093 0
-6093 6122 0
-598 -6093 6094 0
-6094 6123 0
-599 -6094 6095 0
-6095 6124 0
-600 -6095 0
-572 6096 0
-6096 6125 0
-573 -6096 6097 0
-6097 6126 0
-574 -6097 6098 0
-6098 6127 0
-575 -6098 6099 0
-6099 6128 0
-576 -6099 6100 0
-6100 6129 0
-577 -6100 6101 0
-6101 6130 0
-578 -6101 6102 0
-6102 6131 0
-579 -6102 6103 0
-6103 6132 0
-580 -6103 6104 0
-6104 6133 0
-581 -6104 6105 0
-6105 6134 0
-582 -6105 6106 0
-6106 6135 0
-583 -6106 6107 0
-6107 6136 0
-584 -6107 6108 0
-6108 6137 0
-585 -6108 6109 0
-6109 6138 0
-586 -6109 6110 0
-6110 6139 0
-587 -6110 6111 0
-6111 6140 0
-588 -6111 6112 0
-6112 6141 0
-589 -6112 6113 0
-6113 6142 0
-590 -6113 6114 0
-6114 6143 0
-591 -6114 6115 0
-6115 6144 0
-592 -6115 6116 0
-6116 6145 0
-593 -6116 6117 0
-6117 6146 0
-594 -6117 6118 0
-6118 6147 0
-595 -6118 6119 0
-6119 6148 0
-596 -6119 6120 0
-6120 6149 0
-597 -6120 6121 0
-6121 6150 0
-598 -6121 6122 0
-6122 6151 0
-599 -6122 6123 0
-6123 6152 0
-600 -6123 6124 0
-6124 6153 0
-601 -6124 0
-573 6125 0
-6125 6154 0
-574 -6125 6126 0
-6126 6155 0
-575 -6126 6127 0
-6127 6156 0
-576 -6127 6128 0
-6128 6157 0
-577 -6128 6129 0
-6129 6158 0
-578 -6129 6130 0
-6130 6159 0
-579 -6130 6131 0
-6131 6160 0
-580 -6131 6132 0
-6132 6161 0
-581 -6132 6133 0
-6133 6162 0
-582 -6133 6134 0
-6134 6163 0
-583 -6134 6135 0
-6135 6164 0
-584 -6135 6136 0
-6136 6165 0
-585 -6136 6137 0
-6137 6166 0
-586 -6137 6138 0
-6138 6167 0
-587 -6138 6139 0
-6139 6168 0
-588 -6139 6140 0
-6140 6169 0
-589 -6140 6141 0
-6141 6170 0
-590 -6141 6142 0
-6142 6171 0
-591 -6142 6143 0
-6143 6172 0
-592 -6143 6144 0
-6144 6173 0
-593 -6144 6145 0
-6145 6174 0
-594 -6145 6146 0
-6146 6175 0
-595 -6146 6147 0
-6147 6176 0
-596 -6147 6148 0
-6148 6177 0
-597 -6148 6149 0
-6149 6178 0
-598 -6149 6150 0
-6150 6179 0
-599 -6150 6151 0
-6151 6180 0
-600 -6151 6152 0
-6152 6181 0
-601 -6152 6153 0
-6153 6182 0
-602 -6153 0
-574 6154 0
-6154 6183 0
-575 -6154 6155 0
-6155 6184 0
-576 -6155 6156 0
-6156 6185 0
-577 -6156 6157 0
-6157 6186 0
-578 -6157 6158 0
-6158 6187 0
-579 -6158 6159 0
-6159 6188 0
-580 -6159 6160 0
-6160 6189 0
-581 -6160 6161 0
-6161 6190 0
-582 -6161 6162 0
-6162 6191 0
-583 -6162 6163 0
-6163 6192 0
-584 -6163 6164 0
-6164 6193 0
-585 -6164 6165 0
-6165 6194 0
-586 -6165 6166 0
-6166 6195 0
-587 -6166 6167 0
-6167 6196 0
-588 -6167 6168 0
-6168 6197 0
-589 -6168 6169 0
-6169 6198 0
-590 -6169 6170 0
-6170 6199 0
-591 -6170 6171 0
-6171 6200 0
-592 -6171 6172 0
-6172 6201 0
-593 -6172 6173 0
-6173 6202 0
-594 -6173 6174 0
-6174 6203 0
-595 -6174 6175 0
-6175 6204 0
-596 -6175 6176 0
-6176 6205 0
-597 -6176 6177 0
-6177 6206 0
-598 -6177 6178 0
-6178 6207 0
-599 -6178 6179 0
-6179 6208 0
-600 -6179 6180 0
-6180 6209 0
-601 -6180 6181 0
-6181 6210 0
-602 -6181 6182 0
-6182 6211 0
-603 -6182 0
-575 6183 0
-6183 6212 0
-576 -6183 6184 0
-6184 6213 0
-577 -6184 6185 0
-6185 6214 0
-578 -6185 6186 0
-6186 6215 0
-579 -6186 6187 0
-6187 6216 0
-580 -6187 6188 0
-6188 6217 0
-581 -6188 6189 0
-6189 6218 0
-582 -6189 6190 0
-6190 6219 0
-583 -6190 6191 0
-6191 6220 0
-584 -6191 6192 0
-6192 6221 0
-585 -6192 6193 0
-6193 6222 0
-586 -6193 6194 0
-6194 6223 0
-587 -6194 6195 0
-6195 6224 0
-588 -6195 6196 0
-6196 6225 0
-589 -6196 6197 0
-6197 6226 0
-590 -6197 6198 0
-6198 6227 0
-591 -6198 6199 0
-6199 6228 0
-592 -6199 6200 0
-6200 6229 0
-593 -6200 6201 0
-6201 6230 0
-594 -6201 6202 0
-6202 6231 0
-595 -6202 6203 0
-6203 6232 0
-596 -6203 6204 0
-6204 6233 0
-597 -6204 6205 0
-6205 6234 0
-598 -6205 6206 0
-6206 6235 0
-599 -6206 6207 0
-6207 6236 0
-600 -6207 6208 0
-6208 6237 0
-601 -6208 6209 0
-6209 6238 0
-602 -6209 6210 0
-6210 6239 0
-603 -6210 6211 0
-6211 6240 0
-604 -6211 0
-576 6212 0
-6212 6241 0
-577 -6212 6213 0
-6213 6242 0
-578 -6213 6214 0
-6214 6243 0
-579 -6214 6215 0
-6215 6244 0
-580 -6215 6216 0
-6216 6245 0
-581 -6216 6217 0
-6217 6246 0
-582 -6217 6218 0
-6218 6247 0
-583 -6218 6219 0
-6219 6248 0
-584 -6219 6220 0
-6220 6249 0
-585 -6220 6221 0
-6221 6250 0
-586 -6221 6222 0
-6222 6251 0
-587 -6222 6223 0
-6223 6252 0
-588 -6223 6224 0
-6224 6253 0
-589 -6224 6225 0
-6225 6254 0
-590 -6225 6226 0
-6226 6255 0
-591 -6226 6227 0
-6227 6256 0
-592 -6227 6228 0
-6228 6257 0
-593 -6228 6229 0
-6229 6258 0
-594 -6229 6230 0
-6230 6259 0
-595 -6230 6231 0
-6231 6260 0
-596 -6231 6232 0
-6232 6261 0
-597 -6232 6233 0
-6233 6262 0
-598 -6233 6234 0
-6234 6263 0
-599 -6234 6235 0
-6235 6264 0
-600 -6235 6236 0
-6236 6265 0
-601 -6236 6237 0
-6237 6266 0
-602 -6237 6238 0
-6238 6267 0
-603 -6238 6239 0
-6239 6268 0
-604 -6239 6240 0
-6240 6269 0
-605 -6240 0
-577 6241 0
-6241 6270 0
-578 -6241 6242 0
-6242 6271 0
-579 -6242 6243 0
-6243 6272 0
-580 -6243 6244 0
-6244 6273 0
-581 -6244 6245 0
-6245 6274 0
-582 -6245 6246 0
-6246 6275 0
-583 -6246 6247 0
-6247 6276 0
-584 -6247 6248 0
-6248 6277 0
-585 -6248 6249 0
-6249 6278 0
-586 -6249 6250 0
-6250 6279 0
-587 -6250 6251 0
-6251 6280 0
-588 -6251 6252 0
-6252 6281 0
-589 -6252 6253 0
-6253 6282 0
-590 -6253 6254 0
-6254 6283 0
-591 -6254 6255 0
-6255 6284 0
-592 -6255 6256 0
-6256 6285 0
-593 -6256 6257 0
-6257 6286 0
-594 -6257 6258 0
-6258 6287 0
-595 -6258 6259 0
-6259 6288 0
-596 -6259 6260 0
-6260 6289 0
-597 -6260 6261 0
-6261 6290 0
-598 -6261 6262 0
-6262 6291 0
-599 -6262 6263 0
-6263 6292 0
-600 -6263 6264 0
-6264 6293 0
-601 -6264 6265 0
-6265 6294 0
-602 -6265 6266 0
-6266 6295 0
-603 -6266 6267 0
-6267 6296 0
-604 -6267 6268 0
-6268 6297 0
-605 -6268 6269 0
-6269 6298 0
-606 -6269 0
-578 6270 0
-6270 6299 0
-579 -6270 6271 0
-6271 6300 0
-580 -6271 6272 0
-6272 6301 0
-581 -6272 6273 0
-6273 6302 0
-582 -6273 6274 0
-6274 6303 0
-583 -6274 6275 0
-6275 6304 0
-584 -6275 6276 0
-6276 6305 0
-585 -6276 6277 0
-6277 6306 0
-586 -6277 6278 0
-6278 6307 0
-587 -6278 6279 0
-6279 6308 0
-588 -6279 6280 0
-6280 6309 0
-589 -6280 6281 0
-6281 6310 0
-590 -6281 6282 0
-6282 6311 0
-591 -6282 6283 0
-6283 6312 0
-592 -6283 6284 0
-6284 6313 0
-593 -6284 6285 0
-6285 6314 0
-594 -6285 6286 0
-6286 6315 0
-595 -6286 6287 0
-6287 6316 0
-596 -6287 6288 0
-6288 6317 0
-597 -6288 6289 0
-6289 6318 0
-598 -6289 6290 0
-6290 6319 0
-599 -6290 6291 0
-6291 6320 0
-600 -6291 6292 0
-6292 6321 0
-601 -6292 6293 0
-6293 6322 0
-602 -6293 6294 0
-6294 6323 0
-603 -6294 6295 0
-6295 6324 0
-604 -6295 6296 0
-6296 6325 0
-605 -6296 6297 0
-6297 6326 0
-606 -6297 6298 0
-6298 6327 0
-607 -6298 0
-579 6299 0
-6299 6328 0
-580 -6299 6300 0
-6300 6329 0
-581 -6300 6301 0
-6301 6330 0
-582 -6301 6302 0
-6302 6331 0
-583 -6302 6303 0
-6303 6332 0
-584 -6303 6304 0
-6304 6333 0
-585 -6304 6305 0
-6305 6334 0
-586 -6305 6306 0
-6306 6335 0
-587 -6306 6307 0
-6307 6336 0
-588 -6307 6308 0
-6308 6337 0
-589 -6308 6309 0
-6309 6338 0
-590 -6309 6310 0
-6310 6339 0
-591 -6310 6311 0
-6311 6340 0
-592 -6311 6312 0
-6312 6341 0
-593 -6312 6313 0
-6313 6342 0
-594 -6313 6314 0
-6314 6343 0
-595 -6314 6315 0
-6315 6344 0
-596 -6315 6316 0
-6316 6345 0
-597 -6316 6317 0
-6317 6346 0
-598 -6317 6318 0
-6318 6347 0
-599 -6318 6319 0
-6319 6348 0
-600 -6319 6320 0
-6320 6349 0
-601 -6320 6321 0
-6321 6350 0
-602 -6321 6322 0
-6322 6351 0
-603 -6322 6323 0
-6323 6352 0
-604 -6323 6324 0
-6324 6353 0
-605 -6324 6325 0
-6325 6354 0
-606 -6325 6326 0
-6326 6355 0
-607 -6326 6327 0
-6327 6356 0
-608 -6327 0
-580 6328 0
-6328 6357 0
-581 -6328 6329 0
-6329 6358 0
-582 -6329 6330 0
-6330 6359 0
-583 -6330 6331 0
-6331 6360 0
-584 -6331 6332 0
-6332 6361 0
-585 -6332 6333 0
-6333 6362 0
-586 -6333 6334 0
-6334 6363 0
-587 -6334 6335 0
-6335 6364 0
-588 -6335 6336 0
-6336 6365 0
-589 -6336 6337 0
-6337 6366 0
-590 -6337 6338 0
-6338 6367 0
-591 -6338 6339 0
-6339 6368 0
-592 -6339 6340 0
-6340 6369 0
-593 -6340 6341 0
-6341 6370 0
-594 -6341 6342 0
-6342 6371 0
-595 -6342 6343 0
-6343 6372 0
-596 -6343 6344 0
-6344 6373 0
-597 -6344 6345 0
-6345 6374 0
-598 -6345 6346 0
-6346 6375 0
-599 -6346 6347 0
-6347 6376 0
-600 -6347 6348 0
-6348 6377 0
-601 -6348 6349 0
-6349 6378 0
-602 -6349 6350 0
-6350 6379 0
-603 -6350 6351 0
-6351 6380 0
-604 -6351 6352 0
-6352 6381 0
-605 -6352 6353 0
-6353 6382 0
-606 -6353 6354 0
-6354 6383 0
-607 -6354 6355 0
-6355 6384 0
-608 -6355 6356 0
-6356 6385 0
-609 -6356 0
-581 6357 0
-6357 6386 0
-582 -6357 6358 0
-6358 6387 0
-583 -6358 6359 0
-6359 6388 0
-584 -6359 6360 0
-6360 6389 0
-585 -6360 6361 0
-6361 6390 0
-586 -6361 6362 0
-6362 6391 0
-587 -6362 6363 0
-6363 6392 0
-588 -6363 6364 0
-6364 6393 0
-589 -6364 6365 0
-6365 6394 0
-590 -6365 6366 0
-6366 6395 0
-591 -6366 6367 0
-6367 6396 0
-592 -6367 6368 0
-6368 6397 0
-593 -6368 6369 0
-6369 6398 0
-594 -6369 6370 0
-6370 6399 0
-595 -6370 6371 0
-6371 6400 0
-596 -6371 6372 0
-6372 6401 0
-597 -6372 6373 0
-6373 6402 0
-598 -6373 6374 0
-6374 6403 0
-599 -6374 6375 0
-6375 6404 0
-600 -6375 6376 0
-6376 6405 0
-601 -6376 6377 0
-6377 6406 0
-602 -6377 6378 0
-6378 6407 0
-603 -6378 6379 0
-6379 6408 0
-604 -6379 6380 0
-6380 6409 0
-605 -6380 6381 0
-6381 6410 0
-606 -6381 6382 0
-6382 6411 0
-607 -6382 6383 0
-6383 6412 0
-608 -6383 6384 0
-6384 6413 0
-609 -6384 6385 0
-6385 6414 0
-610 -6385 0
-582 6386 0
-6386 6415 0
-583 -6386 6387 0
-6387 6416 0
-584 -6387 6388 0
-6388 6417 0
-585 -6388 6389 0
-6389 6418 0
-586 -6389 6390 0
-6390 6419 0
-587 -6390 6391 0
-6391 6420 0
-588 -6391 6392 0
-6392 6421 0
-589 -6392 6393 0
-6393 6422 0
-590 -6393 6394 0
-6394 6423 0
-591 -6394 6395 0
-6395 6424 0
-592 -6395 6396 0
-6396 6425 0
-593 -6396 6397 0
-6397 6426 0
-594 -6397 6398 0
-6398 6427 0
-595 -6398 6399 0
-6399 6428 0
-596 -6399 6400 0
-6400 6429 0
-597 -6400 6401 0
-6401 6430 0
-598 -6401 6402 0
-6402 6431 0
-599 -6402 6403 0
-6403 6432 0
-600 -6403 6404 0
-6404 6433 0
-601 -6404 6405 0
-6405 6434 0
-602 -6405 6406 0
-6406 6435 0
-603 -6406 6407 0
-6407 6436 0
-604 -6407 6408 0
-6408 6437 0
-605 -6408 6409 0
-6409 6438 0
-606 -6409 6410 0
-6410 6439 0
-607 -6410 6411 0
-6411 6440 0
-608 -6411 6412 0
-6412 6441 0
-609 -6412 6413 0
-6413 6442 0
-610 -6413 6414 0
-6414 6443 0
-611 -6414 0
-583 6415 0
-6415 6444 0
-584 -6415 6416 0
-6416 6445 0
-585 -6416 6417 0
-6417 6446 0
-586 -6417 6418 0
-6418 6447 0
-587 -6418 6419 0
-6419 6448 0
-588 -6419 6420 0
-6420 6449 0
-589 -6420 6421 0
-6421 6450 0
-590 -6421 6422 0
-6422 6451 0
-591 -6422 6423 0
-6423 6452 0
-592 -6423 6424 0
-6424 6453 0
-593 -6424 6425 0
-6425 6454 0
-594 -6425 6426 0
-6426 6455 0
-595 -6426 6427 0
-6427 6456 0
-596 -6427 6428 0
-6428 6457 0
-597 -6428 6429 0
-6429 6458 0
-598 -6429 6430 0
-6430 6459 0
-599 -6430 6431 0
-6431 6460 0
-600 -6431 6432 0
-6432 6461 0
-601 -6432 6433 0
-6433 6462 0
-602 -6433 6434 0
-6434 6463 0
-603 -6434 6435 0
-6435 6464 0
-604 -6435 6436 0
-6436 6465 0
-605 -6436 6437 0
-6437 6466 0
-606 -6437 6438 0
-6438 6467 0
-607 -6438 6439 0
-6439 6468 0
-608 -6439 6440 0
-6440 6469 0
-609 -6440 6441 0
-6441 6470 0
-610 -6441 6442 0
-6442 6471 0
-611 -6442 6443 0
-6443 6472 0
-612 -6443 0
-584 6444 0
-6444 6473 0
-585 -6444 6445 0
-6445 6474 0
-586 -6445 6446 0
-6446 6475 0
-587 -6446 6447 0
-6447 6476 0
-588 -6447 6448 0
-6448 6477 0
-589 -6448 6449 0
-6449 6478 0
-590 -6449 6450 0
-6450 6479 0
-591 -6450 6451 0
-6451 6480 0
-592 -6451 6452 0
-6452 6481 0
-593 -6452 6453 0
-6453 6482 0
-594 -6453 6454 0
-6454 6483 0
-595 -6454 6455 0
-6455 6484 0
-596 -6455 6456 0
-6456 6485 0
-597 -6456 6457 0
-6457 6486 0
-598 -6457 6458 0
-6458 6487 0
-599 -6458 6459 0
-6459 6488 0
-600 -6459 6460 0
-6460 6489 0
-601 -6460 6461 0
-6461 6490 0
-602 -6461 6462 0
-6462 6491 0
-603 -6462 6463 0
-6463 6492 0
-604 -6463 6464 0
-6464 6493 0
-605 -6464 6465 0
-6465 6494 0
-606 -6465 6466 0
-6466 6495 0
-607 -6466 6467 0
-6467 6496 0
-608 -6467 6468 0
-6468 6497 0
-609 -6468 6469 0
-6469 6498 0
-610 -6469 6470 0
-6470 6499 0
-611 -6470 6471 0
-6471 6500 0
-612 -6471 6472 0
-6472 6501 0
-613 -6472 0
-585 6473 0
-6473 6502 0
-586 -6473 6474 0
-6474 6503 0
-587 -6474 6475 0
-6475 6504 0
-588 -6475 6476 0
-6476 6505 0
-589 -6476 6477 0
-6477 6506 0
-590 -6477 6478 0
-6478 6507 0
-591 -6478 6479 0
-6479 6508 0
-592 -6479 6480 0
-6480 6509 0
-593 -6480 6481 0
-6481 6510 0
-594 -6481 6482 0
-6482 6511 0
-595 -6482 6483 0
-6483 6512 0
-596 -6483 6484 0
-6484 6513 0
-597 -6484 6485 0
-6485 6514 0
-598 -6485 6486 0
-6486 6515 0
-599 -6486 6487 0
-6487 6516 0
-600 -6487 6488 0
-6488 6517 0
-601 -6488 6489 0
-6489 6518 0
-602 -6489 6490 0
-6490 6519 0
-603 -6490 6491 0
-6491 6520 0
-604 -6491 6492 0
-6492 6521 0
-605 -6492 6493 0
-6493 6522 0
-606 -6493 6494 0
-6494 6523 0
-607 -6494 6495 0
-6495 6524 0
-608 -6495 6496 0
-6496 6525 0
-609 -6496 6497 0
-6497 6526 0
-610 -6497 6498 0
-6498 6527 0
-611 -6498 6499 0
-6499 6528 0
-612 -6499 6500 0
-6500 6529 0
-613 -6500 6501 0
-6501 6530 0
-614 -6501 0
-586 6502 0
-6502 6531 0
-587 -6502 6503 0
-6503 6532 0
-588 -6503 6504 0
-6504 6533 0
-589 -6504 6505 0
-6505 6534 0
-590 -6505 6506 0
-6506 6535 0
-591 -6506 6507 0
-6507 6536 0
-592 -6507 6508 0
-6508 6537 0
-593 -6508 6509 0
-6509 6538 0
-594 -6509 6510 0
-6510 6539 0
-595 -6510 6511 0
-6511 6540 0
-596 -6511 6512 0
-6512 6541 0
-597 -6512 6513 0
-6513 6542 0
-598 -6513 6514 0
-6514 6543 0
-599 -6514 6515 0
-6515 6544 0
-600 -6515 6516 0
-6516 6545 0
-601 -6516 6517 0
-6517 6546 0
-602 -6517 6518 0
-6518 6547 0
-603 -6518 6519 0
-6519 6548 0
-604 -6519 6520 0
-6520 6549 0
-605 -6520 6521 0
-6521 6550 0
-606 -6521 6522 0
-6522 6551 0
-607 -6522 6523 0
-6523 6552 0
-608 -6523 6524 0
-6524 6553 0
-609 -6524 6525 0
-6525 6554 0
-610 -6525 6526 0
-6526 6555 0
-611 -6526 6527 0
-6527 6556 0
-612 -6527 6528 0
-6528 6557 0
-613 -6528 6529 0
-6529 6558 0
-614 -6529 6530 0
-6530 6559 0
-615 -6530 0
-587 6531 0
-6531 6560 0
-588 -6531 6532 0
-6532 6561 0
-589 -6532 6533 0
-6533 6562 0
-590 -6533 6534 0
-6534 6563 0
-591 -6534 6535 0
-6535 6564 0
-592 -6535 6536 0
-6536 6565 0
-593 -6536 6537 0
-6537 6566 0
-594 -6537 6538 0
-6538 6567 0
-595 -6538 6539 0
-6539 6568 0
-596 -6539 6540 0
-6540 6569 0
-597 -6540 6541 0
-6541 6570 0
-598 -6541 6542 0
-6542 6571 0
-599 -6542 6543 0
-6543 6572 0
-600 -6543 6544 0
-6544 6573 0
-601 -6544 6545 0
-6545 6574 0
-602 -6545 6546 0
-6546 6575 0
-603 -6546 6547 0
-6547 6576 0
-604 -6547 6548 0
-6548 6577 0
-605 -6548 6549 0
-6549 6578 0
-606 -6549 6550 0
-6550 6579 0
-607 -6550 6551 0
-6551 6580 0
-608 -6551 6552 0
-6552 6581 0
-609 -6552 6553 0
-6553 6582 0
-610 -6553 6554 0
-6554 6583 0
-611 -6554 6555 0
-6555 6584 0
-612 -6555 6556 0
-6556 6585 0
-613 -6556 6557 0
-6557 6586 0
-614 -6557 6558 0
-6558 6587 0
-615 -6558 6559 0
-6559 6588 0
-616 -6559 0
-588 6560 0
-6560 6589 0
-589 -6560 6561 0
-6561 6590 0
-590 -6561 6562 0
-6562 6591 0
-591 -6562 6563 0
-6563 6592 0
-592 -6563 6564 0
-6564 6593 0
-593 -6564 6565 0
-6565 6594 0
-594 -6565 6566 0
-6566 6595 0
-595 -6566 6567 0
-6567 6596 0
-596 -6567 6568 0
-6568 6597 0
-597 -6568 6569 0
-6569 6598 0
-598 -6569 6570 0
-6570 6599 0
-599 -6570 6571 0
-6571 6600 0
-600 -6571 6572 0
-6572 6601 0
-601 -6572 6573 0
-6573 6602 0
-602 -6573 6574 0
-6574 6603 0
-603 -6574 6575 0
-6575 6604 0
-604 -6575 6576 0
-6576 6605 0
-605 -6576 6577 0
-6577 6606 0
-606 -6577 6578 0
-6578 6607 0
-607 -6578 6579 0
-6579 6608 0
-608 -6579 6580 0
-6580 6609 0
-609 -6580 6581 0
-6581 6610 0
-610 -6581 6582 0
-6582 6611 0
-611 -6582 6583 0
-6583 6612 0
-612 -6583 6584 0
-6584 6613 0
-613 -6584 6585 0
-6585 6614 0
-614 -6585 6586 0
-6586 6615 0
-615 -6586 6587 0
-6587 6616 0
-616 -6587 6588 0
-6588 6617 0
-617 -6588 0
-589 6589 0
-6589 6618 0
-590 -6589 6590 0
-6590 6619 0
-591 -6590 6591 0
-6591 6620 0
-592 -6591 6592 0
-6592 6621 0
-593 -6592 6593 0
-6593 6622 0
-594 -6593 6594 0
-6594 6623 0
-595 -6594 6595 0
-6595 6624 0
-596 -6595 6596 0
-6596 6625 0
-597 -6596 6597 0
-6597 6626 0
-598 -6597 6598 0
-6598 6627 0
-599 -6598 6599 0
-6599 6628 0
-600 -6599 6600 0
-6600 6629 0
-601 -6600 6601 0
-6601 6630 0
-602 -6601 6602 0
-6602 6631 0
-603 -6602 6603 0
-6603 6632 0
-604 -6603 6604 0
-6604 6633 0
-605 -6604 6605 0
-6605 6634 0
-606 -6605 6606 0
-6606 6635 0
-607 -6606 6607 0
-6607 6636 0
-608 -6607 6608 0
-6608 6637 0
-609 -6608 6609 0
-6609 6638 0
-610 -6609 6610 0
-6610 6639 0
-611 -6610 6611 0
-6611 6640 0
-612 -6611 6612 0
-6612 6641 0
-613 -6612 6613 0
-6613 6642 0
-614 -6613 6614 0
-6614 6643 0
-615 -6614 6615 0
-6615 6644 0
-616 -6615 6616 0
-6616 6645 0
-617 -6616 6617 0
-6617 6646 0
-618 -6617 0
-590 6618 0
-6618 6647 0
-591 -6618 6619 0
-6619 6648 0
-592 -6619 6620 0
-6620 6649 0
-593 -6620 6621 0
-6621 6650 0
-594 -6621 6622 0
-6622 6651 0
-595 -6622 6623 0
-6623 6652 0
-596 -6623 6624 0
-6624 6653 0
-597 -6624 6625 0
-6625 6654 0
-598 -6625 6626 0
-6626 6655 0
-599 -6626 6627 0
-6627 6656 0
-600 -6627 6628 0
-6628 6657 0
-601 -6628 6629 0
-6629 6658 0
-602 -6629 6630 0
-6630 6659 0
-603 -6630 6631 0
-6631 6660 0
-604 -6631 6632 0
-6632 6661 0
-605 -6632 6633 0
-6633 6662 0
-606 -6633 6634 0
-6634 6663 0
-607 -6634 6635 0
-6635 6664 0
-608 -6635 6636 0
-6636 6665 0
-609 -6636 6637 0
-6637 6666 0
-610 -6637 6638 0
-6638 6667 0
-611 -6638 6639 0
-6639 6668 0
-612 -6639 6640 0
-6640 6669 0
-613 -6640 6641 0
-6641 6670 0
-614 -6641 6642 0
-6642 6671 0
-615 -6642 6643 0
-6643 6672 0
-616 -6643 6644 0
-6644 6673 0
-617 -6644 6645 0
-6645 6674 0
-618 -6645 6646 0
-6646 6675 0
-619 -6646 0
-591 6647 0
-6647 6676 0
-592 -6647 6648 0
-6648 6677 0
-593 -6648 6649 0
-6649 6678 0
-594 -6649 6650 0
-6650 6679 0
-595 -6650 6651 0
-6651 6680 0
-596 -6651 6652 0
-6652 6681 0
-597 -6652 6653 0
-6653 6682 0
-598 -6653 6654 0
-6654 6683 0
-599 -6654 6655 0
-6655 6684 0
-600 -6655 6656 0
-6656 6685 0
-601 -6656 6657 0
-6657 6686 0
-602 -6657 6658 0
-6658 6687 0
-603 -6658 6659 0
-6659 6688 0
-604 -6659 6660 0
-6660 6689 0
-605 -6660 6661 0
-6661 6690 0
-606 -6661 6662 0
-6662 6691 0
-607 -6662 6663 0
-6663 6692 0
-608 -6663 6664 0
-6664 6693 0
-609 -6664 6665 0
-6665 6694 0
-610 -6665 6666 0
-6666 6695 0
-611 -6666 6667 0
-6667 6696 0
-612 -6667 6668 0
-6668 6697 0
-613 -6668 6669 0
-6669 6698 0
-614 -6669 6670 0
-6670 6699 0
-615 -6670 6671 0
-6671 6700 0
-616 -6671 6672 0
-6672 6701 0
-617 -6672 6673 0
-6673 6702 0
-618 -6673 6674 0
-6674 6703 0
-619 -6674 6675 0
-6675 6704 0
-620 -6675 0
-592 6676 0
-6676 6705 0
-593 -6676 6677 0
-6677 6706 0
-594 -6677 6678 0
-6678 6707 0
-595 -6678 6679 0
-6679 6708 0
-596 -6679 6680 0
-6680 6709 0
-597 -6680 6681 0
-6681 6710 0
-598 -6681 6682 0
-6682 6711 0
-599 -6682 6683 0
-6683 6712 0
-600 -6683 6684 0
-6684 6713 0
-601 -6684 6685 0
-6685 6714 0
-602 -6685 6686 0
-6686 6715 0
-603 -6686 6687 0
-6687 6716 0
-604 -6687 6688 0
-6688 6717 0
-605 -6688 6689 0
-6689 6718 0
-606 -6689 6690 0
-6690 6719 0
-607 -6690 6691 0
-6691 6720 0
-608 -6691 6692 0
-6692 6721 0
-609 -6692 6693 0
-6693 6722 0
-610 -6693 6694 0
-6694 6723 0
-611 -6694 6695 0
-6695 6724 0
-612 -6695 6696 0
-6696 6725 0
-613 -6696 6697 0
-6697 6726 0
-614 -6697 6698 0
-6698 6727 0
-615 -6698 6699 0
-6699 6728 0
-616 -6699 6700 0
-6700 6729 0
-617 -6700 6701 0
-6701 6730 0
-618 -6701 6702 0
-6702 6731 0
-619 -6702 6703 0
-6703 6732 0
-620 -6703 6704 0
-6704 6733 0
-621 -6704 0
-593 6705 0
-6705 6734 0
-594 -6705 6706 0
-6706 6735 0
-595 -6706 6707 0
-6707 6736 0
-596 -6707 6708 0
-6708 6737 0
-597 -6708 6709 0
-6709 6738 0
-598 -6709 6710 0
-6710 6739 0
-599 -6710 6711 0
-6711 6740 0
-600 -6711 6712 0
-6712 6741 0
-601 -6712 6713 0
-6713 6742 0
-602 -6713 6714 0
-6714 6743 0
-603 -6714 6715 0
-6715 6744 0
-604 -6715 6716 0
-6716 6745 0
-605 -6716 6717 0
-6717 6746 0
-606 -6717 6718 0
-6718 6747 0
-607 -6718 6719 0
-6719 6748 0
-608 -6719 6720 0
-6720 6749 0
-609 -6720 6721 0
-6721 6750 0
-610 -6721 6722 0
-6722 6751 0
-611 -6722 6723 0
-6723 6752 0
-612 -6723 6724 0
-6724 6753 0
-613 -6724 6725 0
-6725 6754 0
-614 -6725 6726 0
-6726 6755 0
-615 -6726 6727 0
-6727 6756 0
-616 -6727 6728 0
-6728 6757 0
-617 -6728 6729 0
-6729 6758 0
-618 -6729 6730 0
-6730 6759 0
-619 -6730 6731 0
-6731 6760 0
-620 -6731 6732 0
-6732 6761 0
-621 -6732 6733 0
-6733 6762 0
-622 -6733 0
-594 6734 0
-6734 6763 0
-595 -6734 6735 0
-6735 6764 0
-596 -6735 6736 0
-6736 6765 0
-597 -6736 6737 0
-6737 6766 0
-598 -6737 6738 0
-6738 6767 0
-599 -6738 6739 0
-6739 6768 0
-600 -6739 6740 0
-6740 6769 0
-601 -6740 6741 0
-6741 6770 0
-602 -6741 6742 0
-6742 6771 0
-603 -6742 6743 0
-6743 6772 0
-604 -6743 6744 0
-6744 6773 0
-605 -6744 6745 0
-6745 6774 0
-606 -6745 6746 0
-6746 6775 0
-607 -6746 6747 0
-6747 6776 0
-608 -6747 6748 0
-6748 6777 0
-609 -6748 6749 0
-6749 6778 0
-610 -6749 6750 0
-6750 6779 0
-611 -6750 6751 0
-6751 6780 0
-612 -6751 6752 0
-6752 6781 0
-613 -6752 6753 0
-6753 6782 0
-614 -6753 6754 0
-6754 6783 0
-615 -6754 6755 0
-6755 6784 0
-616 -6755 6756 0
-6756 6785 0
-617 -6756 6757 0
-6757 6786 0
-618 -6757 6758 0
-6758 6787 0
-619 -6758 6759 0
-6759 6788 0
-620 -6759 6760 0
-6760 6789 0
-621 -6760 6761 0
-6761 6790 0
-622 -6761 6762 0
-6762 6791 0
-623 -6762 0
-595 6763 0
-6763 6792 0
-596 -6763 6764 0
-6764 6793 0
-597 -6764 6765 0
-6765 6794 0
-598 -6765 6766 0
-6766 6795 0
-599 -6766 6767 0
-6767 6796 0
-600 -6767 6768 0
-6768 6797 0
-601 -6768 6769 0
-6769 6798 0
-602 -6769 6770 0
-6770 6799 0
-603 -6770 6771 0
-6771 6800 0
-604 -6771 6772 0
-6772 6801 0
-605 -6772 6773 0
-6773 6802 0
-606 -6773 6774 0
-6774 6803 0
-607 -6774 6775 0
-6775 6804 0
-608 -6775 6776 0
-6776 6805 0
-609 -6776 6777 0
-6777 6806 0
-610 -6777 6778 0
-6778 6807 0
-611 -6778 6779 0
-6779 6808 0
-612 -6779 6780 0
-6780 6809 0
-613 -6780 6781 0
-6781 6810 0
-614 -6781 6782 0
-6782 6811 0
-615 -6782 6783 0
-6783 6812 0
-616 -6783 6784 0
-6784 6813 0
-617 -6784 6785 0
-6785 6814 0
-618 -6785 6786 0
-6786 6815 0
-619 -6786 6787 0
-6787 6816 0
-620 -6787 6788 0
-6788 6817 0
-621 -6788 6789 0
-6789 6818 0
-622 -6789 6790 0
-6790 6819 0
-623 -6790 6791 0
-6791 6820 0
-624 -6791 0
-596 6792 0
-6792 6821 0
-597 -6792 6793 0
-6793 6822 0
-598 -6793 6794 0
-6794 6823 0
-599 -6794 6795 0
-6795 6824 0
-600 -6795 6796 0
-6796 6825 0
-601 -6796 6797 0
-6797 6826 0
-602 -6797 6798 0
-6798 6827 0
-603 -6798 6799 0
-6799 6828 0
-604 -6799 6800 0
-6800 6829 0
-605 -6800 6801 0
-6801 6830 0
-606 -6801 6802 0
-6802 6831 0
-607 -6802 6803 0
-6803 6832 0
-608 -6803 6804 0
-6804 6833 0
-609 -6804 6805 0
-6805 6834 0
-610 -6805 6806 0
-6806 6835 0
-611 -6806 6807 0
-6807 6836 0
-612 -6807 6808 0
-6808 6837 0
-613 -6808 6809 0
-6809 6838 0
-614 -6809 6810 0
-6810 6839 0
-615 -6810 6811 0
-6811 6840 0
-616 -6811 6812 0
-6812 6841 0
-617 -6812 6813 0
-6813 6842 0
-618 -6813 6814 0
-6814 6843 0
-619 -6814 6815 0
-6815 6844 0
-620 -6815 6816 0
-6816 6845 0
-621 -6816 6817 0
-6817 6846 0
-622 -6817 6818 0
-6818 6847 0
-623 -6818 6819 0
-6819 6848 0
-624 -6819 6820 0
-6820 6849 0
-625 -6820 0
-597 6821 0
-6821 6850 0
-598 -6821 6822 0
-6822 6851 0
-599 -6822 6823 0
-6823 6852 0
-600 -6823 6824 0
-6824 6853 0
-601 -6824 6825 0
-6825 6854 0
-602 -6825 6826 0
-6826 6855 0
-603 -6826 6827 0
-6827 6856 0
-604 -6827 6828 0
-6828 6857 0
-605 -6828 6829 0
-6829 6858 0
-606 -6829 6830 0
-6830 6859 0
-607 -6830 6831 0
-6831 6860 0
-608 -6831 6832 0
-6832 6861 0
-609 -6832 6833 0
-6833 6862 0
-610 -6833 6834 0
-6834 6863 0
-611 -6834 6835 0
-6835 6864 0
-612 -6835 6836 0
-6836 6865 0
-613 -6836 6837 0
-6837 6866 0
-614 -6837 6838 0
-6838 6867 0
-615 -6838 6839 0
-6839 6868 0
-616 -6839 6840 0
-6840 6869 0
-617 -6840 6841 0
-6841 6870 0
-618 -6841 6842 0
-6842 6871 0
-619 -6842 6843 0
-6843 6872 0
-620 -6843 6844 0
-6844 6873 0
-621 -6844 6845 0
-6845 6874 0
-622 -6845 6846 0
-6846 6875 0
-623 -6846 6847 0
-6847 6876 0
-624 -6847 6848 0
-6848 6877 0
-625 -6848 6849 0
-6849 6878 0
-626 -6849 0
-598 6850 0
-6850 6879 0
-599 -6850 6851 0
-6851 6880 0
-600 -6851 6852 0
-6852 6881 0
-601 -6852 6853 0
-6853 6882 0
-602 -6853 6854 0
-6854 6883 0
-603 -6854 6855 0
-6855 6884 0
-604 -6855 6856 0
-6856 6885 0
-605 -6856 6857 0
-6857 6886 0
-606 -6857 6858 0
-6858 6887 0
-607 -6858 6859 0
-6859 6888 0
-608 -6859 6860 0
-6860 6889 0
-609 -6860 6861 0
-6861 6890 0
-610 -6861 6862 0
-6862 6891 0
-611 -6862 6863 0
-6863 6892 0
-612 -6863 6864 0
-6864 6893 0
-613 -6864 6865 0
-6865 6894 0
-614 -6865 6866 0
-6866 6895 0
-615 -6866 6867 0
-6867 6896 0
-616 -6867 6868 0
-6868 6897 0
-617 -6868 6869 0
-6869 6898 0
-618 -6869 6870 0
-6870 6899 0
-619 -6870 6871 0
-6871 6900 0
-620 -6871 6872 0
-6872 6901 0
-621 -6872 6873 0
-6873 6902 0
-622 -6873 6874 0
-6874 6903 0
-623 -6874 6875 0
-6875 6904 0
-624 -6875 6876 0
-6876 6905 0
-625 -6876 6877 0
-6877 6906 0
-626 -6877 6878 0
-6878 6907 0
-627 -6878 0
-599 6879 0
-6879 6908 0
-600 -6879 6880 0
-6880 6909 0
-601 -6880 6881 0
-6881 6910 0
-602 -6881 6882 0
-6882 6911 0
-603 -6882 6883 0
-6883 6912 0
-604 -6883 6884 0
-6884 6913 0
-605 -6884 6885 0
-6885 6914 0
-606 -6885 6886 0
-6886 6915 0
-607 -6886 6887 0
-6887 6916 0
-608 -6887 6888 0
-6888 6917 0
-609 -6888 6889 0
-6889 6918 0
-610 -6889 6890 0
-6890 6919 0
-611 -6890 6891 0
-6891 6920 0
-612 -6891 6892 0
-6892 6921 0
-613 -6892 6893 0
-6893 6922 0
-614 -6893 6894 0
-6894 6923 0
-615 -6894 6895 0
-6895 6924 0
-616 -6895 6896 0
-6896 6925 0
-617 -6896 6897 0
-6897 6926 0
-618 -6897 6898 0
-6898 6927 0
-619 -6898 6899 0
-6899 6928 0
-620 -6899 6900 0
-6900 6929 0
-621 -6900 6901 0
-6901 6930 0
-622 -6901 6902 0
-6902 6931 0
-623 -6902 6903 0
-6903 6932 0
-624 -6903 6904 0
-6904 6933 0
-625 -6904 6905 0
-6905 6934 0
-626 -6905 6906 0
-6906 6935 0
-627 -6906 6907 0
-6907 6936 0
-628 -6907 0
-600 6908 0
-6908 6937 0
-601 -6908 6909 0
-6909 6938 0
-602 -6909 6910 0
-6910 6939 0
-603 -6910 6911 0
-6911 6940 0
-604 -6911 6912 0
-6912 6941 0
-605 -6912 6913 0
-6913 6942 0
-606 -6913 6914 0
-6914 6943 0
-607 -6914 6915 0
-6915 6944 0
-608 -6915 6916 0
-6916 6945 0
-609 -6916 6917 0
-6917 6946 0
-610 -6917 6918 0
-6918 6947 0
-611 -6918 6919 0
-6919 6948 0
-612 -6919 6920 0
-6920 6949 0
-613 -6920 6921 0
-6921 6950 0
-614 -6921 6922 0
-6922 6951 0
-615 -6922 6923 0
-6923 6952 0
-616 -6923 6924 0
-6924 6953 0
-617 -6924 6925 0
-6925 6954 0
-618 -6925 6926 0
-6926 6955 0
-619 -6926 6927 0
-6927 6956 0
-620 -6927 6928 0
-6928 6957 0
-621 -6928 6929 0
-6929 6958 0
-622 -6929 6930 0
-6930 6959 0
-623 -6930 6931 0
-6931 6960 0
-624 -6931 6932 0
-6932 6961 0
-625 -6932 6933 0
-6933 6962 0
-626 -6933 6934 0
-6934 6963 0
-627 -6934 6935 0
-6935 6964 0
-628 -6935 6936 0
-6936 6965 0
-629 -6936 0
-601 6937 0
-6937 6966 0
-602 -6937 6938 0
-6938 6967 0
-603 -6938 6939 0
-6939 6968 0
-604 -6939 6940 0
-6940 6969 0
-605 -6940 6941 0
-6941 6970 0
-606 -6941 6942 0
-6942 6971 0
-607 -6942 6943 0
-6943 6972 0
-608 -6943 6944 0
-6944 6973 0
-609 -6944 6945 0
-6945 6974 0
-610 -6945 6946 0
-6946 6975 0
-611 -6946 6947 0
-6947 6976 0
-612 -6947 6948 0
-6948 6977 0
-613 -6948 6949 0
-6949 6978 0
-614 -6949 6950 0
-6950 6979 0
-615 -6950 6951 0
-6951 6980 0
-616 -6951 6952 0
-6952 6981 0
-617 -6952 6953 0
-6953 6982 0
-618 -6953 6954 0
-6954 6983 0
-619 -6954 6955 0
-6955 6984 0
-620 -6955 6956 0
-6956 6985 0
-621 -6956 6957 0
-6957 6986 0
-622 -6957 6958 0
-6958 6987 0
-623 -6958 6959 0
-6959 6988 0
-624 -6959 6960 0
-6960 6989 0
-625 -6960 6961 0
-6961 6990 0
-626 -6961 6962 0
-6962 6991 0
-627 -6962 6963 0
-6963 6992 0
-628 -6963 6964 0
-6964 6993 0
-629 -6964 6965 0
-6965 6994 0
-630 -6965 0
-602 6966 0
-6966 6995 0
-603 -6966 6967 0
-6967 6996 0
-604 -6967 6968 0
-6968 6997 0
-605 -6968 6969 0
-6969 6998 0
-606 -6969 6970 0
-6970 6999 0
-607 -6970 6971 0
-6971 7000 0
-608 -6971 6972 0
-6972 7001 0
-609 -6972 6973 0
-6973 7002 0
-610 -6973 6974 0
-6974 7003 0
-611 -6974 6975 0
-6975 7004 0
-612 -6975 6976 0
-6976 7005 0
-613 -6976 6977 0
-6977 7006 0
-614 -6977 6978 0
-6978 7007 0
-615 -6978 6979 0
-6979 7008 0
-616 -6979 6980 0
-6980 7009 0
-617 -6980 6981 0
-6981 7010 0
-618 -6981 6982 0
-6982 7011 0
-619 -6982 6983 0
-6983 7012 0
-620 -6983 6984 0
-6984 7013 0
-621 -6984 6985 0
-6985 7014 0
-622 -6985 6986 0
-6986 7015 0
-623 -6986 6987 0
-6987 7016 0
-624 -6987 6988 0
-6988 7017 0
-625 -6988 6989 0
-6989 7018 0
-626 -6989 6990 0
-6990 7019 0
-627 -6990 6991 0
-6991 7020 0
-628 -6991 6992 0
-6992 7021 0
-629 -6992 6993 0
-6993 7022 0
-630 -6993 6994 0
-6994 7023 0
-631 -6994 0
-603 6995 0
-6995 7024 0
-604 -6995 6996 0
-6996 7025 0
-605 -6996 6997 0
-6997 7026 0
-606 -6997 6998 0
-6998 7027 0
-607 -6998 6999 0
-6999 7028 0
-608 -6999 7000 0
-7000 7029 0
-609 -7000 7001 0
-7001 7030 0
-610 -7001 7002 0
-7002 7031 0
-611 -7002 7003 0
-7003 7032 0
-612 -7003 7004 0
-7004 7033 0
-613 -7004 7005 0
-7005 7034 0
-614 -7005 7006 0
-7006 7035 0
-615 -7006 7007 0
-7007 7036 0
-616 -7007 7008 0
-7008 7037 0
-617 -7008 7009 0
-7009 7038 0
-618 -7009 7010 0
-7010 7039 0
-619 -7010 7011 0
-7011 7040 0
-620 -7011 7012 0
-7012 7041 0
-621 -7012 7013 0
-7013 7042 0
-622 -7013 7014 0
-7014 7043 0
-623 -7014 7015 0
-7015 7044 0
-624 -7015 7016 0
-7016 7045 0
-625 -7016 7017 0
-7017 7046 0
-626 -7017 7018 0
-7018 7047 0
-627 -7018 7019 0
-7019 7048 0
-628 -7019 7020 0
-7020 7049 0
-629 -7020 7021 0
-7021 7050 0
-630 -7021 7022 0
-7022 7051 0
-631 -7022 7023 0
-7023 7052 0
-632 -7023 0
-604 7024 0
-7024 7053 0
-605 -7024 7025 0
-7025 7054 0
-606 -7025 7026 0
-7026 7055 0
-607 -7026 7027 0
-7027 7056 0
-608 -7027 7028 0
-7028 7057 0
-609 -7028 7029 0
-7029 7058 0
-610 -7029 7030 0
-7030 7059 0
-611 -7030 7031 0
-7031 7060 0
-612 -7031 7032 0
-7032 7061 0
-613 -7032 7033 0
-7033 7062 0
-614 -7033 7034 0
-7034 7063 0
-615 -7034 7035 0
-7035 7064 0
-616 -7035 7036 0
-7036 7065 0
-617 -7036 7037 0
-7037 7066 0
-618 -7037 7038 0
-7038 7067 0
-619 -7038 7039 0
-7039 7068 0
-620 -7039 7040 0
-7040 7069 0
-621 -7040 7041 0
-7041 7070 0
-622 -7041 7042 0
-7042 7071 0
-623 -7042 7043 0
-7043 7072 0
-624 -7043 7044 0
-7044 7073 0
-625 -7044 7045 0
-7045 7074 0
-626 -7045 7046 0
-7046 7075 0
-627 -7046 7047 0
-7047 7076 0
-628 -7047 7048 0
-7048 7077 0
-629 -7048 7049 0
-7049 7078 0
-630 -7049 7050 0
-7050 7079 0
-631 -7050 7051 0
-7051 7080 0
-632 -7051 7052 0
-7052 7081 0
-633 -7052 0
-605 7053 0
-7053 7082 0
-606 -7053 7054 0
-7054 7083 0
-607 -7054 7055 0
-7055 7084 0
-608 -7055 7056 0
-7056 7085 0
-609 -7056 7057 0
-7057 7086 0
-610 -7057 7058 0
-7058 7087 0
-611 -7058 7059 0
-7059 7088 0
-612 -7059 7060 0
-7060 7089 0
-613 -7060 7061 0
-7061 7090 0
-614 -7061 7062 0
-7062 7091 0
-615 -7062 7063 0
-7063 7092 0
-616 -7063 7064 0
-7064 7093 0
-617 -7064 7065 0
-7065 7094 0
-618 -7065 7066 0
-7066 7095 0
-619 -7066 7067 0
-7067 7096 0
-620 -7067 7068 0
-7068 7097 0
-621 -7068 7069 0
-7069 7098 0
-622 -7069 7070 0
-7070 7099 0
-623 -7070 7071 0
-7071 7100 0
-624 -7071 7072 0
-7072 7101 0
-625 -7072 7073 0
-7073 7102 0
-626 -7073 7074 0
-7074 7103 0
-627 -7074 7075 0
-7075 7104 0
-628 -7075 7076 0
-7076 7105 0
-629 -7076 7077 0
-7077 7106 0
-630 -7077 7078 0
-7078 7107 0
-631 -7078 7079 0
-7079 7108 0
-632 -7079 7080 0
-7080 7109 0
-633 -7080 7081 0
-7081 7110 0
-634 -7081 0
-606 7082 0
-7082 7111 0
-607 -7082 7083 0
-7083 7112 0
-608 -7083 7084 0
-7084 7113 0
-609 -7084 7085 0
-7085 7114 0
-610 -7085 7086 0
-7086 7115 0
-611 -7086 7087 0
-7087 7116 0
-612 -7087 7088 0
-7088 7117 0
-613 -7088 7089 0
-7089 7118 0
-614 -7089 7090 0
-7090 7119 0
-615 -7090 7091 0
-7091 7120 0
-616 -7091 7092 0
-7092 7121 0
-617 -7092 7093 0
-7093 7122 0
-618 -7093 7094 0
-7094 7123 0
-619 -7094 7095 0
-7095 7124 0
-620 -7095 7096 0
-7096 7125 0
-621 -7096 7097 0
-7097 7126 0
-622 -7097 7098 0
-7098 7127 0
-623 -7098 7099 0
-7099 7128 0
-624 -7099 7100 0
-7100 7129 0
-625 -7100 7101 0
-7101 7130 0
-626 -7101 7102 0
-7102 7131 0
-627 -7102 7103 0
-7103 7132 0
-628 -7103 7104 0
-7104 7133 0
-629 -7104 7105 0
-7105 7134 0
-630 -7105 7106 0
-7106 7135 0
-631 -7106 7107 0
-7107 7136 0
-632 -7107 7108 0
-7108 7137 0
-633 -7108 7109 0
-7109 7138 0
-634 -7109 7110 0
-7110 7139 0
-635 -7110 0
-607 7111 0
-7111 7140 0
-608 -7111 7112 0
-7112 7141 0
-609 -7112 7113 0
-7113 7142 0
-610 -7113 7114 0
-7114 7143 0
-611 -7114 7115 0
-7115 7144 0
-612 -7115 7116 0
-7116 7145 0
-613 -7116 7117 0
-7117 7146 0
-614 -7117 7118 0
-7118 7147 0
-615 -7118 7119 0
-7119 7148 0
-616 -7119 7120 0
-7120 7149 0
-617 -7120 7121 0
-7121 7150 0
-618 -7121 7122 0
-7122 7151 0
-619 -7122 7123 0
-7123 7152 0
-620 -7123 7124 0
-7124 7153 0
-621 -7124 7125 0
-7125 7154 0
-622 -7125 7126 0
-7126 7155 0
-623 -7126 7127 0
-7127 7156 0
-624 -7127 7128 0
-7128 7157 0
-625 -7128 7129 0
-7129 7158 0
-626 -7129 7130 0
-7130 7159 0
-627 -7130 7131 0
-7131 7160 0
-628 -7131 7132 0
-7132 7161 0
-629 -7132 7133 0
-7133 7162 0
-630 -7133 7134 0
-7134 7163 0
-631 -7134 7135 0
-7135 7164 0
-632 -7135 7136 0
-7136 7165 0
-633 -7136 7137 0
-7137 7166 0
-634 -7137 7138 0
-7138 7167 0
-635 -7138 7139 0
-7139 7168 0
-636 -7139 0
-608 7140 0
-7140 7169 0
-609 -7140 7141 0
-7141 7170 0
-610 -7141 7142 0
-7142 7171 0
-611 -7142 7143 0
-7143 7172 0
-612 -7143 7144 0
-7144 7173 0
-613 -7144 7145 0
-7145 7174 0
-614 -7145 7146 0
-7146 7175 0
-615 -7146 7147 0
-7147 7176 0
-616 -7147 7148 0
-7148 7177 0
-617 -7148 7149 0
-7149 7178 0
-618 -7149 7150 0
-7150 7179 0
-619 -7150 7151 0
-7151 7180 0
-620 -7151 7152 0
-7152 7181 0
-621 -7152 7153 0
-7153 7182 0
-622 -7153 7154 0
-7154 7183 0
-623 -7154 7155 0
-7155 7184 0
-624 -7155 7156 0
-7156 7185 0
-625 -7156 7157 0
-7157 7186 0
-626 -7157 7158 0
-7158 7187 0
-627 -7158 7159 0
-7159 7188 0
-628 -7159 7160 0
-7160 7189 0
-629 -7160 7161 0
-7161 7190 0
-630 -7161 7162 0
-7162 7191 0
-631 -7162 7163 0
-7163 7192 0
-632 -7163 7164 0
-7164 7193 0
-633 -7164 7165 0
-7165 7194 0
-634 -7165 7166 0
-7166 7195 0
-635 -7166 7167 0
-7167 7196 0
-636 -7167 7168 0
-7168 7197 0
-637 -7168 0
-609 7169 0
-7169 7198 0
-610 -7169 7170 0
-7170 7199 0
-611 -7170 7171 0
-7171 7200 0
-612 -7171 7172 0
-7172 7201 0
-613 -7172 7173 0
-7173 7202 0
-614 -7173 7174 0
-7174 7203 0
-615 -7174 7175 0
-7175 7204 0
-616 -7175 7176 0
-7176 7205 0
-617 -7176 7177 0
-7177 7206 0
-618 -7177 7178 0
-7178 7207 0
-619 -7178 7179 0
-7179 7208 0
-620 -7179 7180 0
-7180 7209 0
-621 -7180 7181 0
-7181 7210 0
-622 -7181 7182 0
-7182 7211 0
-623 -7182 7183 0
-7183 7212 0
-624 -7183 7184 0
-7184 7213 0
-625 -7184 7185 0
-7185 7214 0
-626 -7185 7186 0
-7186 7215 0
-627 -7186 7187 0
-7187 7216 0
-628 -7187 7188 0
-7188 7217 0
-629 -7188 7189 0
-7189 7218 0
-630 -7189 7190 0
-7190 7219 0
-631 -7190 7191 0
-7191 7220 0
-632 -7191 7192 0
-7192 7221 0
-633 -7192 7193 0
-7193 7222 0
-634 -7193 7194 0
-7194 7223 0
-635 -7194 7195 0
-7195 7224 0
-636 -7195 7196 0
-7196 7225 0
-637 -7196 7197 0
-7197 7226 0
-638 -7197 0
-610 7198 0
-7198 7227 0
-611 -7198 7199 0
-7199 7228 0
-612 -7199 7200 0
-7200 7229 0
-613 -7200 7201 0
-7201 7230 0
-614 -7201 7202 0
-7202 7231 0
-615 -7202 7203 0
-7203 7232 0
-616 -7203 7204 0
-7204 7233 0
-617 -7204 7205 0
-7205 7234 0
-618 -7205 7206 0
-7206 7235 0
-619 -7206 7207 0
-7207 7236 0
-620 -7207 7208 0
-7208 7237 0
-621 -7208 7209 0
-7209 7238 0
-622 -7209 7210 0
-7210 7239 0
-623 -7210 7211 0
-7211 7240 0
-624 -7211 7212 0
-7212 7241 0
-625 -7212 7213 0
-7213 7242 0
-626 -7213 7214 0
-7214 7243 0
-627 -7214 7215 0
-7215 7244 0
-628 -7215 7216 0
-7216 7245 0
-629 -7216 7217 0
-7217 7246 0
-630 -7217 7218 0
-7218 7247 0
-631 -7218 7219 0
-7219 7248 0
-632 -7219 7220 0
-7220 7249 0
-633 -7220 7221 0
-7221 7250 0
-634 -7221 7222 0
-7222 7251 0
-635 -7222 7223 0
-7223 7252 0
-636 -7223 7224 0
-7224 7253 0
-637 -7224 7225 0
-7225 7254 0
-638 -7225 7226 0
-7226 7255 0
-639 -7226 0
-611 7227 0
-7227 7256 0
-612 -7227 7228 0
-7228 7257 0
-613 -7228 7229 0
-7229 7258 0
-614 -7229 7230 0
-7230 7259 0
-615 -7230 7231 0
-7231 7260 0
-616 -7231 7232 0
-7232 7261 0
-617 -7232 7233 0
-7233 7262 0
-618 -7233 7234 0
-7234 7263 0
-619 -7234 7235 0
-7235 7264 0
-620 -7235 7236 0
-7236 7265 0
-621 -7236 7237 0
-7237 7266 0
-622 -7237 7238 0
-7238 7267 0
-623 -7238 7239 0
-7239 7268 0
-624 -7239 7240 0
-7240 7269 0
-625 -7240 7241 0
-7241 7270 0
-626 -7241 7242 0
-7242 7271 0
-627 -7242 7243 0
-7243 7272 0
-628 -7243 7244 0
-7244 7273 0
-629 -7244 7245 0
-7245 7274 0
-630 -7245 7246 0
-7246 7275 0
-631 -7246 7247 0
-7247 7276 0
-632 -7247 7248 0
-7248 7277 0
-633 -7248 7249 0
-7249 7278 0
-634 -7249 7250 0
-7250 7279 0
-635 -7250 7251 0
-7251 7280 0
-636 -7251 7252 0
-7252 7281 0
-637 -7252 7253 0
-7253 7282 0
-638 -7253 7254 0
-7254 7283 0
-639 -7254 7255 0
-7255 7284 0
-640 -7255 0
-612 7256 0
-7256 7285 0
-613 -7256 7257 0
-7257 7286 0
-614 -7257 7258 0
-7258 7287 0
-615 -7258 7259 0
-7259 7288 0
-616 -7259 7260 0
-7260 7289 0
-617 -7260 7261 0
-7261 7290 0
-618 -7261 7262 0
-7262 7291 0
-619 -7262 7263 0
-7263 7292 0
-620 -7263 7264 0
-7264 7293 0
-621 -7264 7265 0
-7265 7294 0
-622 -7265 7266 0
-7266 7295 0
-623 -7266 7267 0
-7267 7296 0
-624 -7267 7268 0
-7268 7297 0
-625 -7268 7269 0
-7269 7298 0
-626 -7269 7270 0
-7270 7299 0
-627 -7270 7271 0
-7271 7300 0
-628 -7271 7272 0
-7272 7301 0
-629 -7272 7273 0
-7273 7302 0
-630 -7273 7274 0
-7274 7303 0
-631 -7274 7275 0
-7275 7304 0
-632 -7275 7276 0
-7276 7305 0
-633 -7276 7277 0
-7277 7306 0
-634 -7277 7278 0
-7278 7307 0
-635 -7278 7279 0
-7279 7308 0
-636 -7279 7280 0
-7280 7309 0
-637 -7280 7281 0
-7281 7310 0
-638 -7281 7282 0
-7282 7311 0
-639 -7282 7283 0
-7283 7312 0
-640 -7283 7284 0
-7284 7313 0
-641 -7284 0
-613 7285 0
-7285 7314 0
-614 -7285 7286 0
-7286 7315 0
-615 -7286 7287 0
-7287 7316 0
-616 -7287 7288 0
-7288 7317 0
-617 -7288 7289 0
-7289 7318 0
-618 -7289 7290 0
-7290 7319 0
-619 -7290 7291 0
-7291 7320 0
-620 -7291 7292 0
-7292 7321 0
-621 -7292 7293 0
-7293 7322 0
-622 -7293 7294 0
-7294 7323 0
-623 -7294 7295 0
-7295 7324 0
-624 -7295 7296 0
-7296 7325 0
-625 -7296 7297 0
-7297 7326 0
-626 -7297 7298 0
-7298 7327 0
-627 -7298 7299 0
-7299 7328 0
-628 -7299 7300 0
-7300 7329 0
-629 -7300 7301 0
-7301 7330 0
-630 -7301 7302 0
-7302 7331 0
-631 -7302 7303 0
-7303 7332 0
-632 -7303 7304 0
-7304 7333 0
-633 -7304 7305 0
-7305 7334 0
-634 -7305 7306 0
-7306 7335 0
-635 -7306 7307 0
-7307 7336 0
-636 -7307 7308 0
-7308 7337 0
-637 -7308 7309 0
-7309 7338 0
-638 -7309 7310 0
-7310 7339 0
-639 -7310 7311 0
-7311 7340 0
-640 -7311 7312 0
-7312 7341 0
-641 -7312 7313 0
-7313 7342 0
-642 -7313 0
-614 7314 0
-7314 7343 0
-615 -7314 7315 0
-7315 7344 0
-616 -7315 7316 0
-7316 7345 0
-617 -7316 7317 0
-7317 7346 0
-618 -7317 7318 0
-7318 7347 0
-619 -7318 7319 0
-7319 7348 0
-620 -7319 7320 0
-7320 7349 0
-621 -7320 7321 0
-7321 7350 0
-622 -7321 7322 0
-7322 7351 0
-623 -7322 7323 0
-7323 7352 0
-624 -7323 7324 0
-7324 7353 0
-625 -7324 7325 0
-7325 7354 0
-626 -7325 7326 0
-7326 7355 0
-627 -7326 7327 0
-7327 7356 0
-628 -7327 7328 0
-7328 7357 0
-629 -7328 7329 0
-7329 7358 0
-630 -7329 7330 0
-7330 7359 0
-631 -7330 7331 0
-7331 7360 0
-632 -7331 7332 0
-7332 7361 0
-633 -7332 7333 0
-7333 7362 0
-634 -7333 7334 0
-7334 7363 0
-635 -7334 7335 0
-7335 7364 0
-636 -7335 7336 0
-7336 7365 0
-637 -7336 7337 0
-7337 7366 0
-638 -7337 7338 0
-7338 7367 0
-639 -7338 7339 0
-7339 7368 0
-640 -7339 7340 0
-7340 7369 0
-641 -7340 7341 0
-7341 7370 0
-642 -7341 7342 0
-7342 7371 0
-643 -7342 0
-615 7343 0
-7343 7372 0
-616 -7343 7344 0
-7344 7373 0
-617 -7344 7345 0
-7345 7374 0
-618 -7345 7346 0
-7346 7375 0
-619 -7346 7347 0
-7347 7376 0
-620 -7347 7348 0
-7348 7377 0
-621 -7348 7349 0
-7349 7378 0
-622 -7349 7350 0
-7350 7379 0
-623 -7350 7351 0
-7351 7380 0
-624 -7351 7352 0
-7352 7381 0
-625 -7352 7353 0
-7353 7382 0
-626 -7353 7354 0
-7354 7383 0
-627 -7354 7355 0
-7355 7384 0
-628 -7355 7356 0
-7356 7385 0
-629 -7356 7357 0
-7357 7386 0
-630 -7357 7358 0
-7358 7387 0
-631 -7358 7359 0
-7359 7388 0
-632 -7359 7360 0
-7360 7389 0
-633 -7360 7361 0
-7361 7390 0
-634 -7361 7362 0
-7362 7391 0
-635 -7362 7363 0
-7363 7392 0
-636 -7363 7364 0
-7364 7393 0
-637 -7364 7365 0
-7365 7394 0
-638 -7365 7366 0
-7366 7395 0
-639 -7366 7367 0
-7367 7396 0
-640 -7367 7368 0
-7368 7397 0
-641 -7368 7369 0
-7369 7398 0
-642 -7369 7370 0
-7370 7399 0
-643 -7370 7371 0
-7371 7400 0
-644 -7371 0
-616 7372 0
-7372 7401 0
-617 -7372 7373 0
-7373 7402 0
-618 -7373 7374 0
-7374 7403 0
-619 -7374 7375 0
-7375 7404 0
-620 -7375 7376 0
-7376 7405 0
-621 -7376 7377 0
-7377 7406 0
-622 -7377 7378 0
-7378 7407 0
-623 -7378 7379 0
-7379 7408 0
-624 -7379 7380 0
-7380 7409 0
-625 -7380 7381 0
-7381 7410 0
-626 -7381 7382 0
-7382 7411 0
-627 -7382 7383 0
-7383 7412 0
-628 -7383 7384 0
-7384 7413 0
-629 -7384 7385 0
-7385 7414 0
-630 -7385 7386 0
-7386 7415 0
-631 -7386 7387 0
-7387 7416 0
-632 -7387 7388 0
-7388 7417 0
-633 -7388 7389 0
-7389 7418 0
-634 -7389 7390 0
-7390 7419 0
-635 -7390 7391 0
-7391 7420 0
-636 -7391 7392 0
-7392 7421 0
-637 -7392 7393 0
-7393 7422 0
-638 -7393 7394 0
-7394 7423 0
-639 -7394 7395 0
-7395 7424 0
-640 -7395 7396 0
-7396 7425 0
-641 -7396 7397 0
-7397 7426 0
-642 -7397 7398 0
-7398 7427 0
-643 -7398 7399 0
-7399 7428 0
-644 -7399 7400 0
-7400 7429 0
-645 -7400 0
-617 7401 0
-7401 7430 0
-618 -7401 7402 0
-7402 7431 0
-619 -7402 7403 0
-7403 7432 0
-620 -7403 7404 0
-7404 7433 0
-621 -7404 7405 0
-7405 7434 0
-622 -7405 7406 0
-7406 7435 0
-623 -7406 7407 0
-7407 7436 0
-624 -7407 7408 0
-7408 7437 0
-625 -7408 7409 0
-7409 7438 0
-626 -7409 7410 0
-7410 7439 0
-627 -7410 7411 0
-7411 7440 0
-628 -7411 7412 0
-7412 7441 0
-629 -7412 7413 0
-7413 7442 0
-630 -7413 7414 0
-7414 7443 0
-631 -7414 7415 0
-7415 7444 0
-632 -7415 7416 0
-7416 7445 0
-633 -7416 7417 0
-7417 7446 0
-634 -7417 7418 0
-7418 7447 0
-635 -7418 7419 0
-7419 7448 0
-636 -7419 7420 0
-7420 7449 0
-637 -7420 7421 0
-7421 7450 0
-638 -7421 7422 0
-7422 7451 0
-639 -7422 7423 0
-7423 7452 0
-640 -7423 7424 0
-7424 7453 0
-641 -7424 7425 0
-7425 7454 0
-642 -7425 7426 0
-7426 7455 0
-643 -7426 7427 0
-7427 7456 0
-644 -7427 7428 0
-7428 7457 0
-645 -7428 7429 0
-7429 7458 0
-646 -7429 0
-618 7430 0
-7430 7459 0
-619 -7430 7431 0
-7431 7460 0
-620 -7431 7432 0
-7432 7461 0
-621 -7432 7433 0
-7433 7462 0
-622 -7433 7434 0
-7434 7463 0
-623 -7434 7435 0
-7435 7464 0
-624 -7435 7436 0
-7436 7465 0
-625 -7436 7437 0
-7437 7466 0
-626 -7437 7438 0
-7438 7467 0
-627 -7438 7439 0
-7439 7468 0
-628 -7439 7440 0
-7440 7469 0
-629 -7440 7441 0
-7441 7470 0
-630 -7441 7442 0
-7442 7471 0
-631 -7442 7443 0
-7443 7472 0
-632 -7443 7444 0
-7444 7473 0
-633 -7444 7445 0
-7445 7474 0
-634 -7445 7446 0
-7446 7475 0
-635 -7446 7447 0
-7447 7476 0
-636 -7447 7448 0
-7448 7477 0
-637 -7448 7449 0
-7449 7478 0
-638 -7449 7450 0
-7450 7479 0
-639 -7450 7451 0
-7451 7480 0
-640 -7451 7452 0
-7452 7481 0
-641 -7452 7453 0
-7453 7482 0
-642 -7453 7454 0
-7454 7483 0
-643 -7454 7455 0
-7455 7484 0
-644 -7455 7456 0
-7456 7485 0
-645 -7456 7457 0
-7457 7486 0
-646 -7457 7458 0
-7458 7487 0
-647 -7458 0
-619 7459 0
-7459 7488 0
-620 -7459 7460 0
-7460 7489 0
-621 -7460 7461 0
-7461 7490 0
-622 -7461 7462 0
-7462 7491 0
-623 -7462 7463 0
-7463 7492 0
-624 -7463 7464 0
-7464 7493 0
-625 -7464 7465 0
-7465 7494 0
-626 -7465 7466 0
-7466 7495 0
-627 -7466 7467 0
-7467 7496 0
-628 -7467 7468 0
-7468 7497 0
-629 -7468 7469 0
-7469 7498 0
-630 -7469 7470 0
-7470 7499 0
-631 -7470 7471 0
-7471 7500 0
-632 -7471 7472 0
-7472 7501 0
-633 -7472 7473 0
-7473 7502 0
-634 -7473 7474 0
-7474 7503 0
-635 -7474 7475 0
-7475 7504 0
-636 -7475 7476 0
-7476 7505 0
-637 -7476 7477 0
-7477 7506 0
-638 -7477 7478 0
-7478 7507 0
-639 -7478 7479 0
-7479 7508 0
-640 -7479 7480 0
-7480 7509 0
-641 -7480 7481 0
-7481 7510 0
-642 -7481 7482 0
-7482 7511 0
-643 -7482 7483 0
-7483 7512 0
-644 -7483 7484 0
-7484 7513 0
-645 -7484 7485 0
-7485 7514 0
-646 -7485 7486 0
-7486 7515 0
-647 -7486 7487 0
-7487 7516 0
-648 -7487 0
-620 7488 0
-7488 7517 0
-621 -7488 7489 0
-7489 7518 0
-622 -7489 7490 0
-7490 7519 0
-623 -7490 7491 0
-7491 7520 0
-624 -7491 7492 0
-7492 7521 0
-625 -7492 7493 0
-7493 7522 0
-626 -7493 7494 0
-7494 7523 0
-627 -7494 7495 0
-7495 7524 0
-628 -7495 7496 0
-7496 7525 0
-629 -7496 7497 0
-7497 7526 0
-630 -7497 7498 0
-7498 7527 0
-631 -7498 7499 0
-7499 7528 0
-632 -7499 7500 0
-7500 7529 0
-633 -7500 7501 0
-7501 7530 0
-634 -7501 7502 0
-7502 7531 0
-635 -7502 7503 0
-7503 7532 0
-636 -7503 7504 0
-7504 7533 0
-637 -7504 7505 0
-7505 7534 0
-638 -7505 7506 0
-7506 7535 0
-639 -7506 7507 0
-7507 7536 0
-640 -7507 7508 0
-7508 7537 0
-641 -7508 7509 0
-7509 7538 0
-642 -7509 7510 0
-7510 7539 0
-643 -7510 7511 0
-7511 7540 0
-644 -7511 7512 0
-7512 7541 0
-645 -7512 7513 0
-7513 7542 0
-646 -7513 7514 0
-7514 7543 0
-647 -7514 7515 0
-7515 7544 0
-648 -7515 7516 0
-7516 7545 0
-649 -7516 0
-621 7517 0
-7517 7546 0
-622 -7517 7518 0
-7518 7547 0
-623 -7518 7519 0
-7519 7548 0
-624 -7519 7520 0
-7520 7549 0
-625 -7520 7521 0
-7521 7550 0
-626 -7521 7522 0
-7522 7551 0
-627 -7522 7523 0
-7523 7552 0
-628 -7523 7524 0
-7524 7553 0
-629 -7524 7525 0
-7525 7554 0
-630 -7525 7526 0
-7526 7555 0
-631 -7526 7527 0
-7527 7556 0
-632 -7527 7528 0
-7528 7557 0
-633 -7528 7529 0
-7529 7558 0
-634 -7529 7530 0
-7530 7559 0
-635 -7530 7531 0
-7531 7560 0
-636 -7531 7532 0
-7532 7561 0
-637 -7532 7533 0
-7533 7562 0
-638 -7533 7534 0
-7534 7563 0
-639 -7534 7535 0
-7535 7564 0
-640 -7535 7536 0
-7536 7565 0
-641 -7536 7537 0
-7537 7566 0
-642 -7537 7538 0
-7538 7567 0
-643 -7538 7539 0
-7539 7568 0
-644 -7539 7540 0
-7540 7569 0
-645 -7540 7541 0
-7541 7570 0
-646 -7541 7542 0
-7542 7571 0
-647 -7542 7543 0
-7543 7572 0
-648 -7543 7544 0
-7544 7573 0
-649 -7544 7545 0
-7545 7574 0
-650 -7545 0
-622 7546 0
-7546 7575 0
-623 -7546 7547 0
-7547 7576 0
-624 -7547 7548 0
-7548 7577 0
-625 -7548 7549 0
-7549 7578 0
-626 -7549 7550 0
-7550 7579 0
-627 -7550 7551 0
-7551 7580 0
-628 -7551 7552 0
-7552 7581 0
-629 -7552 7553 0
-7553 7582 0
-630 -7553 7554 0
-7554 7583 0
-631 -7554 7555 0
-7555 7584 0
-632 -7555 7556 0
-7556 7585 0
-633 -7556 7557 0
-7557 7586 0
-634 -7557 7558 0
-7558 7587 0
-635 -7558 7559 0
-7559 7588 0
-636 -7559 7560 0
-7560 7589 0
-637 -7560 7561 0
-7561 7590 0
-638 -7561 7562 0
-7562 7591 0
-639 -7562 7563 0
-7563 7592 0
-640 -7563 7564 0
-7564 7593 0
-641 -7564 7565 0
-7565 7594 0
-642 -7565 7566 0
-7566 7595 0
-643 -7566 7567 0
-7567 7596 0
-644 -7567 7568 0
-7568 7597 0
-645 -7568 7569 0
-7569 7598 0
-646 -7569 7570 0
-7570 7599 0
-647 -7570 7571 0
-7571 7600 0
-648 -7571 7572 0
-7572 7601 0
-649 -7572 7573 0
-7573 7602 0
-650 -7573 7574 0
-7574 7603 0
-651 -7574 0
-623 7575 0
-7575 7604 0
-624 -7575 7576 0
-7576 7605 0
-625 -7576 7577 0
-7577 7606 0
-626 -7577 7578 0
-7578 7607 0
-627 -7578 7579 0
-7579 7608 0
-628 -7579 7580 0
-7580 7609 0
-629 -7580 7581 0
-7581 7610 0
-630 -7581 7582 0
-7582 7611 0
-631 -7582 7583 0
-7583 7612 0
-632 -7583 7584 0
-7584 7613 0
-633 -7584 7585 0
-7585 7614 0
-634 -7585 7586 0
-7586 7615 0
-635 -7586 7587 0
-7587 7616 0
-636 -7587 7588 0
-7588 7617 0
-637 -7588 7589 0
-7589 7618 0
-638 -7589 7590 0
-7590 7619 0
-639 -7590 7591 0
-7591 7620 0
-640 -7591 7592 0
-7592 7621 0
-641 -7592 7593 0
-7593 7622 0
-642 -7593 7594 0
-7594 7623 0
-643 -7594 7595 0
-7595 7624 0
-644 -7595 7596 0
-7596 7625 0
-645 -7596 7597 0
-7597 7626 0
-646 -7597 7598 0
-7598 7627 0
-647 -7598 7599 0
-7599 7628 0
-648 -7599 7600 0
-7600 7629 0
-649 -7600 7601 0
-7601 7630 0
-650 -7601 7602 0
-7602 7631 0
-651 -7602 7603 0
-7603 7632 0
-652 -7603 0
-624 7604 0
-7604 7633 0
-625 -7604 7605 0
-7605 7634 0
-626 -7605 7606 0
-7606 7635 0
-627 -7606 7607 0
-7607 7636 0
-628 -7607 7608 0
-7608 7637 0
-629 -7608 7609 0
-7609 7638 0
-630 -7609 7610 0
-7610 7639 0
-631 -7610 7611 0
-7611 7640 0
-632 -7611 7612 0
-7612 7641 0
-633 -7612 7613 0
-7613 7642 0
-634 -7613 7614 0
-7614 7643 0
-635 -7614 7615 0
-7615 7644 0
-636 -7615 7616 0
-7616 7645 0
-637 -7616 7617 0
-7617 7646 0
-638 -7617 7618 0
-7618 7647 0
-639 -7618 7619 0
-7619 7648 0
-640 -7619 7620 0
-7620 7649 0
-641 -7620 7621 0
-7621 7650 0
-642 -7621 7622 0
-7622 7651 0
-643 -7622 7623 0
-7623 7652 0
-644 -7623 7624 0
-7624 7653 0
-645 -7624 7625 0
-7625 7654 0
-646 -7625 7626 0
-7626 7655 0
-647 -7626 7627 0
-7627 7656 0
-648 -7627 7628 0
-7628 7657 0
-649 -7628 7629 0
-7629 7658 0
-650 -7629 7630 0
-7630 7659 0
-651 -7630 7631 0
-7631 7660 0
-652 -7631 7632 0
-7632 7661 0
-653 -7632 0
-625 7633 0
-7633 7662 0
-626 -7633 7634 0
-7634 7663 0
-627 -7634 7635 0
-7635 7664 0
-628 -7635 7636 0
-7636 7665 0
-629 -7636 7637 0
-7637 7666 0
-630 -7637 7638 0
-7638 7667 0
-631 -7638 7639 0
-7639 7668 0
-632 -7639 7640 0
-7640 7669 0
-633 -7640 7641 0
-7641 7670 0
-634 -7641 7642 0
-7642 7671 0
-635 -7642 7643 0
-7643 7672 0
-636 -7643 7644 0
-7644 7673 0
-637 -7644 7645 0
-7645 7674 0
-638 -7645 7646 0
-7646 7675 0
-639 -7646 7647 0
-7647 7676 0
-640 -7647 7648 0
-7648 7677 0
-641 -7648 7649 0
-7649 7678 0
-642 -7649 7650 0
-7650 7679 0
-643 -7650 7651 0
-7651 7680 0
-644 -7651 7652 0
-7652 7681 0
-645 -7652 7653 0
-7653 7682 0
-646 -7653 7654 0
-7654 7683 0
-647 -7654 7655 0
-7655 7684 0
-648 -7655 7656 0
-7656 7685 0
-649 -7656 7657 0
-7657 7686 0
-650 -7657 7658 0
-7658 7687 0
-651 -7658 7659 0
-7659 7688 0
-652 -7659 7660 0
-7660 7689 0
-653 -7660 7661 0
-7661 7690 0
-654 -7661 0
-626 7662 0
-7662 7691 0
-627 -7662 7663 0
-7663 7692 0
-628 -7663 7664 0
-7664 7693 0
-629 -7664 7665 0
-7665 7694 0
-630 -7665 7666 0
-7666 7695 0
-631 -7666 7667 0
-7667 7696 0
-632 -7667 7668 0
-7668 7697 0
-633 -7668 7669 0
-7669 7698 0
-634 -7669 7670 0
-7670 7699 0
-635 -7670 7671 0
-7671 7700 0
-636 -7671 7672 0
-7672 7701 0
-637 -7672 7673 0
-7673 7702 0
-638 -7673 7674 0
-7674 7703 0
-639 -7674 7675 0
-7675 7704 0
-640 -7675 7676 0
-7676 7705 0
-641 -7676 7677 0
-7677 7706 0
-642 -7677 7678 0
-7678 7707 0
-643 -7678 7679 0
-7679 7708 0
-644 -7679 7680 0
-7680 7709 0
-645 -7680 7681 0
-7681 7710 0
-646 -7681 7682 0
-7682 7711 0
-647 -7682 7683 0
-7683 7712 0
-648 -7683 7684 0
-7684 7713 0
-649 -7684 7685 0
-7685 7714 0
-650 -7685 7686 0
-7686 7715 0
-651 -7686 7687 0
-7687 7716 0
-652 -7687 7688 0
-7688 7717 0
-653 -7688 7689 0
-7689 7718 0
-654 -7689 7690 0
-7690 7719 0
-655 -7690 0
-627 7691 0
-7691 7720 0
-628 -7691 7692 0
-7692 7721 0
-629 -7692 7693 0
-7693 7722 0
-630 -7693 7694 0
-7694 7723 0
-631 -7694 7695 0
-7695 7724 0
-632 -7695 7696 0
-7696 7725 0
-633 -7696 7697 0
-7697 7726 0
-634 -7697 7698 0
-7698 7727 0
-635 -7698 7699 0
-7699 7728 0
-636 -7699 7700 0
-7700 7729 0
-637 -7700 7701 0
-7701 7730 0
-638 -7701 7702 0
-7702 7731 0
-639 -7702 7703 0
-7703 7732 0
-640 -7703 7704 0
-7704 7733 0
-641 -7704 7705 0
-7705 7734 0
-642 -7705 7706 0
-7706 7735 0
-643 -7706 7707 0
-7707 7736 0
-644 -7707 7708 0
-7708 7737 0
-645 -7708 7709 0
-7709 7738 0
-646 -7709 7710 0
-7710 7739 0
-647 -7710 7711 0
-7711 7740 0
-648 -7711 7712 0
-7712 7741 0
-649 -7712 7713 0
-7713 7742 0
-650 -7713 7714 0
-7714 7743 0
-651 -7714 7715 0
-7715 7744 0
-652 -7715 7716 0
-7716 7745 0
-653 -7716 7717 0
-7717 7746 0
-654 -7717 7718 0
-7718 7747 0
-655 -7718 7719 0
-7719 7748 0
-656 -7719 0
-628 7720 0
-7720 7749 0
-629 -7720 7721 0
-7721 7750 0
-630 -7721 7722 0
-7722 7751 0
-631 -7722 7723 0
-7723 7752 0
-632 -7723 7724 0
-7724 7753 0
-633 -7724 7725 0
-7725 7754 0
-634 -7725 7726 0
-7726 7755 0
-635 -7726 7727 0
-7727 7756 0
-636 -7727 7728 0
-7728 7757 0
-637 -7728 7729 0
-7729 7758 0
-638 -7729 7730 0
-7730 7759 0
-639 -7730 7731 0
-7731 7760 0
-640 -7731 7732 0
-7732 7761 0
-641 -7732 7733 0
-7733 7762 0
-642 -7733 7734 0
-7734 7763 0
-643 -7734 7735 0
-7735 7764 0
-644 -7735 7736 0
-7736 7765 0
-645 -7736 7737 0
-7737 7766 0
-646 -7737 7738 0
-7738 7767 0
-647 -7738 7739 0
-7739 7768 0
-648 -7739 7740 0
-7740 7769 0
-649 -7740 7741 0
-7741 7770 0
-650 -7741 7742 0
-7742 7771 0
-651 -7742 7743 0
-7743 7772 0
-652 -7743 7744 0
-7744 7773 0
-653 -7744 7745 0
-7745 7774 0
-654 -7745 7746 0
-7746 7775 0
-655 -7746 7747 0
-7747 7776 0
-656 -7747 7748 0
-7748 7777 0
-657 -7748 0
-629 7749 0
-7749 7778 0
-630 -7749 7750 0
-7750 7779 0
-631 -7750 7751 0
-7751 7780 0
-632 -7751 7752 0
-7752 7781 0
-633 -7752 7753 0
-7753 7782 0
-634 -7753 7754 0
-7754 7783 0
-635 -7754 7755 0
-7755 7784 0
-636 -7755 7756 0
-7756 7785 0
-637 -7756 7757 0
-7757 7786 0
-638 -7757 7758 0
-7758 7787 0
-639 -7758 7759 0
-7759 7788 0
-640 -7759 7760 0
-7760 7789 0
-641 -7760 7761 0
-7761 7790 0
-642 -7761 7762 0
-7762 7791 0
-643 -7762 7763 0
-7763 7792 0
-644 -7763 7764 0
-7764 7793 0
-645 -7764 7765 0
-7765 7794 0
-646 -7765 7766 0
-7766 7795 0
-647 -7766 7767 0
-7767 7796 0
-648 -7767 7768 0
-7768 7797 0
-649 -7768 7769 0
-7769 7798 0
-650 -7769 7770 0
-7770 7799 0
-651 -7770 7771 0
-7771 7800 0
-652 -7771 7772 0
-7772 7801 0
-653 -7772 7773 0
-7773 7802 0
-654 -7773 7774 0
-7774 7803 0
-655 -7774 7775 0
-7775 7804 0
-656 -7775 7776 0
-7776 7805 0
-657 -7776 7777 0
-7777 7806 0
-658 -7777 0
-630 7778 0
-7778 7807 0
-631 -7778 7779 0
-7779 7808 0
-632 -7779 7780 0
-7780 7809 0
-633 -7780 7781 0
-7781 7810 0
-634 -7781 7782 0
-7782 7811 0
-635 -7782 7783 0
-7783 7812 0
-636 -7783 7784 0
-7784 7813 0
-637 -7784 7785 0
-7785 7814 0
-638 -7785 7786 0
-7786 7815 0
-639 -7786 7787 0
-7787 7816 0
-640 -7787 7788 0
-7788 7817 0
-641 -7788 7789 0
-7789 7818 0
-642 -7789 7790 0
-7790 7819 0
-643 -7790 7791 0
-7791 7820 0
-644 -7791 7792 0
-7792 7821 0
-645 -7792 7793 0
-7793 7822 0
-646 -7793 7794 0
-7794 7823 0
-647 -7794 7795 0
-7795 7824 0
-648 -7795 7796 0
-7796 7825 0
-649 -7796 7797 0
-7797 7826 0
-650 -7797 7798 0
-7798 7827 0
-651 -7798 7799 0
-7799 7828 0
-652 -7799 7800 0
-7800 7829 0
-653 -7800 7801 0
-7801 7830 0
-654 -7801 7802 0
-7802 7831 0
-655 -7802 7803 0
-7803 7832 0
-656 -7803 7804 0
-7804 7833 0
-657 -7804 7805 0
-7805 7834 0
-658 -7805 7806 0
-7806 7835 0
-659 -7806 0
-631 7807 0
-7807 7836 0
-632 -7807 7808 0
-7808 7837 0
-633 -7808 7809 0
-7809 7838 0
-634 -7809 7810 0
-7810 7839 0
-635 -7810 7811 0
-7811 7840 0
-636 -7811 7812 0
-7812 7841 0
-637 -7812 7813 0
-7813 7842 0
-638 -7813 7814 0
-7814 7843 0
-639 -7814 7815 0
-7815 7844 0
-640 -7815 7816 0
-7816 7845 0
-641 -7816 7817 0
-7817 7846 0
-642 -7817 7818 0
-7818 7847 0
-643 -7818 7819 0
-7819 7848 0
-644 -7819 7820 0
-7820 7849 0
-645 -7820 7821 0
-7821 7850 0
-646 -7821 7822 0
-7822 7851 0
-647 -7822 7823 0
-7823 7852 0
-648 -7823 7824 0
-7824 7853 0
-649 -7824 7825 0
-7825 7854 0
-650 -7825 7826 0
-7826 7855 0
-651 -7826 7827 0
-7827 7856 0
-652 -7827 7828 0
-7828 7857 0
-653 -7828 7829 0
-7829 7858 0
-654 -7829 7830 0
-7830 7859 0
-655 -7830 7831 0
-7831 7860 0
-656 -7831 7832 0
-7832 7861 0
-657 -7832 7833 0
-7833 7862 0
-658 -7833 7834 0
-7834 7863 0
-659 -7834 7835 0
-7835 7864 0
-660 -7835 0
-632 7836 0
-7836 7865 0
-633 -7836 7837 0
-7837 7866 0
-634 -7837 7838 0
-7838 7867 0
-635 -7838 7839 0
-7839 7868 0
-636 -7839 7840 0
-7840 7869 0
-637 -7840 7841 0
-7841 7870 0
-638 -7841 7842 0
-7842 7871 0
-639 -7842 7843 0
-7843 7872 0
-640 -7843 7844 0
-7844 7873 0
-641 -7844 7845 0
-7845 7874 0
-642 -7845 7846 0
-7846 7875 0
-643 -7846 7847 0
-7847 7876 0
-644 -7847 7848 0
-7848 7877 0
-645 -7848 7849 0
-7849 7878 0
-646 -7849 7850 0
-7850 7879 0
-647 -7850 7851 0
-7851 7880 0
-648 -7851 7852 0
-7852 7881 0
-649 -7852 7853 0
-7853 7882 0
-650 -7853 7854 0
-7854 7883 0
-651 -7854 7855 0
-7855 7884 0
-652 -7855 7856 0
-7856 7885 0
-653 -7856 7857 0
-7857 7886 0
-654 -7857 7858 0
-7858 7887 0
-655 -7858 7859 0
-7859 7888 0
-656 -7859 7860 0
-7860 7889 0
-657 -7860 7861 0
-7861 7890 0
-658 -7861 7862 0
-7862 7891 0
-659 -7862 7863 0
-7863 7892 0
-660 -7863 7864 0
-7864 7893 0
-661 -7864 0
-633 7865 0
-7865 7894 0
-634 -7865 7866 0
-7866 7895 0
-635 -7866 7867 0
-7867 7896 0
-636 -7867 7868 0
-7868 7897 0
-637 -7868 7869 0
-7869 7898 0
-638 -7869 7870 0
-7870 7899 0
-639 -7870 7871 0
-7871 7900 0
-640 -7871 7872 0
-7872 7901 0
-641 -7872 7873 0
-7873 7902 0
-642 -7873 7874 0
-7874 7903 0
-643 -7874 7875 0
-7875 7904 0
-644 -7875 7876 0
-7876 7905 0
-645 -7876 7877 0
-7877 7906 0
-646 -7877 7878 0
-7878 7907 0
-647 -7878 7879 0
-7879 7908 0
-648 -7879 7880 0
-7880 7909 0
-649 -7880 7881 0
-7881 7910 0
-650 -7881 7882 0
-7882 7911 0
-651 -7882 7883 0
-7883 7912 0
-652 -7883 7884 0
-7884 7913 0
-653 -7884 7885 0
-7885 7914 0
-654 -7885 7886 0
-7886 7915 0
-655 -7886 7887 0
-7887 7916 0
-656 -7887 7888 0
-7888 7917 0
-657 -7888 7889 0
-7889 7918 0
-658 -7889 7890 0
-7890 7919 0
-659 -7890 7891 0
-7891 7920 0
-660 -7891 7892 0
-7892 7921 0
-661 -7892 7893 0
-7893 7922 0
-662 -7893 0
-634 7894 0
-7894 7923 0
-635 -7894 7895 0
-7895 7924 0
-636 -7895 7896 0
-7896 7925 0
-637 -7896 7897 0
-7897 7926 0
-638 -7897 7898 0
-7898 7927 0
-639 -7898 7899 0
-7899 7928 0
-640 -7899 7900 0
-7900 7929 0
-641 -7900 7901 0
-7901 7930 0
-642 -7901 7902 0
-7902 7931 0
-643 -7902 7903 0
-7903 7932 0
-644 -7903 7904 0
-7904 7933 0
-645 -7904 7905 0
-7905 7934 0
-646 -7905 7906 0
-7906 7935 0
-647 -7906 7907 0
-7907 7936 0
-648 -7907 7908 0
-7908 7937 0
-649 -7908 7909 0
-7909 7938 0
-650 -7909 7910 0
-7910 7939 0
-651 -7910 7911 0
-7911 7940 0
-652 -7911 7912 0
-7912 7941 0
-653 -7912 7913 0
-7913 7942 0
-654 -7913 7914 0
-7914 7943 0
-655 -7914 7915 0
-7915 7944 0
-656 -7915 7916 0
-7916 7945 0
-657 -7916 7917 0
-7917 7946 0
-658 -7917 7918 0
-7918 7947 0
-659 -7918 7919 0
-7919 7948 0
-660 -7919 7920 0
-7920 7949 0
-661 -7920 7921 0
-7921 7950 0
-662 -7921 7922 0
-7922 7951 0
-663 -7922 0
-635 7923 0
-7923 7952 0
-636 -7923 7924 0
-7924 7953 0
-637 -7924 7925 0
-7925 7954 0
-638 -7925 7926 0
-7926 7955 0
-639 -7926 7927 0
-7927 7956 0
-640 -7927 7928 0
-7928 7957 0
-641 -7928 7929 0
-7929 7958 0
-642 -7929 7930 0
-7930 7959 0
-643 -7930 7931 0
-7931 7960 0
-644 -7931 7932 0
-7932 7961 0
-645 -7932 7933 0
-7933 7962 0
-646 -7933 7934 0
-7934 7963 0
-647 -7934 7935 0
-7935 7964 0
-648 -7935 7936 0
-7936 7965 0
-649 -7936 7937 0
-7937 7966 0
-650 -7937 7938 0
-7938 7967 0
-651 -7938 7939 0
-7939 7968 0
-652 -7939 7940 0
-7940 7969 0
-653 -7940 7941 0
-7941 7970 0
-654 -7941 7942 0
-7942 7971 0
-655 -7942 7943 0
-7943 7972 0
-656 -7943 7944 0
-7944 7973 0
-657 -7944 7945 0
-7945 7974 0
-658 -7945 7946 0
-7946 7975 0
-659 -7946 7947 0
-7947 7976 0
-660 -7947 7948 0
-7948 7977 0
-661 -7948 7949 0
-7949 7978 0
-662 -7949 7950 0
-7950 7979 0
-663 -7950 7951 0
-7951 7980 0
-664 -7951 0
-636 7952 0
-7952 7981 0
-637 -7952 7953 0
-7953 7982 0
-638 -7953 7954 0
-7954 7983 0
-639 -7954 7955 0
-7955 7984 0
-640 -7955 7956 0
-7956 7985 0
-641 -7956 7957 0
-7957 7986 0
-642 -7957 7958 0
-7958 7987 0
-643 -7958 7959 0
-7959 7988 0
-644 -7959 7960 0
-7960 7989 0
-645 -7960 7961 0
-7961 7990 0
-646 -7961 7962 0
-7962 7991 0
-647 -7962 7963 0
-7963 7992 0
-648 -7963 7964 0
-7964 7993 0
-649 -7964 7965 0
-7965 7994 0
-650 -7965 7966 0
-7966 7995 0
-651 -7966 7967 0
-7967 7996 0
-652 -7967 7968 0
-7968 7997 0
-653 -7968 7969 0
-7969 7998 0
-654 -7969 7970 0
-7970 7999 0
-655 -7970 7971 0
-7971 8000 0
-656 -7971 7972 0
-7972 8001 0
-657 -7972 7973 0
-7973 8002 0
-658 -7973 7974 0
-7974 8003 0
-659 -7974 7975 0
-7975 8004 0
-660 -7975 7976 0
-7976 8005 0
-661 -7976 7977 0
-7977 8006 0
-662 -7977 7978 0
-7978 8007 0
-663 -7978 7979 0
-7979 8008 0
-664 -7979 7980 0
-7980 8009 0
-665 -7980 0
-637 7981 0
-7981 8010 0
-638 -7981 7982 0
-7982 8011 0
-639 -7982 7983 0
-7983 8012 0
-640 -7983 7984 0
-7984 8013 0
-641 -7984 7985 0
-7985 8014 0
-642 -7985 7986 0
-7986 8015 0
-643 -7986 7987 0
-7987 8016 0
-644 -7987 7988 0
-7988 8017 0
-645 -7988 7989 0
-7989 8018 0
-646 -7989 7990 0
-7990 8019 0
-647 -7990 7991 0
-7991 8020 0
-648 -7991 7992 0
-7992 8021 0
-649 -7992 7993 0
-7993 8022 0
-650 -7993 7994 0
-7994 8023 0
-651 -7994 7995 0
-7995 8024 0
-652 -7995 7996 0
-7996 8025 0
-653 -7996 7997 0
-7997 8026 0
-654 -7997 7998 0
-7998 8027 0
-655 -7998 7999 0
-7999 8028 0
-656 -7999 8000 0
-8000 8029 0
-657 -8000 8001 0
-8001 8030 0
-658 -8001 8002 0
-8002 8031 0
-659 -8002 8003 0
-8003 8032 0
-660 -8003 8004 0
-8004 8033 0
-661 -8004 8005 0
-8005 8034 0
-662 -8005 8006 0
-8006 8035 0
-663 -8006 8007 0
-8007 8036 0
-664 -8007 8008 0
-8008 8037 0
-665 -8008 8009 0
-8009 8038 0
-666 -8009 0
-638 8010 0
-8010 8039 0
-639 -8010 8011 0
-8011 8040 0
-640 -8011 8012 0
-8012 8041 0
-641 -8012 8013 0
-8013 8042 0
-642 -8013 8014 0
-8014 8043 0
-643 -8014 8015 0
-8015 8044 0
-644 -8015 8016 0
-8016 8045 0
-645 -8016 8017 0
-8017 8046 0
-646 -8017 8018 0
-8018 8047 0
-647 -8018 8019 0
-8019 8048 0
-648 -8019 8020 0
-8020 8049 0
-649 -8020 8021 0
-8021 8050 0
-650 -8021 8022 0
-8022 8051 0
-651 -8022 8023 0
-8023 8052 0
-652 -8023 8024 0
-8024 8053 0
-653 -8024 8025 0
-8025 8054 0
-654 -8025 8026 0
-8026 8055 0
-655 -8026 8027 0
-8027 8056 0
-656 -8027 8028 0
-8028 8057 0
-657 -8028 8029 0
-8029 8058 0
-658 -8029 8030 0
-8030 8059 0
-659 -8030 8031 0
-8031 8060 0
-660 -8031 8032 0
-8032 8061 0
-661 -8032 8033 0
-8033 8062 0
-662 -8033 8034 0
-8034 8063 0
-663 -8034 8035 0
-8035 8064 0
-664 -8035 8036 0
-8036 8065 0
-665 -8036 8037 0
-8037 8066 0
-666 -8037 8038 0
-8038 8067 0
-667 -8038 0
-639 8039 0
-8039 8068 0
-640 -8039 8040 0
-8040 8069 0
-641 -8040 8041 0
-8041 8070 0
-642 -8041 8042 0
-8042 8071 0
-643 -8042 8043 0
-8043 8072 0
-644 -8043 8044 0
-8044 8073 0
-645 -8044 8045 0
-8045 8074 0
-646 -8045 8046 0
-8046 8075 0
-647 -8046 8047 0
-8047 8076 0
-648 -8047 8048 0
-8048 8077 0
-649 -8048 8049 0
-8049 8078 0
-650 -8049 8050 0
-8050 8079 0
-651 -8050 8051 0
-8051 8080 0
-652 -8051 8052 0
-8052 8081 0
-653 -8052 8053 0
-8053 8082 0
-654 -8053 8054 0
-8054 8083 0
-655 -8054 8055 0
-8055 8084 0
-656 -8055 8056 0
-8056 8085 0
-657 -8056 8057 0
-8057 8086 0
-658 -8057 8058 0
-8058 8087 0
-659 -8058 8059 0
-8059 8088 0
-660 -8059 8060 0
-8060 8089 0
-661 -8060 8061 0
-8061 8090 0
-662 -8061 8062 0
-8062 8091 0
-663 -8062 8063 0
-8063 8092 0
-664 -8063 8064 0
-8064 8093 0
-665 -8064 8065 0
-8065 8094 0
-666 -8065 8066 0
-8066 8095 0
-667 -8066 8067 0
-8067 8096 0
-668 -8067 0
-640 8068 0
-8068 8097 0
-641 -8068 8069 0
-8069 8098 0
-642 -8069 8070 0
-8070 8099 0
-643 -8070 8071 0
-8071 8100 0
-644 -8071 8072 0
-8072 8101 0
-645 -8072 8073 0
-8073 8102 0
-646 -8073 8074 0
-8074 8103 0
-647 -8074 8075 0
-8075 8104 0
-648 -8075 8076 0
-8076 8105 0
-649 -8076 8077 0
-8077 8106 0
-650 -8077 8078 0
-8078 8107 0
-651 -8078 8079 0
-8079 8108 0
-652 -8079 8080 0
-8080 8109 0
-653 -8080 8081 0
-8081 8110 0
-654 -8081 8082 0
-8082 8111 0
-655 -8082 8083 0
-8083 8112 0
-656 -8083 8084 0
-8084 8113 0
-657 -8084 8085 0
-8085 8114 0
-658 -8085 8086 0
-8086 8115 0
-659 -8086 8087 0
-8087 8116 0
-660 -8087 8088 0
-8088 8117 0
-661 -8088 8089 0
-8089 8118 0
-662 -8089 8090 0
-8090 8119 0
-663 -8090 8091 0
-8091 8120 0
-664 -8091 8092 0
-8092 8121 0
-665 -8092 8093 0
-8093 8122 0
-666 -8093 8094 0
-8094 8123 0
-667 -8094 8095 0
-8095 8124 0
-668 -8095 8096 0
-8096 8125 0
-669 -8096 0
-641 8097 0
-8097 8126 0
-642 -8097 8098 0
-8098 8127 0
-643 -8098 8099 0
-8099 8128 0
-644 -8099 8100 0
-8100 8129 0
-645 -8100 8101 0
-8101 8130 0
-646 -8101 8102 0
-8102 8131 0
-647 -8102 8103 0
-8103 8132 0
-648 -8103 8104 0
-8104 8133 0
-649 -8104 8105 0
-8105 8134 0
-650 -8105 8106 0
-8106 8135 0
-651 -8106 8107 0
-8107 8136 0
-652 -8107 8108 0
-8108 8137 0
-653 -8108 8109 0
-8109 8138 0
-654 -8109 8110 0
-8110 8139 0
-655 -8110 8111 0
-8111 8140 0
-656 -8111 8112 0
-8112 8141 0
-657 -8112 8113 0
-8113 8142 0
-658 -8113 8114 0
-8114 8143 0
-659 -8114 8115 0
-8115 8144 0
-660 -8115 8116 0
-8116 8145 0
-661 -8116 8117 0
-8117 8146 0
-662 -8117 8118 0
-8118 8147 0
-663 -8118 8119 0
-8119 8148 0
-664 -8119 8120 0
-8120 8149 0
-665 -8120 8121 0
-8121 8150 0
-666 -8121 8122 0
-8122 8151 0
-667 -8122 8123 0
-8123 8152 0
-668 -8123 8124 0
-8124 8153 0
-669 -8124 8125 0
-8125 8154 0
-670 -8125 0
-642 8126 0
-8126 8155 0
-643 -8126 8127 0
-8127 8156 0
-644 -8127 8128 0
-8128 8157 0
-645 -8128 8129 0
-8129 8158 0
-646 -8129 8130 0
-8130 8159 0
-647 -8130 8131 0
-8131 8160 0
-648 -8131 8132 0
-8132 8161 0
-649 -8132 8133 0
-8133 8162 0
-650 -8133 8134 0
-8134 8163 0
-651 -8134 8135 0
-8135 8164 0
-652 -8135 8136 0
-8136 8165 0
-653 -8136 8137 0
-8137 8166 0
-654 -8137 8138 0
-8138 8167 0
-655 -8138 8139 0
-8139 8168 0
-656 -8139 8140 0
-8140 8169 0
-657 -8140 8141 0
-8141 8170 0
-658 -8141 8142 0
-8142 8171 0
-659 -8142 8143 0
-8143 8172 0
-660 -8143 8144 0
-8144 8173 0
-661 -8144 8145 0
-8145 8174 0
-662 -8145 8146 0
-8146 8175 0
-663 -8146 8147 0
-8147 8176 0
-664 -8147 8148 0
-8148 8177 0
-665 -8148 8149 0
-8149 8178 0
-666 -8149 8150 0
-8150 8179 0
-667 -8150 8151 0
-8151 8180 0
-668 -8151 8152 0
-8152 8181 0
-669 -8152 8153 0
-8153 8182 0
-670 -8153 8154 0
-8154 8183 0
-671 -8154 0
-643 8155 0
-8155 8184 0
-644 -8155 8156 0
-8156 8185 0
-645 -8156 8157 0
-8157 8186 0
-646 -8157 8158 0
-8158 8187 0
-647 -8158 8159 0
-8159 8188 0
-648 -8159 8160 0
-8160 8189 0
-649 -8160 8161 0
-8161 8190 0
-650 -8161 8162 0
-8162 8191 0
-651 -8162 8163 0
-8163 8192 0
-652 -8163 8164 0
-8164 8193 0
-653 -8164 8165 0
-8165 8194 0
-654 -8165 8166 0
-8166 8195 0
-655 -8166 8167 0
-8167 8196 0
-656 -8167 8168 0
-8168 8197 0
-657 -8168 8169 0
-8169 8198 0
-658 -8169 8170 0
-8170 8199 0
-659 -8170 8171 0
-8171 8200 0
-660 -8171 8172 0
-8172 8201 0
-661 -8172 8173 0
-8173 8202 0
-662 -8173 8174 0
-8174 8203 0
-663 -8174 8175 0
-8175 8204 0
-664 -8175 8176 0
-8176 8205 0
-665 -8176 8177 0
-8177 8206 0
-666 -8177 8178 0
-8178 8207 0
-667 -8178 8179 0
-8179 8208 0
-668 -8179 8180 0
-8180 8209 0
-669 -8180 8181 0
-8181 8210 0
-670 -8181 8182 0
-8182 8211 0
-671 -8182 8183 0
-8183 8212 0
-672 -8183 0
-644 8184 0
-8184 8213 0
-645 -8184 8185 0
-8185 8214 0
-646 -8185 8186 0
-8186 8215 0
-647 -8186 8187 0
-8187 8216 0
-648 -8187 8188 0
-8188 8217 0
-649 -8188 8189 0
-8189 8218 0
-650 -8189 8190 0
-8190 8219 0
-651 -8190 8191 0
-8191 8220 0
-652 -8191 8192 0
-8192 8221 0
-653 -8192 8193 0
-8193 8222 0
-654 -8193 8194 0
-8194 8223 0
-655 -8194 8195 0
-8195 8224 0
-656 -8195 8196 0
-8196 8225 0
-657 -8196 8197 0
-8197 8226 0
-658 -8197 8198 0
-8198 8227 0
-659 -8198 8199 0
-8199 8228 0
-660 -8199 8200 0
-8200 8229 0
-661 -8200 8201 0
-8201 8230 0
-662 -8201 8202 0
-8202 8231 0
-663 -8202 8203 0
-8203 8232 0
-664 -8203 8204 0
-8204 8233 0
-665 -8204 8205 0
-8205 8234 0
-666 -8205 8206 0
-8206 8235 0
-667 -8206 8207 0
-8207 8236 0
-668 -8207 8208 0
-8208 8237 0
-669 -8208 8209 0
-8209 8238 0
-670 -8209 8210 0
-8210 8239 0
-671 -8210 8211 0
-8211 8240 0
-672 -8211 8212 0
-8212 8241 0
-673 -8212 0
-645 8213 0
-8213 8242 0
-646 -8213 8214 0
-8214 8243 0
-647 -8214 8215 0
-8215 8244 0
-648 -8215 8216 0
-8216 8245 0
-649 -8216 8217 0
-8217 8246 0
-650 -8217 8218 0
-8218 8247 0
-651 -8218 8219 0
-8219 8248 0
-652 -8219 8220 0
-8220 8249 0
-653 -8220 8221 0
-8221 8250 0
-654 -8221 8222 0
-8222 8251 0
-655 -8222 8223 0
-8223 8252 0
-656 -8223 8224 0
-8224 8253 0
-657 -8224 8225 0
-8225 8254 0
-658 -8225 8226 0
-8226 8255 0
-659 -8226 8227 0
-8227 8256 0
-660 -8227 8228 0
-8228 8257 0
-661 -8228 8229 0
-8229 8258 0
-662 -8229 8230 0
-8230 8259 0
-663 -8230 8231 0
-8231 8260 0
-664 -8231 8232 0
-8232 8261 0
-665 -8232 8233 0
-8233 8262 0
-666 -8233 8234 0
-8234 8263 0
-667 -8234 8235 0
-8235 8264 0
-668 -8235 8236 0
-8236 8265 0
-669 -8236 8237 0
-8237 8266 0
-670 -8237 8238 0
-8238 8267 0
-671 -8238 8239 0
-8239 8268 0
-672 -8239 8240 0
-8240 8269 0
-673 -8240 8241 0
-8241 8270 0
-674 -8241 0
-646 8242 0
-8242 8271 0
-647 -8242 8243 0
-8243 8272 0
-648 -8243 8244 0
-8244 8273 0
-649 -8244 8245 0
-8245 8274 0
-650 -8245 8246 0
-8246 8275 0
-651 -8246 8247 0
-8247 8276 0
-652 -8247 8248 0
-8248 8277 0
-653 -8248 8249 0
-8249 8278 0
-654 -8249 8250 0
-8250 8279 0
-655 -8250 8251 0
-8251 8280 0
-656 -8251 8252 0
-8252 8281 0
-657 -8252 8253 0
-8253 8282 0
-658 -8253 8254 0
-8254 8283 0
-659 -8254 8255 0
-8255 8284 0
-660 -8255 8256 0
-8256 8285 0
-661 -8256 8257 0
-8257 8286 0
-662 -8257 8258 0
-8258 8287 0
-663 -8258 8259 0
-8259 8288 0
-664 -8259 8260 0
-8260 8289 0
-665 -8260 8261 0
-8261 8290 0
-666 -8261 8262 0
-8262 8291 0
-667 -8262 8263 0
-8263 8292 0
-668 -8263 8264 0
-8264 8293 0
-669 -8264 8265 0
-8265 8294 0
-670 -8265 8266 0
-8266 8295 0
-671 -8266 8267 0
-8267 8296 0
-672 -8267 8268 0
-8268 8297 0
-673 -8268 8269 0
-8269 8298 0
-674 -8269 8270 0
-8270 8299 0
-675 -8270 0
-647 8271 0
-8271 8300 0
-648 -8271 8272 0
-8272 8301 0
-649 -8272 8273 0
-8273 8302 0
-650 -8273 8274 0
-8274 8303 0
-651 -8274 8275 0
-8275 8304 0
-652 -8275 8276 0
-8276 8305 0
-653 -8276 8277 0
-8277 8306 0
-654 -8277 8278 0
-8278 8307 0
-655 -8278 8279 0
-8279 8308 0
-656 -8279 8280 0
-8280 8309 0
-657 -8280 8281 0
-8281 8310 0
-658 -8281 8282 0
-8282 8311 0
-659 -8282 8283 0
-8283 8312 0
-660 -8283 8284 0
-8284 8313 0
-661 -8284 8285 0
-8285 8314 0
-662 -8285 8286 0
-8286 8315 0
-663 -8286 8287 0
-8287 8316 0
-664 -8287 8288 0
-8288 8317 0
-665 -8288 8289 0
-8289 8318 0
-666 -8289 8290 0
-8290 8319 0
-667 -8290 8291 0
-8291 8320 0
-668 -8291 8292 0
-8292 8321 0
-669 -8292 8293 0
-8293 8322 0
-670 -8293 8294 0
-8294 8323 0
-671 -8294 8295 0
-8295 8324 0
-672 -8295 8296 0
-8296 8325 0
-673 -8296 8297 0
-8297 8326 0
-674 -8297 8298 0
-8298 8327 0
-675 -8298 8299 0
-8299 8328 0
-676 -8299 0
-648 8300 0
-8300 8329 0
-649 -8300 8301 0
-8301 8330 0
-650 -8301 8302 0
-8302 8331 0
-651 -8302 8303 0
-8303 8332 0
-652 -8303 8304 0
-8304 8333 0
-653 -8304 8305 0
-8305 8334 0
-654 -8305 8306 0
-8306 8335 0
-655 -8306 8307 0
-8307 8336 0
-656 -8307 8308 0
-8308 8337 0
-657 -8308 8309 0
-8309 8338 0
-658 -8309 8310 0
-8310 8339 0
-659 -8310 8311 0
-8311 8340 0
-660 -8311 8312 0
-8312 8341 0
-661 -8312 8313 0
-8313 8342 0
-662 -8313 8314 0
-8314 8343 0
-663 -8314 8315 0
-8315 8344 0
-664 -8315 8316 0
-8316 8345 0
-665 -8316 8317 0
-8317 8346 0
-666 -8317 8318 0
-8318 8347 0
-667 -8318 8319 0
-8319 8348 0
-668 -8319 8320 0
-8320 8349 0
-669 -8320 8321 0
-8321 8350 0
-670 -8321 8322 0
-8322 8351 0
-671 -8322 8323 0
-8323 8352 0
-672 -8323 8324 0
-8324 8353 0
-673 -8324 8325 0
-8325 8354 0
-674 -8325 8326 0
-8326 8355 0
-675 -8326 8327 0
-8327 8356 0
-676 -8327 8328 0
-8328 8357 0
-677 -8328 0
-649 8329 0
-8329 8358 0
-650 -8329 8330 0
-8330 8359 0
-651 -8330 8331 0
-8331 8360 0
-652 -8331 8332 0
-8332 8361 0
-653 -8332 8333 0
-8333 8362 0
-654 -8333 8334 0
-8334 8363 0
-655 -8334 8335 0
-8335 8364 0
-656 -8335 8336 0
-8336 8365 0
-657 -8336 8337 0
-8337 8366 0
-658 -8337 8338 0
-8338 8367 0
-659 -8338 8339 0
-8339 8368 0
-660 -8339 8340 0
-8340 8369 0
-661 -8340 8341 0
-8341 8370 0
-662 -8341 8342 0
-8342 8371 0
-663 -8342 8343 0
-8343 8372 0
-664 -8343 8344 0
-8344 8373 0
-665 -8344 8345 0
-8345 8374 0
-666 -8345 8346 0
-8346 8375 0
-667 -8346 8347 0
-8347 8376 0
-668 -8347 8348 0
-8348 8377 0
-669 -8348 8349 0
-8349 8378 0
-670 -8349 8350 0
-8350 8379 0
-671 -8350 8351 0
-8351 8380 0
-672 -8351 8352 0
-8352 8381 0
-673 -8352 8353 0
-8353 8382 0
-674 -8353 8354 0
-8354 8383 0
-675 -8354 8355 0
-8355 8384 0
-676 -8355 8356 0
-8356 8385 0
-677 -8356 8357 0
-8357 8386 0
-678 -8357 0
-650 8358 0
-8358 8387 0
-651 -8358 8359 0
-8359 8388 0
-652 -8359 8360 0
-8360 8389 0
-653 -8360 8361 0
-8361 8390 0
-654 -8361 8362 0
-8362 8391 0
-655 -8362 8363 0
-8363 8392 0
-656 -8363 8364 0
-8364 8393 0
-657 -8364 8365 0
-8365 8394 0
-658 -8365 8366 0
-8366 8395 0
-659 -8366 8367 0
-8367 8396 0
-660 -8367 8368 0
-8368 8397 0
-661 -8368 8369 0
-8369 8398 0
-662 -8369 8370 0
-8370 8399 0
-663 -8370 8371 0
-8371 8400 0
-664 -8371 8372 0
-8372 8401 0
-665 -8372 8373 0
-8373 8402 0
-666 -8373 8374 0
-8374 8403 0
-667 -8374 8375 0
-8375 8404 0
-668 -8375 8376 0
-8376 8405 0
-669 -8376 8377 0
-8377 8406 0
-670 -8377 8378 0
-8378 8407 0
-671 -8378 8379 0
-8379 8408 0
-672 -8379 8380 0
-8380 8409 0
-673 -8380 8381 0
-8381 8410 0
-674 -8381 8382 0
-8382 8411 0
-675 -8382 8383 0
-8383 8412 0
-676 -8383 8384 0
-8384 8413 0
-677 -8384 8385 0
-8385 8414 0
-678 -8385 8386 0
-8386 8415 0
-679 -8386 0
-651 8387 0
-8387 8416 0
-652 -8387 8388 0
-8388 8417 0
-653 -8388 8389 0
-8389 8418 0
-654 -8389 8390 0
-8390 8419 0
-655 -8390 8391 0
-8391 8420 0
-656 -8391 8392 0
-8392 8421 0
-657 -8392 8393 0
-8393 8422 0
-658 -8393 8394 0
-8394 8423 0
-659 -8394 8395 0
-8395 8424 0
-660 -8395 8396 0
-8396 8425 0
-661 -8396 8397 0
-8397 8426 0
-662 -8397 8398 0
-8398 8427 0
-663 -8398 8399 0
-8399 8428 0
-664 -8399 8400 0
-8400 8429 0
-665 -8400 8401 0
-8401 8430 0
-666 -8401 8402 0
-8402 8431 0
-667 -8402 8403 0
-8403 8432 0
-668 -8403 8404 0
-8404 8433 0
-669 -8404 8405 0
-8405 8434 0
-670 -8405 8406 0
-8406 8435 0
-671 -8406 8407 0
-8407 8436 0
-672 -8407 8408 0
-8408 8437 0
-673 -8408 8409 0
-8409 8438 0
-674 -8409 8410 0
-8410 8439 0
-675 -8410 8411 0
-8411 8440 0
-676 -8411 8412 0
-8412 8441 0
-677 -8412 8413 0
-8413 8442 0
-678 -8413 8414 0
-8414 8443 0
-679 -8414 8415 0
-8415 8444 0
-680 -8415 0
-652 8416 0
-8416 8445 0
-653 -8416 8417 0
-8417 8446 0
-654 -8417 8418 0
-8418 8447 0
-655 -8418 8419 0
-8419 8448 0
-656 -8419 8420 0
-8420 8449 0
-657 -8420 8421 0
-8421 8450 0
-658 -8421 8422 0
-8422 8451 0
-659 -8422 8423 0
-8423 8452 0
-660 -8423 8424 0
-8424 8453 0
-661 -8424 8425 0
-8425 8454 0
-662 -8425 8426 0
-8426 8455 0
-663 -8426 8427 0
-8427 8456 0
-664 -8427 8428 0
-8428 8457 0
-665 -8428 8429 0
-8429 8458 0
-666 -8429 8430 0
-8430 8459 0
-667 -8430 8431 0
-8431 8460 0
-668 -8431 8432 0
-8432 8461 0
-669 -8432 8433 0
-8433 8462 0
-670 -8433 8434 0
-8434 8463 0
-671 -8434 8435 0
-8435 8464 0
-672 -8435 8436 0
-8436 8465 0
-673 -8436 8437 0
-8437 8466 0
-674 -8437 8438 0
-8438 8467 0
-675 -8438 8439 0
-8439 8468 0
-676 -8439 8440 0
-8440 8469 0
-677 -8440 8441 0
-8441 8470 0
-678 -8441 8442 0
-8442 8471 0
-679 -8442 8443 0
-8443 8472 0
-680 -8443 8444 0
-8444 8473 0
-681 -8444 0
-653 8445 0
-8445 8474 0
-654 -8445 8446 0
-8446 8475 0
-655 -8446 8447 0
-8447 8476 0
-656 -8447 8448 0
-8448 8477 0
-657 -8448 8449 0
-8449 8478 0
-658 -8449 8450 0
-8450 8479 0
-659 -8450 8451 0
-8451 8480 0
-660 -8451 8452 0
-8452 8481 0
-661 -8452 8453 0
-8453 8482 0
-662 -8453 8454 0
-8454 8483 0
-663 -8454 8455 0
-8455 8484 0
-664 -8455 8456 0
-8456 8485 0
-665 -8456 8457 0
-8457 8486 0
-666 -8457 8458 0
-8458 8487 0
-667 -8458 8459 0
-8459 8488 0
-668 -8459 8460 0
-8460 8489 0
-669 -8460 8461 0
-8461 8490 0
-670 -8461 8462 0
-8462 8491 0
-671 -8462 8463 0
-8463 8492 0
-672 -8463 8464 0
-8464 8493 0
-673 -8464 8465 0
-8465 8494 0
-674 -8465 8466 0
-8466 8495 0
-675 -8466 8467 0
-8467 8496 0
-676 -8467 8468 0
-8468 8497 0
-677 -8468 8469 0
-8469 8498 0
-678 -8469 8470 0
-8470 8499 0
-679 -8470 8471 0
-8471 8500 0
-680 -8471 8472 0
-8472 8501 0
-681 -8472 8473 0
-8473 8502 0
-682 -8473 0
-654 8474 0
-8474 8503 0
-655 -8474 8475 0
-8475 8504 0
-656 -8475 8476 0
-8476 8505 0
-657 -8476 8477 0
-8477 8506 0
-658 -8477 8478 0
-8478 8507 0
-659 -8478 8479 0
-8479 8508 0
-660 -8479 8480 0
-8480 8509 0
-661 -8480 8481 0
-8481 8510 0
-662 -8481 8482 0
-8482 8511 0
-663 -8482 8483 0
-8483 8512 0
-664 -8483 8484 0
-8484 8513 0
-665 -8484 8485 0
-8485 8514 0
-666 -8485 8486 0
-8486 8515 0
-667 -8486 8487 0
-8487 8516 0
-668 -8487 8488 0
-8488 8517 0
-669 -8488 8489 0
-8489 8518 0
-670 -8489 8490 0
-8490 8519 0
-671 -8490 8491 0
-8491 8520 0
-672 -8491 8492 0
-8492 8521 0
-673 -8492 8493 0
-8493 8522 0
-674 -8493 8494 0
-8494 8523 0
-675 -8494 8495 0
-8495 8524 0
-676 -8495 8496 0
-8496 8525 0
-677 -8496 8497 0
-8497 8526 0
-678 -8497 8498 0
-8498 8527 0
-679 -8498 8499 0
-8499 8528 0
-680 -8499 8500 0
-8500 8529 0
-681 -8500 8501 0
-8501 8530 0
-682 -8501 8502 0
-8502 8531 0
-683 -8502 0
-655 8503 0
-8503 8532 0
-656 -8503 8504 0
-8504 8533 0
-657 -8504 8505 0
-8505 8534 0
-658 -8505 8506 0
-8506 8535 0
-659 -8506 8507 0
-8507 8536 0
-660 -8507 8508 0
-8508 8537 0
-661 -8508 8509 0
-8509 8538 0
-662 -8509 8510 0
-8510 8539 0
-663 -8510 8511 0
-8511 8540 0
-664 -8511 8512 0
-8512 8541 0
-665 -8512 8513 0
-8513 8542 0
-666 -8513 8514 0
-8514 8543 0
-667 -8514 8515 0
-8515 8544 0
-668 -8515 8516 0
-8516 8545 0
-669 -8516 8517 0
-8517 8546 0
-670 -8517 8518 0
-8518 8547 0
-671 -8518 8519 0
-8519 8548 0
-672 -8519 8520 0
-8520 8549 0
-673 -8520 8521 0
-8521 8550 0
-674 -8521 8522 0
-8522 8551 0
-675 -8522 8523 0
-8523 8552 0
-676 -8523 8524 0
-8524 8553 0
-677 -8524 8525 0
-8525 8554 0
-678 -8525 8526 0
-8526 8555 0
-679 -8526 8527 0
-8527 8556 0
-680 -8527 8528 0
-8528 8557 0
-681 -8528 8529 0
-8529 8558 0
-682 -8529 8530 0
-8530 8559 0
-683 -8530 8531 0
-8531 8560 0
-684 -8531 0
-656 8532 0
-8532 8561 0
-657 -8532 8533 0
-8533 8562 0
-658 -8533 8534 0
-8534 8563 0
-659 -8534 8535 0
-8535 8564 0
-660 -8535 8536 0
-8536 8565 0
-661 -8536 8537 0
-8537 8566 0
-662 -8537 8538 0
-8538 8567 0
-663 -8538 8539 0
-8539 8568 0
-664 -8539 8540 0
-8540 8569 0
-665 -8540 8541 0
-8541 8570 0
-666 -8541 8542 0
-8542 8571 0
-667 -8542 8543 0
-8543 8572 0
-668 -8543 8544 0
-8544 8573 0
-669 -8544 8545 0
-8545 8574 0
-670 -8545 8546 0
-8546 8575 0
-671 -8546 8547 0
-8547 8576 0
-672 -8547 8548 0
-8548 8577 0
-673 -8548 8549 0
-8549 8578 0
-674 -8549 8550 0
-8550 8579 0
-675 -8550 8551 0
-8551 8580 0
-676 -8551 8552 0
-8552 8581 0
-677 -8552 8553 0
-8553 8582 0
-678 -8553 8554 0
-8554 8583 0
-679 -8554 8555 0
-8555 8584 0
-680 -8555 8556 0
-8556 8585 0
-681 -8556 8557 0
-8557 8586 0
-682 -8557 8558 0
-8558 8587 0
-683 -8558 8559 0
-8559 8588 0
-684 -8559 8560 0
-8560 8589 0
-685 -8560 0
-657 8561 0
-8561 8590 0
-658 -8561 8562 0
-8562 8591 0
-659 -8562 8563 0
-8563 8592 0
-660 -8563 8564 0
-8564 8593 0
-661 -8564 8565 0
-8565 8594 0
-662 -8565 8566 0
-8566 8595 0
-663 -8566 8567 0
-8567 8596 0
-664 -8567 8568 0
-8568 8597 0
-665 -8568 8569 0
-8569 8598 0
-666 -8569 8570 0
-8570 8599 0
-667 -8570 8571 0
-8571 8600 0
-668 -8571 8572 0
-8572 8601 0
-669 -8572 8573 0
-8573 8602 0
-670 -8573 8574 0
-8574 8603 0
-671 -8574 8575 0
-8575 8604 0
-672 -8575 8576 0
-8576 8605 0
-673 -8576 8577 0
-8577 8606 0
-674 -8577 8578 0
-8578 8607 0
-675 -8578 8579 0
-8579 8608 0
-676 -8579 8580 0
-8580 8609 0
-677 -8580 8581 0
-8581 8610 0
-678 -8581 8582 0
-8582 8611 0
-679 -8582 8583 0
-8583 8612 0
-680 -8583 8584 0
-8584 8613 0
-681 -8584 8585 0
-8585 8614 0
-682 -8585 8586 0
-8586 8615 0
-683 -8586 8587 0
-8587 8616 0
-684 -8587 8588 0
-8588 8617 0
-685 -8588 8589 0
-8589 8618 0
-686 -8589 0
-658 8590 0
-8590 8619 0
-659 -8590 8591 0
-8591 8620 0
-660 -8591 8592 0
-8592 8621 0
-661 -8592 8593 0
-8593 8622 0
-662 -8593 8594 0
-8594 8623 0
-663 -8594 8595 0
-8595 8624 0
-664 -8595 8596 0
-8596 8625 0
-665 -8596 8597 0
-8597 8626 0
-666 -8597 8598 0
-8598 8627 0
-667 -8598 8599 0
-8599 8628 0
-668 -8599 8600 0
-8600 8629 0
-669 -8600 8601 0
-8601 8630 0
-670 -8601 8602 0
-8602 8631 0
-671 -8602 8603 0
-8603 8632 0
-672 -8603 8604 0
-8604 8633 0
-673 -8604 8605 0
-8605 8634 0
-674 -8605 8606 0
-8606 8635 0
-675 -8606 8607 0
-8607 8636 0
-676 -8607 8608 0
-8608 8637 0
-677 -8608 8609 0
-8609 8638 0
-678 -8609 8610 0
-8610 8639 0
-679 -8610 8611 0
-8611 8640 0
-680 -8611 8612 0
-8612 8641 0
-681 -8612 8613 0
-8613 8642 0
-682 -8613 8614 0
-8614 8643 0
-683 -8614 8615 0
-8615 8644 0
-684 -8615 8616 0
-8616 8645 0
-685 -8616 8617 0
-8617 8646 0
-686 -8617 8618 0
-8618 8647 0
-687 -8618 0
-659 8619 0
-8619 8648 0
-660 -8619 8620 0
-8620 8649 0
-661 -8620 8621 0
-8621 8650 0
-662 -8621 8622 0
-8622 8651 0
-663 -8622 8623 0
-8623 8652 0
-664 -8623 8624 0
-8624 8653 0
-665 -8624 8625 0
-8625 8654 0
-666 -8625 8626 0
-8626 8655 0
-667 -8626 8627 0
-8627 8656 0
-668 -8627 8628 0
-8628 8657 0
-669 -8628 8629 0
-8629 8658 0
-670 -8629 8630 0
-8630 8659 0
-671 -8630 8631 0
-8631 8660 0
-672 -8631 8632 0
-8632 8661 0
-673 -8632 8633 0
-8633 8662 0
-674 -8633 8634 0
-8634 8663 0
-675 -8634 8635 0
-8635 8664 0
-676 -8635 8636 0
-8636 8665 0
-677 -8636 8637 0
-8637 8666 0
-678 -8637 8638 0
-8638 8667 0
-679 -8638 8639 0
-8639 8668 0
-680 -8639 8640 0
-8640 8669 0
-681 -8640 8641 0
-8641 8670 0
-682 -8641 8642 0
-8642 8671 0
-683 -8642 8643 0
-8643 8672 0
-684 -8643 8644 0
-8644 8673 0
-685 -8644 8645 0
-8645 8674 0
-686 -8645 8646 0
-8646 8675 0
-687 -8646 8647 0
-8647 8676 0
-688 -8647 0
-660 8648 0
-8648 8677 0
-661 -8648 8649 0
-8649 8678 0
-662 -8649 8650 0
-8650 8679 0
-663 -8650 8651 0
-8651 8680 0
-664 -8651 8652 0
-8652 8681 0
-665 -8652 8653 0
-8653 8682 0
-666 -8653 8654 0
-8654 8683 0
-667 -8654 8655 0
-8655 8684 0
-668 -8655 8656 0
-8656 8685 0
-669 -8656 8657 0
-8657 8686 0
-670 -8657 8658 0
-8658 8687 0
-671 -8658 8659 0
-8659 8688 0
-672 -8659 8660 0
-8660 8689 0
-673 -8660 8661 0
-8661 8690 0
-674 -8661 8662 0
-8662 8691 0
-675 -8662 8663 0
-8663 8692 0
-676 -8663 8664 0
-8664 8693 0
-677 -8664 8665 0
-8665 8694 0
-678 -8665 8666 0
-8666 8695 0
-679 -8666 8667 0
-8667 8696 0
-680 -8667 8668 0
-8668 8697 0
-681 -8668 8669 0
-8669 8698 0
-682 -8669 8670 0
-8670 8699 0
-683 -8670 8671 0
-8671 8700 0
-684 -8671 8672 0
-8672 8701 0
-685 -8672 8673 0
-8673 8702 0
-686 -8673 8674 0
-8674 8703 0
-687 -8674 8675 0
-8675 8704 0
-688 -8675 8676 0
-8676 8705 0
-689 -8676 0
-661 8677 0
-8677 8706 0
-662 -8677 8678 0
-8678 8707 0
-663 -8678 8679 0
-8679 8708 0
-664 -8679 8680 0
-8680 8709 0
-665 -8680 8681 0
-8681 8710 0
-666 -8681 8682 0
-8682 8711 0
-667 -8682 8683 0
-8683 8712 0
-668 -8683 8684 0
-8684 8713 0
-669 -8684 8685 0
-8685 8714 0
-670 -8685 8686 0
-8686 8715 0
-671 -8686 8687 0
-8687 8716 0
-672 -8687 8688 0
-8688 8717 0
-673 -8688 8689 0
-8689 8718 0
-674 -8689 8690 0
-8690 8719 0
-675 -8690 8691 0
-8691 8720 0
-676 -8691 8692 0
-8692 8721 0
-677 -8692 8693 0
-8693 8722 0
-678 -8693 8694 0
-8694 8723 0
-679 -8694 8695 0
-8695 8724 0
-680 -8695 8696 0
-8696 8725 0
-681 -8696 8697 0
-8697 8726 0
-682 -8697 8698 0
-8698 8727 0
-683 -8698 8699 0
-8699 8728 0
-684 -8699 8700 0
-8700 8729 0
-685 -8700 8701 0
-8701 8730 0
-686 -8701 8702 0
-8702 8731 0
-687 -8702 8703 0
-8703 8732 0
-688 -8703 8704 0
-8704 8733 0
-689 -8704 8705 0
-8705 8734 0
-690 -8705 0
-662 8706 0
-8706 8735 0
-663 -8706 8707 0
-8707 8736 0
-664 -8707 8708 0
-8708 8737 0
-665 -8708 8709 0
-8709 8738 0
-666 -8709 8710 0
-8710 8739 0
-667 -8710 8711 0
-8711 8740 0
-668 -8711 8712 0
-8712 8741 0
-669 -8712 8713 0
-8713 8742 0
-670 -8713 8714 0
-8714 8743 0
-671 -8714 8715 0
-8715 8744 0
-672 -8715 8716 0
-8716 8745 0
-673 -8716 8717 0
-8717 8746 0
-674 -8717 8718 0
-8718 8747 0
-675 -8718 8719 0
-8719 8748 0
-676 -8719 8720 0
-8720 8749 0
-677 -8720 8721 0
-8721 8750 0
-678 -8721 8722 0
-8722 8751 0
-679 -8722 8723 0
-8723 8752 0
-680 -8723 8724 0
-8724 8753 0
-681 -8724 8725 0
-8725 8754 0
-682 -8725 8726 0
-8726 8755 0
-683 -8726 8727 0
-8727 8756 0
-684 -8727 8728 0
-8728 8757 0
-685 -8728 8729 0
-8729 8758 0
-686 -8729 8730 0
-8730 8759 0
-687 -8730 8731 0
-8731 8760 0
-688 -8731 8732 0
-8732 8761 0
-689 -8732 8733 0
-8733 8762 0
-690 -8733 8734 0
-8734 8763 0
-691 -8734 0
-663 8735 0
-8735 8764 0
-664 -8735 8736 0
-8736 8765 0
-665 -8736 8737 0
-8737 8766 0
-666 -8737 8738 0
-8738 8767 0
-667 -8738 8739 0
-8739 8768 0
-668 -8739 8740 0
-8740 8769 0
-669 -8740 8741 0
-8741 8770 0
-670 -8741 8742 0
-8742 8771 0
-671 -8742 8743 0
-8743 8772 0
-672 -8743 8744 0
-8744 8773 0
-673 -8744 8745 0
-8745 8774 0
-674 -8745 8746 0
-8746 8775 0
-675 -8746 8747 0
-8747 8776 0
-676 -8747 8748 0
-8748 8777 0
-677 -8748 8749 0
-8749 8778 0
-678 -8749 8750 0
-8750 8779 0
-679 -8750 8751 0
-8751 8780 0
-680 -8751 8752 0
-8752 8781 0
-681 -8752 8753 0
-8753 8782 0
-682 -8753 8754 0
-8754 8783 0
-683 -8754 8755 0
-8755 8784 0
-684 -8755 8756 0
-8756 8785 0
-685 -8756 8757 0
-8757 8786 0
-686 -8757 8758 0
-8758 8787 0
-687 -8758 8759 0
-8759 8788 0
-688 -8759 8760 0
-8760 8789 0
-689 -8760 8761 0
-8761 8790 0
-690 -8761 8762 0
-8762 8791 0
-691 -8762 8763 0
-8763 8792 0
-692 -8763 0
-664 8764 0
-8764 8793 0
-665 -8764 8765 0
-8765 8794 0
-666 -8765 8766 0
-8766 8795 0
-667 -8766 8767 0
-8767 8796 0
-668 -8767 8768 0
-8768 8797 0
-669 -8768 8769 0
-8769 8798 0
-670 -8769 8770 0
-8770 8799 0
-671 -8770 8771 0
-8771 8800 0
-672 -8771 8772 0
-8772 8801 0
-673 -8772 8773 0
-8773 8802 0
-674 -8773 8774 0
-8774 8803 0
-675 -8774 8775 0
-8775 8804 0
-676 -8775 8776 0
-8776 8805 0
-677 -8776 8777 0
-8777 8806 0
-678 -8777 8778 0
-8778 8807 0
-679 -8778 8779 0
-8779 8808 0
-680 -8779 8780 0
-8780 8809 0
-681 -8780 8781 0
-8781 8810 0
-682 -8781 8782 0
-8782 8811 0
-683 -8782 8783 0
-8783 8812 0
-684 -8783 8784 0
-8784 8813 0
-685 -8784 8785 0
-8785 8814 0
-686 -8785 8786 0
-8786 8815 0
-687 -8786 8787 0
-8787 8816 0
-688 -8787 8788 0
-8788 8817 0
-689 -8788 8789 0
-8789 8818 0
-690 -8789 8790 0
-8790 8819 0
-691 -8790 8791 0
-8791 8820 0
-692 -8791 8792 0
-8792 8821 0
-693 -8792 0
-665 8793 0
-8793 8822 0
-666 -8793 8794 0
-8794 8823 0
-667 -8794 8795 0
-8795 8824 0
-668 -8795 8796 0
-8796 8825 0
-669 -8796 8797 0
-8797 8826 0
-670 -8797 8798 0
-8798 8827 0
-671 -8798 8799 0
-8799 8828 0
-672 -8799 8800 0
-8800 8829 0
-673 -8800 8801 0
-8801 8830 0
-674 -8801 8802 0
-8802 8831 0
-675 -8802 8803 0
-8803 8832 0
-676 -8803 8804 0
-8804 8833 0
-677 -8804 8805 0
-8805 8834 0
-678 -8805 8806 0
-8806 8835 0
-679 -8806 8807 0
-8807 8836 0
-680 -8807 8808 0
-8808 8837 0
-681 -8808 8809 0
-8809 8838 0
-682 -8809 8810 0
-8810 8839 0
-683 -8810 8811 0
-8811 8840 0
-684 -8811 8812 0
-8812 8841 0
-685 -8812 8813 0
-8813 8842 0
-686 -8813 8814 0
-8814 8843 0
-687 -8814 8815 0
-8815 8844 0
-688 -8815 8816 0
-8816 8845 0
-689 -8816 8817 0
-8817 8846 0
-690 -8817 8818 0
-8818 8847 0
-691 -8818 8819 0
-8819 8848 0
-692 -8819 8820 0
-8820 8849 0
-693 -8820 8821 0
-8821 8850 0
-694 -8821 0
-666 8822 0
-8822 8851 0
-667 -8822 8823 0
-8823 8852 0
-668 -8823 8824 0
-8824 8853 0
-669 -8824 8825 0
-8825 8854 0
-670 -8825 8826 0
-8826 8855 0
-671 -8826 8827 0
-8827 8856 0
-672 -8827 8828 0
-8828 8857 0
-673 -8828 8829 0
-8829 8858 0
-674 -8829 8830 0
-8830 8859 0
-675 -8830 8831 0
-8831 8860 0
-676 -8831 8832 0
-8832 8861 0
-677 -8832 8833 0
-8833 8862 0
-678 -8833 8834 0
-8834 8863 0
-679 -8834 8835 0
-8835 8864 0
-680 -8835 8836 0
-8836 8865 0
-681 -8836 8837 0
-8837 8866 0
-682 -8837 8838 0
-8838 8867 0
-683 -8838 8839 0
-8839 8868 0
-684 -8839 8840 0
-8840 8869 0
-685 -8840 8841 0
-8841 8870 0
-686 -8841 8842 0
-8842 8871 0
-687 -8842 8843 0
-8843 8872 0
-688 -8843 8844 0
-8844 8873 0
-689 -8844 8845 0
-8845 8874 0
-690 -8845 8846 0
-8846 8875 0
-691 -8846 8847 0
-8847 8876 0
-692 -8847 8848 0
-8848 8877 0
-693 -8848 8849 0
-8849 8878 0
-694 -8849 8850 0
-8850 8879 0
-695 -8850 0
-667 8851 0
-8851 8880 0
-668 -8851 8852 0
-8852 8881 0
-669 -8852 8853 0
-8853 8882 0
-670 -8853 8854 0
-8854 8883 0
-671 -8854 8855 0
-8855 8884 0
-672 -8855 8856 0
-8856 8885 0
-673 -8856 8857 0
-8857 8886 0
-674 -8857 8858 0
-8858 8887 0
-675 -8858 8859 0
-8859 8888 0
-676 -8859 8860 0
-8860 8889 0
-677 -8860 8861 0
-8861 8890 0
-678 -8861 8862 0
-8862 8891 0
-679 -8862 8863 0
-8863 8892 0
-680 -8863 8864 0
-8864 8893 0
-681 -8864 8865 0
-8865 8894 0
-682 -8865 8866 0
-8866 8895 0
-683 -8866 8867 0
-8867 8896 0
-684 -8867 8868 0
-8868 8897 0
-685 -8868 8869 0
-8869 8898 0
-686 -8869 8870 0
-8870 8899 0
-687 -8870 8871 0
-8871 8900 0
-688 -8871 8872 0
-8872 8901 0
-689 -8872 8873 0
-8873 8902 0
-690 -8873 8874 0
-8874 8903 0
-691 -8874 8875 0
-8875 8904 0
-692 -8875 8876 0
-8876 8905 0
-693 -8876 8877 0
-8877 8906 0
-694 -8877 8878 0
-8878 8907 0
-695 -8878 8879 0
-8879 8908 0
-696 -8879 0
-668 8880 0
-8880 8909 0
-669 -8880 8881 0
-8881 8910 0
-670 -8881 8882 0
-8882 8911 0
-671 -8882 8883 0
-8883 8912 0
-672 -8883 8884 0
-8884 8913 0
-673 -8884 8885 0
-8885 8914 0
-674 -8885 8886 0
-8886 8915 0
-675 -8886 8887 0
-8887 8916 0
-676 -8887 8888 0
-8888 8917 0
-677 -8888 8889 0
-8889 8918 0
-678 -8889 8890 0
-8890 8919 0
-679 -8890 8891 0
-8891 8920 0
-680 -8891 8892 0
-8892 8921 0
-681 -8892 8893 0
-8893 8922 0
-682 -8893 8894 0
-8894 8923 0
-683 -8894 8895 0
-8895 8924 0
-684 -8895 8896 0
-8896 8925 0
-685 -8896 8897 0
-8897 8926 0
-686 -8897 8898 0
-8898 8927 0
-687 -8898 8899 0
-8899 8928 0
-688 -8899 8900 0
-8900 8929 0
-689 -8900 8901 0
-8901 8930 0
-690 -8901 8902 0
-8902 8931 0
-691 -8902 8903 0
-8903 8932 0
-692 -8903 8904 0
-8904 8933 0
-693 -8904 8905 0
-8905 8934 0
-694 -8905 8906 0
-8906 8935 0
-695 -8906 8907 0
-8907 8936 0
-696 -8907 8908 0
-8908 8937 0
-697 -8908 0
-669 8909 0
-8909 8938 0
-670 -8909 8910 0
-8910 8939 0
-671 -8910 8911 0
-8911 8940 0
-672 -8911 8912 0
-8912 8941 0
-673 -8912 8913 0
-8913 8942 0
-674 -8913 8914 0
-8914 8943 0
-675 -8914 8915 0
-8915 8944 0
-676 -8915 8916 0
-8916 8945 0
-677 -8916 8917 0
-8917 8946 0
-678 -8917 8918 0
-8918 8947 0
-679 -8918 8919 0
-8919 8948 0
-680 -8919 8920 0
-8920 8949 0
-681 -8920 8921 0
-8921 8950 0
-682 -8921 8922 0
-8922 8951 0
-683 -8922 8923 0
-8923 8952 0
-684 -8923 8924 0
-8924 8953 0
-685 -8924 8925 0
-8925 8954 0
-686 -8925 8926 0
-8926 8955 0
-687 -8926 8927 0
-8927 8956 0
-688 -8927 8928 0
-8928 8957 0
-689 -8928 8929 0
-8929 8958 0
-690 -8929 8930 0
-8930 8959 0
-691 -8930 8931 0
-8931 8960 0
-692 -8931 8932 0
-8932 8961 0
-693 -8932 8933 0
-8933 8962 0
-694 -8933 8934 0
-8934 8963 0
-695 -8934 8935 0
-8935 8964 0
-696 -8935 8936 0
-8936 8965 0
-697 -8936 8937 0
-8937 8966 0
-698 -8937 0
-670 8938 0
-8938 8967 0
-671 -8938 8939 0
-8939 8968 0
-672 -8939 8940 0
-8940 8969 0
-673 -8940 8941 0
-8941 8970 0
-674 -8941 8942 0
-8942 8971 0
-675 -8942 8943 0
-8943 8972 0
-676 -8943 8944 0
-8944 8973 0
-677 -8944 8945 0
-8945 8974 0
-678 -8945 8946 0
-8946 8975 0
-679 -8946 8947 0
-8947 8976 0
-680 -8947 8948 0
-8948 8977 0
-681 -8948 8949 0
-8949 8978 0
-682 -8949 8950 0
-8950 8979 0
-683 -8950 8951 0
-8951 8980 0
-684 -8951 8952 0
-8952 8981 0
-685 -8952 8953 0
-8953 8982 0
-686 -8953 8954 0
-8954 8983 0
-687 -8954 8955 0
-8955 8984 0
-688 -8955 8956 0
-8956 8985 0
-689 -8956 8957 0
-8957 8986 0
-690 -8957 8958 0
-8958 8987 0
-691 -8958 8959 0
-8959 8988 0
-692 -8959 8960 0
-8960 8989 0
-693 -8960 8961 0
-8961 8990 0
-694 -8961 8962 0
-8962 8991 0
-695 -8962 8963 0
-8963 8992 0
-696 -8963 8964 0
-8964 8993 0
-697 -8964 8965 0
-8965 8994 0
-698 -8965 8966 0
-8966 8995 0
-699 -8966 0
-671 8967 0
-8967 8996 0
-672 -8967 8968 0
-8968 8997 0
-673 -8968 8969 0
-8969 8998 0
-674 -8969 8970 0
-8970 8999 0
-675 -8970 8971 0
-8971 9000 0
-676 -8971 8972 0
-8972 9001 0
-677 -8972 8973 0
-8973 9002 0
-678 -8973 8974 0
-8974 9003 0
-679 -8974 8975 0
-8975 9004 0
-680 -8975 8976 0
-8976 9005 0
-681 -8976 8977 0
-8977 9006 0
-682 -8977 8978 0
-8978 9007 0
-683 -8978 8979 0
-8979 9008 0
-684 -8979 8980 0
-8980 9009 0
-685 -8980 8981 0
-8981 9010 0
-686 -8981 8982 0
-8982 9011 0
-687 -8982 8983 0
-8983 9012 0
-688 -8983 8984 0
-8984 9013 0
-689 -8984 8985 0
-8985 9014 0
-690 -8985 8986 0
-8986 9015 0
-691 -8986 8987 0
-8987 9016 0
-692 -8987 8988 0
-8988 9017 0
-693 -8988 8989 0
-8989 9018 0
-694 -8989 8990 0
-8990 9019 0
-695 -8990 8991 0
-8991 9020 0
-696 -8991 8992 0
-8992 9021 0
-697 -8992 8993 0
-8993 9022 0
-698 -8993 8994 0
-8994 9023 0
-699 -8994 8995 0
-8995 9024 0
-700 -8995 0
-672 8996 0
-8996 9025 0
-673 -8996 8997 0
-8997 9026 0
-674 -8997 8998 0
-8998 9027 0
-675 -8998 8999 0
-8999 9028 0
-676 -8999 9000 0
-9000 9029 0
-677 -9000 9001 0
-9001 9030 0
-678 -9001 9002 0
-9002 9031 0
-679 -9002 9003 0
-9003 9032 0
-680 -9003 9004 0
-9004 9033 0
-681 -9004 9005 0
-9005 9034 0
-682 -9005 9006 0
-9006 9035 0
-683 -9006 9007 0
-9007 9036 0
-684 -9007 9008 0
-9008 9037 0
-685 -9008 9009 0
-9009 9038 0
-686 -9009 9010 0
-9010 9039 0
-687 -9010 9011 0
-9011 9040 0
-688 -9011 9012 0
-9012 9041 0
-689 -9012 9013 0
-9013 9042 0
-690 -9013 9014 0
-9014 9043 0
-691 -9014 9015 0
-9015 9044 0
-692 -9015 9016 0
-9016 9045 0
-693 -9016 9017 0
-9017 9046 0
-694 -9017 9018 0
-9018 9047 0
-695 -9018 9019 0
-9019 9048 0
-696 -9019 9020 0
-9020 9049 0
-697 -9020 9021 0
-9021 9050 0
-698 -9021 9022 0
-9022 9051 0
-699 -9022 9023 0
-9023 9052 0
-700 -9023 9024 0
-9024 9053 0
-701 -9024 0
-673 9025 0
-9025 9054 0
-674 -9025 9026 0
-9026 9055 0
-675 -9026 9027 0
-9027 9056 0
-676 -9027 9028 0
-9028 9057 0
-677 -9028 9029 0
-9029 9058 0
-678 -9029 9030 0
-9030 9059 0
-679 -9030 9031 0
-9031 9060 0
-680 -9031 9032 0
-9032 9061 0
-681 -9032 9033 0
-9033 9062 0
-682 -9033 9034 0
-9034 9063 0
-683 -9034 9035 0
-9035 9064 0
-684 -9035 9036 0
-9036 9065 0
-685 -9036 9037 0
-9037 9066 0
-686 -9037 9038 0
-9038 9067 0
-687 -9038 9039 0
-9039 9068 0
-688 -9039 9040 0
-9040 9069 0
-689 -9040 9041 0
-9041 9070 0
-690 -9041 9042 0
-9042 9071 0
-691 -9042 9043 0
-9043 9072 0
-692 -9043 9044 0
-9044 9073 0
-693 -9044 9045 0
-9045 9074 0
-694 -9045 9046 0
-9046 9075 0
-695 -9046 9047 0
-9047 9076 0
-696 -9047 9048 0
-9048 9077 0
-697 -9048 9049 0
-9049 9078 0
-698 -9049 9050 0
-9050 9079 0
-699 -9050 9051 0
-9051 9080 0
-700 -9051 9052 0
-9052 9081 0
-701 -9052 9053 0
-9053 9082 0
-702 -9053 0
-674 9054 0
-9054 9083 0
-675 -9054 9055 0
-9055 9084 0
-676 -9055 9056 0
-9056 9085 0
-677 -9056 9057 0
-9057 9086 0
-678 -9057 9058 0
-9058 9087 0
-679 -9058 9059 0
-9059 9088 0
-680 -9059 9060 0
-9060 9089 0
-681 -9060 9061 0
-9061 9090 0
-682 -9061 9062 0
-9062 9091 0
-683 -9062 9063 0
-9063 9092 0
-684 -9063 9064 0
-9064 9093 0
-685 -9064 9065 0
-9065 9094 0
-686 -9065 9066 0
-9066 9095 0
-687 -9066 9067 0
-9067 9096 0
-688 -9067 9068 0
-9068 9097 0
-689 -9068 9069 0
-9069 9098 0
-690 -9069 9070 0
-9070 9099 0
-691 -9070 9071 0
-9071 9100 0
-692 -9071 9072 0
-9072 9101 0
-693 -9072 9073 0
-9073 9102 0
-694 -9073 9074 0
-9074 9103 0
-695 -9074 9075 0
-9075 9104 0
-696 -9075 9076 0
-9076 9105 0
-697 -9076 9077 0
-9077 9106 0
-698 -9077 9078 0
-9078 9107 0
-699 -9078 9079 0
-9079 9108 0
-700 -9079 9080 0
-9080 9109 0
-701 -9080 9081 0
-9081 9110 0
-702 -9081 9082 0
-9082 9111 0
-703 -9082 0
-675 9083 0
-9083 9112 0
-676 -9083 9084 0
-9084 9113 0
-677 -9084 9085 0
-9085 9114 0
-678 -9085 9086 0
-9086 9115 0
-679 -9086 9087 0
-9087 9116 0
-680 -9087 9088 0
-9088 9117 0
-681 -9088 9089 0
-9089 9118 0
-682 -9089 9090 0
-9090 9119 0
-683 -9090 9091 0
-9091 9120 0
-684 -9091 9092 0
-9092 9121 0
-685 -9092 9093 0
-9093 9122 0
-686 -9093 9094 0
-9094 9123 0
-687 -9094 9095 0
-9095 9124 0
-688 -9095 9096 0
-9096 9125 0
-689 -9096 9097 0
-9097 9126 0
-690 -9097 9098 0
-9098 9127 0
-691 -9098 9099 0
-9099 9128 0
-692 -9099 9100 0
-9100 9129 0
-693 -9100 9101 0
-9101 9130 0
-694 -9101 9102 0
-9102 9131 0
-695 -9102 9103 0
-9103 9132 0
-696 -9103 9104 0
-9104 9133 0
-697 -9104 9105 0
-9105 9134 0
-698 -9105 9106 0
-9106 9135 0
-699 -9106 9107 0
-9107 9136 0
-700 -9107 9108 0
-9108 9137 0
-701 -9108 9109 0
-9109 9138 0
-702 -9109 9110 0
-9110 9139 0
-703 -9110 9111 0
-9111 9140 0
-704 -9111 0
-676 9112 0
-9112 9141 0
-677 -9112 9113 0
-9113 9142 0
-678 -9113 9114 0
-9114 9143 0
-679 -9114 9115 0
-9115 9144 0
-680 -9115 9116 0
-9116 9145 0
-681 -9116 9117 0
-9117 9146 0
-682 -9117 9118 0
-9118 9147 0
-683 -9118 9119 0
-9119 9148 0
-684 -9119 9120 0
-9120 9149 0
-685 -9120 9121 0
-9121 9150 0
-686 -9121 9122 0
-9122 9151 0
-687 -9122 9123 0
-9123 9152 0
-688 -9123 9124 0
-9124 9153 0
-689 -9124 9125 0
-9125 9154 0
-690 -9125 9126 0
-9126 9155 0
-691 -9126 9127 0
-9127 9156 0
-692 -9127 9128 0
-9128 9157 0
-693 -9128 9129 0
-9129 9158 0
-694 -9129 9130 0
-9130 9159 0
-695 -9130 9131 0
-9131 9160 0
-696 -9131 9132 0
-9132 9161 0
-697 -9132 9133 0
-9133 9162 0
-698 -9133 9134 0
-9134 9163 0
-699 -9134 9135 0
-9135 9164 0
-700 -9135 9136 0
-9136 9165 0
-701 -9136 9137 0
-9137 9166 0
-702 -9137 9138 0
-9138 9167 0
-703 -9138 9139 0
-9139 9168 0
-704 -9139 9140 0
-9140 9169 0
-705 -9140 0
-677 9141 0
-9141 9170 0
-678 -9141 9142 0
-9142 9171 0
-679 -9142 9143 0
-9143 9172 0
-680 -9143 9144 0
-9144 9173 0
-681 -9144 9145 0
-9145 9174 0
-682 -9145 9146 0
-9146 9175 0
-683 -9146 9147 0
-9147 9176 0
-684 -9147 9148 0
-9148 9177 0
-685 -9148 9149 0
-9149 9178 0
-686 -9149 9150 0
-9150 9179 0
-687 -9150 9151 0
-9151 9180 0
-688 -9151 9152 0
-9152 9181 0
-689 -9152 9153 0
-9153 9182 0
-690 -9153 9154 0
-9154 9183 0
-691 -9154 9155 0
-9155 9184 0
-692 -9155 9156 0
-9156 9185 0
-693 -9156 9157 0
-9157 9186 0
-694 -9157 9158 0
-9158 9187 0
-695 -9158 9159 0
-9159 9188 0
-696 -9159 9160 0
-9160 9189 0
-697 -9160 9161 0
-9161 9190 0
-698 -9161 9162 0
-9162 9191 0
-699 -9162 9163 0
-9163 9192 0
-700 -9163 9164 0
-9164 9193 0
-701 -9164 9165 0
-9165 9194 0
-702 -9165 9166 0
-9166 9195 0
-703 -9166 9167 0
-9167 9196 0
-704 -9167 9168 0
-9168 9197 0
-705 -9168 9169 0
-9169 9198 0
-706 -9169 0
-678 9170 0
-9170 9199 0
-679 -9170 9171 0
-9171 9200 0
-680 -9171 9172 0
-9172 9201 0
-681 -9172 9173 0
-9173 9202 0
-682 -9173 9174 0
-9174 9203 0
-683 -9174 9175 0
-9175 9204 0
-684 -9175 9176 0
-9176 9205 0
-685 -9176 9177 0
-9177 9206 0
-686 -9177 9178 0
-9178 9207 0
-687 -9178 9179 0
-9179 9208 0
-688 -9179 9180 0
-9180 9209 0
-689 -9180 9181 0
-9181 9210 0
-690 -9181 9182 0
-9182 9211 0
-691 -9182 9183 0
-9183 9212 0
-692 -9183 9184 0
-9184 9213 0
-693 -9184 9185 0
-9185 9214 0
-694 -9185 9186 0
-9186 9215 0
-695 -9186 9187 0
-9187 9216 0
-696 -9187 9188 0
-9188 9217 0
-697 -9188 9189 0
-9189 9218 0
-698 -9189 9190 0
-9190 9219 0
-699 -9190 9191 0
-9191 9220 0
-700 -9191 9192 0
-9192 9221 0
-701 -9192 9193 0
-9193 9222 0
-702 -9193 9194 0
-9194 9223 0
-703 -9194 9195 0
-9195 9224 0
-704 -9195 9196 0
-9196 9225 0
-705 -9196 9197 0
-9197 9226 0
-706 -9197 9198 0
-9198 9227 0
-707 -9198 0
-679 9199 0
-9199 9228 0
-680 -9199 9200 0
-9200 9229 0
-681 -9200 9201 0
-9201 9230 0
-682 -9201 9202 0
-9202 9231 0
-683 -9202 9203 0
-9203 9232 0
-684 -9203 9204 0
-9204 9233 0
-685 -9204 9205 0
-9205 9234 0
-686 -9205 9206 0
-9206 9235 0
-687 -9206 9207 0
-9207 9236 0
-688 -9207 9208 0
-9208 9237 0
-689 -9208 9209 0
-9209 9238 0
-690 -9209 9210 0
-9210 9239 0
-691 -9210 9211 0
-9211 9240 0
-692 -9211 9212 0
-9212 9241 0
-693 -9212 9213 0
-9213 9242 0
-694 -9213 9214 0
-9214 9243 0
-695 -9214 9215 0
-9215 9244 0
-696 -9215 9216 0
-9216 9245 0
-697 -9216 9217 0
-9217 9246 0
-698 -9217 9218 0
-9218 9247 0
-699 -9218 9219 0
-9219 9248 0
-700 -9219 9220 0
-9220 9249 0
-701 -9220 9221 0
-9221 9250 0
-702 -9221 9222 0
-9222 9251 0
-703 -9222 9223 0
-9223 9252 0
-704 -9223 9224 0
-9224 9253 0
-705 -9224 9225 0
-9225 9254 0
-706 -9225 9226 0
-9226 9255 0
-707 -9226 9227 0
-9227 9256 0
-708 -9227 0
-680 9228 0
-9228 9257 0
-681 -9228 9229 0
-9229 9258 0
-682 -9229 9230 0
-9230 9259 0
-683 -9230 9231 0
-9231 9260 0
-684 -9231 9232 0
-9232 9261 0
-685 -9232 9233 0
-9233 9262 0
-686 -9233 9234 0
-9234 9263 0
-687 -9234 9235 0
-9235 9264 0
-688 -9235 9236 0
-9236 9265 0
-689 -9236 9237 0
-9237 9266 0
-690 -9237 9238 0
-9238 9267 0
-691 -9238 9239 0
-9239 9268 0
-692 -9239 9240 0
-9240 9269 0
-693 -9240 9241 0
-9241 9270 0
-694 -9241 9242 0
-9242 9271 0
-695 -9242 9243 0
-9243 9272 0
-696 -9243 9244 0
-9244 9273 0
-697 -9244 9245 0
-9245 9274 0
-698 -9245 9246 0
-9246 9275 0
-699 -9246 9247 0
-9247 9276 0
-700 -9247 9248 0
-9248 9277 0
-701 -9248 9249 0
-9249 9278 0
-702 -9249 9250 0
-9250 9279 0
-703 -9250 9251 0
-9251 9280 0
-704 -9251 9252 0
-9252 9281 0
-705 -9252 9253 0
-9253 9282 0
-706 -9253 9254 0
-9254 9283 0
-707 -9254 9255 0
-9255 9284 0
-708 -9255 9256 0
-9256 9285 0
-709 -9256 0
-681 9257 0
-9257 9286 0
-682 -9257 9258 0
-9258 9287 0
-683 -9258 9259 0
-9259 9288 0
-684 -9259 9260 0
-9260 9289 0
-685 -9260 9261 0
-9261 9290 0
-686 -9261 9262 0
-9262 9291 0
-687 -9262 9263 0
-9263 9292 0
-688 -9263 9264 0
-9264 9293 0
-689 -9264 9265 0
-9265 9294 0
-690 -9265 9266 0
-9266 9295 0
-691 -9266 9267 0
-9267 9296 0
-692 -9267 9268 0
-9268 9297 0
-693 -9268 9269 0
-9269 9298 0
-694 -9269 9270 0
-9270 9299 0
-695 -9270 9271 0
-9271 9300 0
-696 -9271 9272 0
-9272 9301 0
-697 -9272 9273 0
-9273 9302 0
-698 -9273 9274 0
-9274 9303 0
-699 -9274 9275 0
-9275 9304 0
-700 -9275 9276 0
-9276 9305 0
-701 -9276 9277 0
-9277 9306 0
-702 -9277 9278 0
-9278 9307 0
-703 -9278 9279 0
-9279 9308 0
-704 -9279 9280 0
-9280 9309 0
-705 -9280 9281 0
-9281 9310 0
-706 -9281 9282 0
-9282 9311 0
-707 -9282 9283 0
-9283 9312 0
-708 -9283 9284 0
-9284 9313 0
-709 -9284 9285 0
-9285 9314 0
-710 -9285 0
-682 9286 0
-9286 9315 0
-683 -9286 9287 0
-9287 9316 0
-684 -9287 9288 0
-9288 9317 0
-685 -9288 9289 0
-9289 9318 0
-686 -9289 9290 0
-9290 9319 0
-687 -9290 9291 0
-9291 9320 0
-688 -9291 9292 0
-9292 9321 0
-689 -9292 9293 0
-9293 9322 0
-690 -9293 9294 0
-9294 9323 0
-691 -9294 9295 0
-9295 9324 0
-692 -9295 9296 0
-9296 9325 0
-693 -9296 9297 0
-9297 9326 0
-694 -9297 9298 0
-9298 9327 0
-695 -9298 9299 0
-9299 9328 0
-696 -9299 9300 0
-9300 9329 0
-697 -9300 9301 0
-9301 9330 0
-698 -9301 9302 0
-9302 9331 0
-699 -9302 9303 0
-9303 9332 0
-700 -9303 9304 0
-9304 9333 0
-701 -9304 9305 0
-9305 9334 0
-702 -9305 9306 0
-9306 9335 0
-703 -9306 9307 0
-9307 9336 0
-704 -9307 9308 0
-9308 9337 0
-705 -9308 9309 0
-9309 9338 0
-706 -9309 9310 0
-9310 9339 0
-707 -9310 9311 0
-9311 9340 0
-708 -9311 9312 0
-9312 9341 0
-709 -9312 9313 0
-9313 9342 0
-710 -9313 9314 0
-9314 9343 0
-711 -9314 0
-683 9315 0
-9315 9344 0
-684 -9315 9316 0
-9316 9345 0
-685 -9316 9317 0
-9317 9346 0
-686 -9317 9318 0
-9318 9347 0
-687 -9318 9319 0
-9319 9348 0
-688 -9319 9320 0
-9320 9349 0
-689 -9320 9321 0
-9321 9350 0
-690 -9321 9322 0
-9322 9351 0
-691 -9322 9323 0
-9323 9352 0
-692 -9323 9324 0
-9324 9353 0
-693 -9324 9325 0
-9325 9354 0
-694 -9325 9326 0
-9326 9355 0
-695 -9326 9327 0
-9327 9356 0
-696 -9327 9328 0
-9328 9357 0
-697 -9328 9329 0
-9329 9358 0
-698 -9329 9330 0
-9330 9359 0
-699 -9330 9331 0
-9331 9360 0
-700 -9331 9332 0
-9332 9361 0
-701 -9332 9333 0
-9333 9362 0
-702 -9333 9334 0
-9334 9363 0
-703 -9334 9335 0
-9335 9364 0
-704 -9335 9336 0
-9336 9365 0
-705 -9336 9337 0
-9337 9366 0
-706 -9337 9338 0
-9338 9367 0
-707 -9338 9339 0
-9339 9368 0
-708 -9339 9340 0
-9340 9369 0
-709 -9340 9341 0
-9341 9370 0
-710 -9341 9342 0
-9342 9371 0
-711 -9342 9343 0
-9343 9372 0
-712 -9343 0
-684 9344 0
-9344 9373 0
-685 -9344 9345 0
-9345 9374 0
-686 -9345 9346 0
-9346 9375 0
-687 -9346 9347 0
-9347 9376 0
-688 -9347 9348 0
-9348 9377 0
-689 -9348 9349 0
-9349 9378 0
-690 -9349 9350 0
-9350 9379 0
-691 -9350 9351 0
-9351 9380 0
-692 -9351 9352 0
-9352 9381 0
-693 -9352 9353 0
-9353 9382 0
-694 -9353 9354 0
-9354 9383 0
-695 -9354 9355 0
-9355 9384 0
-696 -9355 9356 0
-9356 9385 0
-697 -9356 9357 0
-9357 9386 0
-698 -9357 9358 0
-9358 9387 0
-699 -9358 9359 0
-9359 9388 0
-700 -9359 9360 0
-9360 9389 0
-701 -9360 9361 0
-9361 9390 0
-702 -9361 9362 0
-9362 9391 0
-703 -9362 9363 0
-9363 9392 0
-704 -9363 9364 0
-9364 9393 0
-705 -9364 9365 0
-9365 9394 0
-706 -9365 9366 0
-9366 9395 0
-707 -9366 9367 0
-9367 9396 0
-708 -9367 9368 0
-9368 9397 0
-709 -9368 9369 0
-9369 9398 0
-710 -9369 9370 0
-9370 9399 0
-711 -9370 9371 0
-9371 9400 0
-712 -9371 9372 0
-9372 9401 0
-713 -9372 0
-685 9373 0
-9373 9402 0
-686 -9373 9374 0
-9374 9403 0
-687 -9374 9375 0
-9375 9404 0
-688 -9375 9376 0
-9376 9405 0
-689 -9376 9377 0
-9377 9406 0
-690 -9377 9378 0
-9378 9407 0
-691 -9378 9379 0
-9379 9408 0
-692 -9379 9380 0
-9380 9409 0
-693 -9380 9381 0
-9381 9410 0
-694 -9381 9382 0
-9382 9411 0
-695 -9382 9383 0
-9383 9412 0
-696 -9383 9384 0
-9384 9413 0
-697 -9384 9385 0
-9385 9414 0
-698 -9385 9386 0
-9386 9415 0
-699 -9386 9387 0
-9387 9416 0
-700 -9387 9388 0
-9388 9417 0
-701 -9388 9389 0
-9389 9418 0
-702 -9389 9390 0
-9390 9419 0
-703 -9390 9391 0
-9391 9420 0
-704 -9391 9392 0
-9392 9421 0
-705 -9392 9393 0
-9393 9422 0
-706 -9393 9394 0
-9394 9423 0
-707 -9394 9395 0
-9395 9424 0
-708 -9395 9396 0
-9396 9425 0
-709 -9396 9397 0
-9397 9426 0
-710 -9397 9398 0
-9398 9427 0
-711 -9398 9399 0
-9399 9428 0
-712 -9399 9400 0
-9400 9429 0
-713 -9400 9401 0
-9401 9430 0
-714 -9401 0
-686 9402 0
-9402 9431 0
-687 -9402 9403 0
-9403 9432 0
-688 -9403 9404 0
-9404 9433 0
-689 -9404 9405 0
-9405 9434 0
-690 -9405 9406 0
-9406 9435 0
-691 -9406 9407 0
-9407 9436 0
-692 -9407 9408 0
-9408 9437 0
-693 -9408 9409 0
-9409 9438 0
-694 -9409 9410 0
-9410 9439 0
-695 -9410 9411 0
-9411 9440 0
-696 -9411 9412 0
-9412 9441 0
-697 -9412 9413 0
-9413 9442 0
-698 -9413 9414 0
-9414 9443 0
-699 -9414 9415 0
-9415 9444 0
-700 -9415 9416 0
-9416 9445 0
-701 -9416 9417 0
-9417 9446 0
-702 -9417 9418 0
-9418 9447 0
-703 -9418 9419 0
-9419 9448 0
-704 -9419 9420 0
-9420 9449 0
-705 -9420 9421 0
-9421 9450 0
-706 -9421 9422 0
-9422 9451 0
-707 -9422 9423 0
-9423 9452 0
-708 -9423 9424 0
-9424 9453 0
-709 -9424 9425 0
-9425 9454 0
-710 -9425 9426 0
-9426 9455 0
-711 -9426 9427 0
-9427 9456 0
-712 -9427 9428 0
-9428 9457 0
-713 -9428 9429 0
-9429 9458 0
-714 -9429 9430 0
-9430 9459 0
-715 -9430 0
-687 9431 0
-9431 9460 0
-688 -9431 9432 0
-9432 9461 0
-689 -9432 9433 0
-9433 9462 0
-690 -9433 9434 0
-9434 9463 0
-691 -9434 9435 0
-9435 9464 0
-692 -9435 9436 0
-9436 9465 0
-693 -9436 9437 0
-9437 9466 0
-694 -9437 9438 0
-9438 9467 0
-695 -9438 9439 0
-9439 9468 0
-696 -9439 9440 0
-9440 9469 0
-697 -9440 9441 0
-9441 9470 0
-698 -9441 9442 0
-9442 9471 0
-699 -9442 9443 0
-9443 9472 0
-700 -9443 9444 0
-9444 9473 0
-701 -9444 9445 0
-9445 9474 0
-702 -9445 9446 0
-9446 9475 0
-703 -9446 9447 0
-9447 9476 0
-704 -9447 9448 0
-9448 9477 0
-705 -9448 9449 0
-9449 9478 0
-706 -9449 9450 0
-9450 9479 0
-707 -9450 9451 0
-9451 9480 0
-708 -9451 9452 0
-9452 9481 0
-709 -9452 9453 0
-9453 9482 0
-710 -9453 9454 0
-9454 9483 0
-711 -9454 9455 0
-9455 9484 0
-712 -9455 9456 0
-9456 9485 0
-713 -9456 9457 0
-9457 9486 0
-714 -9457 9458 0
-9458 9487 0
-715 -9458 9459 0
-9459 9488 0
-716 -9459 0
-688 9460 0
-9460 9489 0
-689 -9460 9461 0
-9461 9490 0
-690 -9461 9462 0
-9462 9491 0
-691 -9462 9463 0
-9463 9492 0
-692 -9463 9464 0
-9464 9493 0
-693 -9464 9465 0
-9465 9494 0
-694 -9465 9466 0
-9466 9495 0
-695 -9466 9467 0
-9467 9496 0
-696 -9467 9468 0
-9468 9497 0
-697 -9468 9469 0
-9469 9498 0
-698 -9469 9470 0
-9470 9499 0
-699 -9470 9471 0
-9471 9500 0
-700 -9471 9472 0
-9472 9501 0
-701 -9472 9473 0
-9473 9502 0
-702 -9473 9474 0
-9474 9503 0
-703 -9474 9475 0
-9475 9504 0
-704 -9475 9476 0
-9476 9505 0
-705 -9476 9477 0
-9477 9506 0
-706 -9477 9478 0
-9478 9507 0
-707 -9478 9479 0
-9479 9508 0
-708 -9479 9480 0
-9480 9509 0
-709 -9480 9481 0
-9481 9510 0
-710 -9481 9482 0
-9482 9511 0
-711 -9482 9483 0
-9483 9512 0
-712 -9483 9484 0
-9484 9513 0
-713 -9484 9485 0
-9485 9514 0
-714 -9485 9486 0
-9486 9515 0
-715 -9486 9487 0
-9487 9516 0
-716 -9487 9488 0
-9488 9517 0
-717 -9488 0
-689 9489 0
-9489 9518 0
-690 -9489 9490 0
-9490 9519 0
-691 -9490 9491 0
-9491 9520 0
-692 -9491 9492 0
-9492 9521 0
-693 -9492 9493 0
-9493 9522 0
-694 -9493 9494 0
-9494 9523 0
-695 -9494 9495 0
-9495 9524 0
-696 -9495 9496 0
-9496 9525 0
-697 -9496 9497 0
-9497 9526 0
-698 -9497 9498 0
-9498 9527 0
-699 -9498 9499 0
-9499 9528 0
-700 -9499 9500 0
-9500 9529 0
-701 -9500 9501 0
-9501 9530 0
-702 -9501 9502 0
-9502 9531 0
-703 -9502 9503 0
-9503 9532 0
-704 -9503 9504 0
-9504 9533 0
-705 -9504 9505 0
-9505 9534 0
-706 -9505 9506 0
-9506 9535 0
-707 -9506 9507 0
-9507 9536 0
-708 -9507 9508 0
-9508 9537 0
-709 -9508 9509 0
-9509 9538 0
-710 -9509 9510 0
-9510 9539 0
-711 -9510 9511 0
-9511 9540 0
-712 -9511 9512 0
-9512 9541 0
-713 -9512 9513 0
-9513 9542 0
-714 -9513 9514 0
-9514 9543 0
-715 -9514 9515 0
-9515 9544 0
-716 -9515 9516 0
-9516 9545 0
-717 -9516 9517 0
-9517 9546 0
-718 -9517 0
-690 9518 0
-9518 9547 0
-691 -9518 9519 0
-9519 9548 0
-692 -9519 9520 0
-9520 9549 0
-693 -9520 9521 0
-9521 9550 0
-694 -9521 9522 0
-9522 9551 0
-695 -9522 9523 0
-9523 9552 0
-696 -9523 9524 0
-9524 9553 0
-697 -9524 9525 0
-9525 9554 0
-698 -9525 9526 0
-9526 9555 0
-699 -9526 9527 0
-9527 9556 0
-700 -9527 9528 0
-9528 9557 0
-701 -9528 9529 0
-9529 9558 0
-702 -9529 9530 0
-9530 9559 0
-703 -9530 9531 0
-9531 9560 0
-704 -9531 9532 0
-9532 9561 0
-705 -9532 9533 0
-9533 9562 0
-706 -9533 9534 0
-9534 9563 0
-707 -9534 9535 0
-9535 9564 0
-708 -9535 9536 0
-9536 9565 0
-709 -9536 9537 0
-9537 9566 0
-710 -9537 9538 0
-9538 9567 0
-711 -9538 9539 0
-9539 9568 0
-712 -9539 9540 0
-9540 9569 0
-713 -9540 9541 0
-9541 9570 0
-714 -9541 9542 0
-9542 9571 0
-715 -9542 9543 0
-9543 9572 0
-716 -9543 9544 0
-9544 9573 0
-717 -9544 9545 0
-9545 9574 0
-718 -9545 9546 0
-9546 9575 0
-719 -9546 0
-691 9547 0
-9547 9576 0
-692 -9547 9548 0
-9548 9577 0
-693 -9548 9549 0
-9549 9578 0
-694 -9549 9550 0
-9550 9579 0
-695 -9550 9551 0
-9551 9580 0
-696 -9551 9552 0
-9552 9581 0
-697 -9552 9553 0
-9553 9582 0
-698 -9553 9554 0
-9554 9583 0
-699 -9554 9555 0
-9555 9584 0
-700 -9555 9556 0
-9556 9585 0
-701 -9556 9557 0
-9557 9586 0
-702 -9557 9558 0
-9558 9587 0
-703 -9558 9559 0
-9559 9588 0
-704 -9559 9560 0
-9560 9589 0
-705 -9560 9561 0
-9561 9590 0
-706 -9561 9562 0
-9562 9591 0
-707 -9562 9563 0
-9563 9592 0
-708 -9563 9564 0
-9564 9593 0
-709 -9564 9565 0
-9565 9594 0
-710 -9565 9566 0
-9566 9595 0
-711 -9566 9567 0
-9567 9596 0
-712 -9567 9568 0
-9568 9597 0
-713 -9568 9569 0
-9569 9598 0
-714 -9569 9570 0
-9570 9599 0
-715 -9570 9571 0
-9571 9600 0
-716 -9571 9572 0
-9572 9601 0
-717 -9572 9573 0
-9573 9602 0
-718 -9573 9574 0
-9574 9603 0
-719 -9574 9575 0
-9575 9604 0
-720 -9575 0
-692 9576 0
-9576 9605 0
-693 -9576 9577 0
-9577 9606 0
-694 -9577 9578 0
-9578 9607 0
-695 -9578 9579 0
-9579 9608 0
-696 -9579 9580 0
-9580 9609 0
-697 -9580 9581 0
-9581 9610 0
-698 -9581 9582 0
-9582 9611 0
-699 -9582 9583 0
-9583 9612 0
-700 -9583 9584 0
-9584 9613 0
-701 -9584 9585 0
-9585 9614 0
-702 -9585 9586 0
-9586 9615 0
-703 -9586 9587 0
-9587 9616 0
-704 -9587 9588 0
-9588 9617 0
-705 -9588 9589 0
-9589 9618 0
-706 -9589 9590 0
-9590 9619 0
-707 -9590 9591 0
-9591 9620 0
-708 -9591 9592 0
-9592 9621 0
-709 -9592 9593 0
-9593 9622 0
-710 -9593 9594 0
-9594 9623 0
-711 -9594 9595 0
-9595 9624 0
-712 -9595 9596 0
-9596 9625 0
-713 -9596 9597 0
-9597 9626 0
-714 -9597 9598 0
-9598 9627 0
-715 -9598 9599 0
-9599 9628 0
-716 -9599 9600 0
-9600 9629 0
-717 -9600 9601 0
-9601 9630 0
-718 -9601 9602 0
-9602 9631 0
-719 -9602 9603 0
-9603 9632 0
-720 -9603 9604 0
-9604 9633 0
-721 -9604 0
-693 9605 0
-9605 9634 0
-694 -9605 9606 0
-9606 9635 0
-695 -9606 9607 0
-9607 9636 0
-696 -9607 9608 0
-9608 9637 0
-697 -9608 9609 0
-9609 9638 0
-698 -9609 9610 0
-9610 9639 0
-699 -9610 9611 0
-9611 9640 0
-700 -9611 9612 0
-9612 9641 0
-701 -9612 9613 0
-9613 9642 0
-702 -9613 9614 0
-9614 9643 0
-703 -9614 9615 0
-9615 9644 0
-704 -9615 9616 0
-9616 9645 0
-705 -9616 9617 0
-9617 9646 0
-706 -9617 9618 0
-9618 9647 0
-707 -9618 9619 0
-9619 9648 0
-708 -9619 9620 0
-9620 9649 0
-709 -9620 9621 0
-9621 9650 0
-710 -9621 9622 0
-9622 9651 0
-711 -9622 9623 0
-9623 9652 0
-712 -9623 9624 0
-9624 9653 0
-713 -9624 9625 0
-9625 9654 0
-714 -9625 9626 0
-9626 9655 0
-715 -9626 9627 0
-9627 9656 0
-716 -9627 9628 0
-9628 9657 0
-717 -9628 9629 0
-9629 9658 0
-718 -9629 9630 0
-9630 9659 0
-719 -9630 9631 0
-9631 9660 0
-720 -9631 9632 0
-9632 9661 0
-721 -9632 9633 0
-9633 9662 0
-722 -9633 0
-694 9634 0
-9634 9663 0
-695 -9634 9635 0
-9635 9664 0
-696 -9635 9636 0
-9636 9665 0
-697 -9636 9637 0
-9637 9666 0
-698 -9637 9638 0
-9638 9667 0
-699 -9638 9639 0
-9639 9668 0
-700 -9639 9640 0
-9640 9669 0
-701 -9640 9641 0
-9641 9670 0
-702 -9641 9642 0
-9642 9671 0
-703 -9642 9643 0
-9643 9672 0
-704 -9643 9644 0
-9644 9673 0
-705 -9644 9645 0
-9645 9674 0
-706 -9645 9646 0
-9646 9675 0
-707 -9646 9647 0
-9647 9676 0
-708 -9647 9648 0
-9648 9677 0
-709 -9648 9649 0
-9649 9678 0
-710 -9649 9650 0
-9650 9679 0
-711 -9650 9651 0
-9651 9680 0
-712 -9651 9652 0
-9652 9681 0
-713 -9652 9653 0
-9653 9682 0
-714 -9653 9654 0
-9654 9683 0
-715 -9654 9655 0
-9655 9684 0
-716 -9655 9656 0
-9656 9685 0
-717 -9656 9657 0
-9657 9686 0
-718 -9657 9658 0
-9658 9687 0
-719 -9658 9659 0
-9659 9688 0
-720 -9659 9660 0
-9660 9689 0
-721 -9660 9661 0
-9661 9690 0
-722 -9661 9662 0
-9662 9691 0
-723 -9662 0
-695 9663 0
-9663 9692 0
-696 -9663 9664 0
-9664 9693 0
-697 -9664 9665 0
-9665 9694 0
-698 -9665 9666 0
-9666 9695 0
-699 -9666 9667 0
-9667 9696 0
-700 -9667 9668 0
-9668 9697 0
-701 -9668 9669 0
-9669 9698 0
-702 -9669 9670 0
-9670 9699 0
-703 -9670 9671 0
-9671 9700 0
-704 -9671 9672 0
-9672 9701 0
-705 -9672 9673 0
-9673 9702 0
-706 -9673 9674 0
-9674 9703 0
-707 -9674 9675 0
-9675 9704 0
-708 -9675 9676 0
-9676 9705 0
-709 -9676 9677 0
-9677 9706 0
-710 -9677 9678 0
-9678 9707 0
-711 -9678 9679 0
-9679 9708 0
-712 -9679 9680 0
-9680 9709 0
-713 -9680 9681 0
-9681 9710 0
-714 -9681 9682 0
-9682 9711 0
-715 -9682 9683 0
-9683 9712 0
-716 -9683 9684 0
-9684 9713 0
-717 -9684 9685 0
-9685 9714 0
-718 -9685 9686 0
-9686 9715 0
-719 -9686 9687 0
-9687 9716 0
-720 -9687 9688 0
-9688 9717 0
-721 -9688 9689 0
-9689 9718 0
-722 -9689 9690 0
-9690 9719 0
-723 -9690 9691 0
-9691 9720 0
-724 -9691 0
-696 9692 0
-9692 9721 0
-697 -9692 9693 0
-9693 9722 0
-698 -9693 9694 0
-9694 9723 0
-699 -9694 9695 0
-9695 9724 0
-700 -9695 9696 0
-9696 9725 0
-701 -9696 9697 0
-9697 9726 0
-702 -9697 9698 0
-9698 9727 0
-703 -9698 9699 0
-9699 9728 0
-704 -9699 9700 0
-9700 9729 0
-705 -9700 9701 0
-9701 9730 0
-706 -9701 9702 0
-9702 9731 0
-707 -9702 9703 0
-9703 9732 0
-708 -9703 9704 0
-9704 9733 0
-709 -9704 9705 0
-9705 9734 0
-710 -9705 9706 0
-9706 9735 0
-711 -9706 9707 0
-9707 9736 0
-712 -9707 9708 0
-9708 9737 0
-713 -9708 9709 0
-9709 9738 0
-714 -9709 9710 0
-9710 9739 0
-715 -9710 9711 0
-9711 9740 0
-716 -9711 9712 0
-9712 9741 0
-717 -9712 9713 0
-9713 9742 0
-718 -9713 9714 0
-9714 9743 0
-719 -9714 9715 0
-9715 9744 0
-720 -9715 9716 0
-9716 9745 0
-721 -9716 9717 0
-9717 9746 0
-722 -9717 9718 0
-9718 9747 0
-723 -9718 9719 0
-9719 9748 0
-724 -9719 9720 0
-9720 9749 0
-725 -9720 0
-697 9721 0
-9721 9750 0
-698 -9721 9722 0
-9722 9751 0
-699 -9722 9723 0
-9723 9752 0
-700 -9723 9724 0
-9724 9753 0
-701 -9724 9725 0
-9725 9754 0
-702 -9725 9726 0
-9726 9755 0
-703 -9726 9727 0
-9727 9756 0
-704 -9727 9728 0
-9728 9757 0
-705 -9728 9729 0
-9729 9758 0
-706 -9729 9730 0
-9730 9759 0
-707 -9730 9731 0
-9731 9760 0
-708 -9731 9732 0
-9732 9761 0
-709 -9732 9733 0
-9733 9762 0
-710 -9733 9734 0
-9734 9763 0
-711 -9734 9735 0
-9735 9764 0
-712 -9735 9736 0
-9736 9765 0
-713 -9736 9737 0
-9737 9766 0
-714 -9737 9738 0
-9738 9767 0
-715 -9738 9739 0
-9739 9768 0
-716 -9739 9740 0
-9740 9769 0
-717 -9740 9741 0
-9741 9770 0
-718 -9741 9742 0
-9742 9771 0
-719 -9742 9743 0
-9743 9772 0
-720 -9743 9744 0
-9744 9773 0
-721 -9744 9745 0
-9745 9774 0
-722 -9745 9746 0
-9746 9775 0
-723 -9746 9747 0
-9747 9776 0
-724 -9747 9748 0
-9748 9777 0
-725 -9748 9749 0
-9749 9778 0
-726 -9749 0
-698 9750 0
-9750 9779 0
-699 -9750 9751 0
-9751 9780 0
-700 -9751 9752 0
-9752 9781 0
-701 -9752 9753 0
-9753 9782 0
-702 -9753 9754 0
-9754 9783 0
-703 -9754 9755 0
-9755 9784 0
-704 -9755 9756 0
-9756 9785 0
-705 -9756 9757 0
-9757 9786 0
-706 -9757 9758 0
-9758 9787 0
-707 -9758 9759 0
-9759 9788 0
-708 -9759 9760 0
-9760 9789 0
-709 -9760 9761 0
-9761 9790 0
-710 -9761 9762 0
-9762 9791 0
-711 -9762 9763 0
-9763 9792 0
-712 -9763 9764 0
-9764 9793 0
-713 -9764 9765 0
-9765 9794 0
-714 -9765 9766 0
-9766 9795 0
-715 -9766 9767 0
-9767 9796 0
-716 -9767 9768 0
-9768 9797 0
-717 -9768 9769 0
-9769 9798 0
-718 -9769 9770 0
-9770 9799 0
-719 -9770 9771 0
-9771 9800 0
-720 -9771 9772 0
-9772 9801 0
-721 -9772 9773 0
-9773 9802 0
-722 -9773 9774 0
-9774 9803 0
-723 -9774 9775 0
-9775 9804 0
-724 -9775 9776 0
-9776 9805 0
-725 -9776 9777 0
-9777 9806 0
-726 -9777 9778 0
-9778 9807 0
-727 -9778 0
-699 9779 0
-9779 9808 0
-700 -9779 9780 0
-9780 9809 0
-701 -9780 9781 0
-9781 9810 0
-702 -9781 9782 0
-9782 9811 0
-703 -9782 9783 0
-9783 9812 0
-704 -9783 9784 0
-9784 9813 0
-705 -9784 9785 0
-9785 9814 0
-706 -9785 9786 0
-9786 9815 0
-707 -9786 9787 0
-9787 9816 0
-708 -9787 9788 0
-9788 9817 0
-709 -9788 9789 0
-9789 9818 0
-710 -9789 9790 0
-9790 9819 0
-711 -9790 9791 0
-9791 9820 0
-712 -9791 9792 0
-9792 9821 0
-713 -9792 9793 0
-9793 9822 0
-714 -9793 9794 0
-9794 9823 0
-715 -9794 9795 0
-9795 9824 0
-716 -9795 9796 0
-9796 9825 0
-717 -9796 9797 0
-9797 9826 0
-718 -9797 9798 0
-9798 9827 0
-719 -9798 9799 0
-9799 9828 0
-720 -9799 9800 0
-9800 9829 0
-721 -9800 9801 0
-9801 9830 0
-722 -9801 9802 0
-9802 9831 0
-723 -9802 9803 0
-9803 9832 0
-724 -9803 9804 0
-9804 9833 0
-725 -9804 9805 0
-9805 9834 0
-726 -9805 9806 0
-9806 9835 0
-727 -9806 9807 0
-9807 9836 0
-728 -9807 0
-700 9808 0
-9808 9837 0
-701 -9808 9809 0
-9809 9838 0
-702 -9809 9810 0
-9810 9839 0
-703 -9810 9811 0
-9811 9840 0
-704 -9811 9812 0
-9812 9841 0
-705 -9812 9813 0
-9813 9842 0
-706 -9813 9814 0
-9814 9843 0
-707 -9814 9815 0
-9815 9844 0
-708 -9815 9816 0
-9816 9845 0
-709 -9816 9817 0
-9817 9846 0
-710 -9817 9818 0
-9818 9847 0
-711 -9818 9819 0
-9819 9848 0
-712 -9819 9820 0
-9820 9849 0
-713 -9820 9821 0
-9821 9850 0
-714 -9821 9822 0
-9822 9851 0
-715 -9822 9823 0
-9823 9852 0
-716 -9823 9824 0
-9824 9853 0
-717 -9824 9825 0
-9825 9854 0
-718 -9825 9826 0
-9826 9855 0
-719 -9826 9827 0
-9827 9856 0
-720 -9827 9828 0
-9828 9857 0
-721 -9828 9829 0
-9829 9858 0
-722 -9829 9830 0
-9830 9859 0
-723 -9830 9831 0
-9831 9860 0
-724 -9831 9832 0
-9832 9861 0
-725 -9832 9833 0
-9833 9862 0
-726 -9833 9834 0
-9834 9863 0
-727 -9834 9835 0
-9835 9864 0
-728 -9835 9836 0
-9836 9865 0
-729 -9836 0
-701 9837 0
-9837 9866 0
-702 -9837 9838 0
-9838 9867 0
-703 -9838 9839 0
-9839 9868 0
-704 -9839 9840 0
-9840 9869 0
-705 -9840 9841 0
-9841 9870 0
-706 -9841 9842 0
-9842 9871 0
-707 -9842 9843 0
-9843 9872 0
-708 -9843 9844 0
-9844 9873 0
-709 -9844 9845 0
-9845 9874 0
-710 -9845 9846 0
-9846 9875 0
-711 -9846 9847 0
-9847 9876 0
-712 -9847 9848 0
-9848 9877 0
-713 -9848 9849 0
-9849 9878 0
-714 -9849 9850 0
-9850 9879 0
-715 -9850 9851 0
-9851 9880 0
-716 -9851 9852 0
-9852 9881 0
-717 -9852 9853 0
-9853 9882 0
-718 -9853 9854 0
-9854 9883 0
-719 -9854 9855 0
-9855 9884 0
-720 -9855 9856 0
-9856 9885 0
-721 -9856 9857 0
-9857 9886 0
-722 -9857 9858 0
-9858 9887 0
-723 -9858 9859 0
-9859 9888 0
-724 -9859 9860 0
-9860 9889 0
-725 -9860 9861 0
-9861 9890 0
-726 -9861 9862 0
-9862 9891 0
-727 -9862 9863 0
-9863 9892 0
-728 -9863 9864 0
-9864 9893 0
-729 -9864 9865 0
-9865 9894 0
-730 -9865 0
-702 9866 0
-9866 9895 0
-703 -9866 9867 0
-9867 9896 0
-704 -9867 9868 0
-9868 9897 0
-705 -9868 9869 0
-9869 9898 0
-706 -9869 9870 0
-9870 9899 0
-707 -9870 9871 0
-9871 9900 0
-708 -9871 9872 0
-9872 9901 0
-709 -9872 9873 0
-9873 9902 0
-710 -9873 9874 0
-9874 9903 0
-711 -9874 9875 0
-9875 9904 0
-712 -9875 9876 0
-9876 9905 0
-713 -9876 9877 0
-9877 9906 0
-714 -9877 9878 0
-9878 9907 0
-715 -9878 9879 0
-9879 9908 0
-716 -9879 9880 0
-9880 9909 0
-717 -9880 9881 0
-9881 9910 0
-718 -9881 9882 0
-9882 9911 0
-719 -9882 9883 0
-9883 9912 0
-720 -9883 9884 0
-9884 9913 0
-721 -9884 9885 0
-9885 9914 0
-722 -9885 9886 0
-9886 9915 0
-723 -9886 9887 0
-9887 9916 0
-724 -9887 9888 0
-9888 9917 0
-725 -9888 9889 0
-9889 9918 0
-726 -9889 9890 0
-9890 9919 0
-727 -9890 9891 0
-9891 9920 0
-728 -9891 9892 0
-9892 9921 0
-729 -9892 9893 0
-9893 9922 0
-730 -9893 9894 0
-9894 9923 0
-731 -9894 0
-703 9895 0
-9895 9924 0
-704 -9895 9896 0
-9896 9925 0
-705 -9896 9897 0
-9897 9926 0
-706 -9897 9898 0
-9898 9927 0
-707 -9898 9899 0
-9899 9928 0
-708 -9899 9900 0
-9900 9929 0
-709 -9900 9901 0
-9901 9930 0
-710 -9901 9902 0
-9902 9931 0
-711 -9902 9903 0
-9903 9932 0
-712 -9903 9904 0
-9904 9933 0
-713 -9904 9905 0
-9905 9934 0
-714 -9905 9906 0
-9906 9935 0
-715 -9906 9907 0
-9907 9936 0
-716 -9907 9908 0
-9908 9937 0
-717 -9908 9909 0
-9909 9938 0
-718 -9909 9910 0
-9910 9939 0
-719 -9910 9911 0
-9911 9940 0
-720 -9911 9912 0
-9912 9941 0
-721 -9912 9913 0
-9913 9942 0
-722 -9913 9914 0
-9914 9943 0
-723 -9914 9915 0
-9915 9944 0
-724 -9915 9916 0
-9916 9945 0
-725 -9916 9917 0
-9917 9946 0
-726 -9917 9918 0
-9918 9947 0
-727 -9918 9919 0
-9919 9948 0
-728 -9919 9920 0
-9920 9949 0
-729 -9920 9921 0
-9921 9950 0
-730 -9921 9922 0
-9922 9951 0
-731 -9922 9923 0
-9923 9952 0
-732 -9923 0
-704 9924 0
-9924 9953 0
-705 -9924 9925 0
-9925 9954 0
-706 -9925 9926 0
-9926 9955 0
-707 -9926 9927 0
-9927 9956 0
-708 -9927 9928 0
-9928 9957 0
-709 -9928 9929 0
-9929 9958 0
-710 -9929 9930 0
-9930 9959 0
-711 -9930 9931 0
-9931 9960 0
-712 -9931 9932 0
-9932 9961 0
-713 -9932 9933 0
-9933 9962 0
-714 -9933 9934 0
-9934 9963 0
-715 -9934 9935 0
-9935 9964 0
-716 -9935 9936 0
-9936 9965 0
-717 -9936 9937 0
-9937 9966 0
-718 -9937 9938 0
-9938 9967 0
-719 -9938 9939 0
-9939 9968 0
-720 -9939 9940 0
-9940 9969 0
-721 -9940 9941 0
-9941 9970 0
-722 -9941 9942 0
-9942 9971 0
-723 -9942 9943 0
-9943 9972 0
-724 -9943 9944 0
-9944 9973 0
-725 -9944 9945 0
-9945 9974 0
-726 -9945 9946 0
-9946 9975 0
-727 -9946 9947 0
-9947 9976 0
-728 -9947 9948 0
-9948 9977 0
-729 -9948 9949 0
-9949 9978 0
-730 -9949 9950 0
-9950 9979 0
-731 -9950 9951 0
-9951 9980 0
-732 -9951 9952 0
-9952 9981 0
-733 -9952 0
-705 9953 0
-9953 9982 0
-706 -9953 9954 0
-9954 9983 0
-707 -9954 9955 0
-9955 9984 0
-708 -9955 9956 0
-9956 9985 0
-709 -9956 9957 0
-9957 9986 0
-710 -9957 9958 0
-9958 9987 0
-711 -9958 9959 0
-9959 9988 0
-712 -9959 9960 0
-9960 9989 0
-713 -9960 9961 0
-9961 9990 0
-714 -9961 9962 0
-9962 9991 0
-715 -9962 9963 0
-9963 9992 0
-716 -9963 9964 0
-9964 9993 0
-717 -9964 9965 0
-9965 9994 0
-718 -9965 9966 0
-9966 9995 0
-719 -9966 9967 0
-9967 9996 0
-720 -9967 9968 0
-9968 9997 0
-721 -9968 9969 0
-9969 9998 0
-722 -9969 9970 0
-9970 9999 0
-723 -9970 9971 0
-9971 10000 0
-724 -9971 9972 0
-9972 10001 0
-725 -9972 9973 0
-9973 10002 0
-726 -9973 9974 0
-9974 10003 0
-727 -9974 9975 0
-9975 10004 0
-728 -9975 9976 0
-9976 10005 0
-729 -9976 9977 0
-9977 10006 0
-730 -9977 9978 0
-9978 10007 0
-731 -9978 9979 0
-9979 10008 0
-732 -9979 9980 0
-9980 10009 0
-733 -9980 9981 0
-9981 10010 0
-734 -9981 0
-706 9982 0
-9982 10011 0
-707 -9982 9983 0
-9983 10012 0
-708 -9983 9984 0
-9984 10013 0
-709 -9984 9985 0
-9985 10014 0
-710 -9985 9986 0
-9986 10015 0
-711 -9986 9987 0
-9987 10016 0
-712 -9987 9988 0
-9988 10017 0
-713 -9988 9989 0
-9989 10018 0
-714 -9989 9990 0
-9990 10019 0
-715 -9990 9991 0
-9991 10020 0
-716 -9991 9992 0
-9992 10021 0
-717 -9992 9993 0
-9993 10022 0
-718 -9993 9994 0
-9994 10023 0
-719 -9994 9995 0
-9995 10024 0
-720 -9995 9996 0
-9996 10025 0
-721 -9996 9997 0
-9997 10026 0
-722 -9997 9998 0
-9998 10027 0
-723 -9998 9999 0
-9999 10028 0
-724 -9999 10000 0
-10000 10029 0
-725 -10000 10001 0
-10001 10030 0
-726 -10001 10002 0
-10002 10031 0
-727 -10002 10003 0
-10003 10032 0
-728 -10003 10004 0
-10004 10033 0
-729 -10004 10005 0
-10005 10034 0
-730 -10005 10006 0
-10006 10035 0
-731 -10006 10007 0
-10007 10036 0
-732 -10007 10008 0
-10008 10037 0
-733 -10008 10009 0
-10009 10038 0
-734 -10009 10010 0
-10010 10039 0
-735 -10010 0
-707 10011 0
-10011 10040 0
-708 -10011 10012 0
-10012 10041 0
-709 -10012 10013 0
-10013 10042 0
-710 -10013 10014 0
-10014 10043 0
-711 -10014 10015 0
-10015 10044 0
-712 -10015 10016 0
-10016 10045 0
-713 -10016 10017 0
-10017 10046 0
-714 -10017 10018 0
-10018 10047 0
-715 -10018 10019 0
-10019 10048 0
-716 -10019 10020 0
-10020 10049 0
-717 -10020 10021 0
-10021 10050 0
-718 -10021 10022 0
-10022 10051 0
-719 -10022 10023 0
-10023 10052 0
-720 -10023 10024 0
-10024 10053 0
-721 -10024 10025 0
-10025 10054 0
-722 -10025 10026 0
-10026 10055 0
-723 -10026 10027 0
-10027 10056 0
-724 -10027 10028 0
-10028 10057 0
-725 -10028 10029 0
-10029 10058 0
-726 -10029 10030 0
-10030 10059 0
-727 -10030 10031 0
-10031 10060 0
-728 -10031 10032 0
-10032 10061 0
-729 -10032 10033 0
-10033 10062 0
-730 -10033 10034 0
-10034 10063 0
-731 -10034 10035 0
-10035 10064 0
-732 -10035 10036 0
-10036 10065 0
-733 -10036 10037 0
-10037 10066 0
-734 -10037 10038 0
-10038 10067 0
-735 -10038 10039 0
-10039 10068 0
-736 -10039 0
-708 10040 0
-10040 10069 0
-709 -10040 10041 0
-10041 10070 0
-710 -10041 10042 0
-10042 10071 0
-711 -10042 10043 0
-10043 10072 0
-712 -10043 10044 0
-10044 10073 0
-713 -10044 10045 0
-10045 10074 0
-714 -10045 10046 0
-10046 10075 0
-715 -10046 10047 0
-10047 10076 0
-716 -10047 10048 0
-10048 10077 0
-717 -10048 10049 0
-10049 10078 0
-718 -10049 10050 0
-10050 10079 0
-719 -10050 10051 0
-10051 10080 0
-720 -10051 10052 0
-10052 10081 0
-721 -10052 10053 0
-10053 10082 0
-722 -10053 10054 0
-10054 10083 0
-723 -10054 10055 0
-10055 10084 0
-724 -10055 10056 0
-10056 10085 0
-725 -10056 10057 0
-10057 10086 0
-726 -10057 10058 0
-10058 10087 0
-727 -10058 10059 0
-10059 10088 0
-728 -10059 10060 0
-10060 10089 0
-729 -10060 10061 0
-10061 10090 0
-730 -10061 10062 0
-10062 10091 0
-731 -10062 10063 0
-10063 10092 0
-732 -10063 10064 0
-10064 10093 0
-733 -10064 10065 0
-10065 10094 0
-734 -10065 10066 0
-10066 10095 0
-735 -10066 10067 0
-10067 10096 0
-736 -10067 10068 0
-10068 10097 0
-737 -10068 0
-709 10069 0
-10069 10098 0
-710 -10069 10070 0
-10070 10099 0
-711 -10070 10071 0
-10071 10100 0
-712 -10071 10072 0
-10072 10101 0
-713 -10072 10073 0
-10073 10102 0
-714 -10073 10074 0
-10074 10103 0
-715 -10074 10075 0
-10075 10104 0
-716 -10075 10076 0
-10076 10105 0
-717 -10076 10077 0
-10077 10106 0
-718 -10077 10078 0
-10078 10107 0
-719 -10078 10079 0
-10079 10108 0
-720 -10079 10080 0
-10080 10109 0
-721 -10080 10081 0
-10081 10110 0
-722 -10081 10082 0
-10082 10111 0
-723 -10082 10083 0
-10083 10112 0
-724 -10083 10084 0
-10084 10113 0
-725 -10084 10085 0
-10085 10114 0
-726 -10085 10086 0
-10086 10115 0
-727 -10086 10087 0
-10087 10116 0
-728 -10087 10088 0
-10088 10117 0
-729 -10088 10089 0
-10089 10118 0
-730 -10089 10090 0
-10090 10119 0
-731 -10090 10091 0
-10091 10120 0
-732 -10091 10092 0
-10092 10121 0
-733 -10092 10093 0
-10093 10122 0
-734 -10093 10094 0
-10094 10123 0
-735 -10094 10095 0
-10095 10124 0
-736 -10095 10096 0
-10096 10125 0
-737 -10096 10097 0
-10097 10126 0
-738 -10097 0
-710 10098 0
-10098 10127 0
-711 -10098 10099 0
-10099 10128 0
-712 -10099 10100 0
-10100 10129 0
-713 -10100 10101 0
-10101 10130 0
-714 -10101 10102 0
-10102 10131 0
-715 -10102 10103 0
-10103 10132 0
-716 -10103 10104 0
-10104 10133 0
-717 -10104 10105 0
-10105 10134 0
-718 -10105 10106 0
-10106 10135 0
-719 -10106 10107 0
-10107 10136 0
-720 -10107 10108 0
-10108 10137 0
-721 -10108 10109 0
-10109 10138 0
-722 -10109 10110 0
-10110 10139 0
-723 -10110 10111 0
-10111 10140 0
-724 -10111 10112 0
-10112 10141 0
-725 -10112 10113 0
-10113 10142 0
-726 -10113 10114 0
-10114 10143 0
-727 -10114 10115 0
-10115 10144 0
-728 -10115 10116 0
-10116 10145 0
-729 -10116 10117 0
-10117 10146 0
-730 -10117 10118 0
-10118 10147 0
-731 -10118 10119 0
-10119 10148 0
-732 -10119 10120 0
-10120 10149 0
-733 -10120 10121 0
-10121 10150 0
-734 -10121 10122 0
-10122 10151 0
-735 -10122 10123 0
-10123 10152 0
-736 -10123 10124 0
-10124 10153 0
-737 -10124 10125 0
-10125 10154 0
-738 -10125 10126 0
-10126 10155 0
-739 -10126 0
-711 10127 0
-10127 10156 0
-712 -10127 10128 0
-10128 10157 0
-713 -10128 10129 0
-10129 10158 0
-714 -10129 10130 0
-10130 10159 0
-715 -10130 10131 0
-10131 10160 0
-716 -10131 10132 0
-10132 10161 0
-717 -10132 10133 0
-10133 10162 0
-718 -10133 10134 0
-10134 10163 0
-719 -10134 10135 0
-10135 10164 0
-720 -10135 10136 0
-10136 10165 0
-721 -10136 10137 0
-10137 10166 0
-722 -10137 10138 0
-10138 10167 0
-723 -10138 10139 0
-10139 10168 0
-724 -10139 10140 0
-10140 10169 0
-725 -10140 10141 0
-10141 10170 0
-726 -10141 10142 0
-10142 10171 0
-727 -10142 10143 0
-10143 10172 0
-728 -10143 10144 0
-10144 10173 0
-729 -10144 10145 0
-10145 10174 0
-730 -10145 10146 0
-10146 10175 0
-731 -10146 10147 0
-10147 10176 0
-732 -10147 10148 0
-10148 10177 0
-733 -10148 10149 0
-10149 10178 0
-734 -10149 10150 0
-10150 10179 0
-735 -10150 10151 0
-10151 10180 0
-736 -10151 10152 0
-10152 10181 0
-737 -10152 10153 0
-10153 10182 0
-738 -10153 10154 0
-10154 10183 0
-739 -10154 10155 0
-10155 10184 0
-740 -10155 0
-712 10156 0
-10156 10185 0
-713 -10156 10157 0
-10157 10186 0
-714 -10157 10158 0
-10158 10187 0
-715 -10158 10159 0
-10159 10188 0
-716 -10159 10160 0
-10160 10189 0
-717 -10160 10161 0
-10161 10190 0
-718 -10161 10162 0
-10162 10191 0
-719 -10162 10163 0
-10163 10192 0
-720 -10163 10164 0
-10164 10193 0
-721 -10164 10165 0
-10165 10194 0
-722 -10165 10166 0
-10166 10195 0
-723 -10166 10167 0
-10167 10196 0
-724 -10167 10168 0
-10168 10197 0
-725 -10168 10169 0
-10169 10198 0
-726 -10169 10170 0
-10170 10199 0
-727 -10170 10171 0
-10171 10200 0
-728 -10171 10172 0
-10172 10201 0
-729 -10172 10173 0
-10173 10202 0
-730 -10173 10174 0
-10174 10203 0
-731 -10174 10175 0
-10175 10204 0
-732 -10175 10176 0
-10176 10205 0
-733 -10176 10177 0
-10177 10206 0
-734 -10177 10178 0
-10178 10207 0
-735 -10178 10179 0
-10179 10208 0
-736 -10179 10180 0
-10180 10209 0
-737 -10180 10181 0
-10181 10210 0
-738 -10181 10182 0
-10182 10211 0
-739 -10182 10183 0
-10183 10212 0
-740 -10183 10184 0
-10184 10213 0
-741 -10184 0
-713 10185 0
-10185 10214 0
-714 -10185 10186 0
-10186 10215 0
-715 -10186 10187 0
-10187 10216 0
-716 -10187 10188 0
-10188 10217 0
-717 -10188 10189 0
-10189 10218 0
-718 -10189 10190 0
-10190 10219 0
-719 -10190 10191 0
-10191 10220 0
-720 -10191 10192 0
-10192 10221 0
-721 -10192 10193 0
-10193 10222 0
-722 -10193 10194 0
-10194 10223 0
-723 -10194 10195 0
-10195 10224 0
-724 -10195 10196 0
-10196 10225 0
-725 -10196 10197 0
-10197 10226 0
-726 -10197 10198 0
-10198 10227 0
-727 -10198 10199 0
-10199 10228 0
-728 -10199 10200 0
-10200 10229 0
-729 -10200 10201 0
-10201 10230 0
-730 -10201 10202 0
-10202 10231 0
-731 -10202 10203 0
-10203 10232 0
-732 -10203 10204 0
-10204 10233 0
-733 -10204 10205 0
-10205 10234 0
-734 -10205 10206 0
-10206 10235 0
-735 -10206 10207 0
-10207 10236 0
-736 -10207 10208 0
-10208 10237 0
-737 -10208 10209 0
-10209 10238 0
-738 -10209 10210 0
-10210 10239 0
-739 -10210 10211 0
-10211 10240 0
-740 -10211 10212 0
-10212 10241 0
-741 -10212 10213 0
-10213 10242 0
-742 -10213 0
-714 10214 0
-10214 10243 0
-715 -10214 10215 0
-10215 10244 0
-716 -10215 10216 0
-10216 10245 0
-717 -10216 10217 0
-10217 10246 0
-718 -10217 10218 0
-10218 10247 0
-719 -10218 10219 0
-10219 10248 0
-720 -10219 10220 0
-10220 10249 0
-721 -10220 10221 0
-10221 10250 0
-722 -10221 10222 0
-10222 10251 0
-723 -10222 10223 0
-10223 10252 0
-724 -10223 10224 0
-10224 10253 0
-725 -10224 10225 0
-10225 10254 0
-726 -10225 10226 0
-10226 10255 0
-727 -10226 10227 0
-10227 10256 0
-728 -10227 10228 0
-10228 10257 0
-729 -10228 10229 0
-10229 10258 0
-730 -10229 10230 0
-10230 10259 0
-731 -10230 10231 0
-10231 10260 0
-732 -10231 10232 0
-10232 10261 0
-733 -10232 10233 0
-10233 10262 0
-734 -10233 10234 0
-10234 10263 0
-735 -10234 10235 0
-10235 10264 0
-736 -10235 10236 0
-10236 10265 0
-737 -10236 10237 0
-10237 10266 0
-738 -10237 10238 0
-10238 10267 0
-739 -10238 10239 0
-10239 10268 0
-740 -10239 10240 0
-10240 10269 0
-741 -10240 10241 0
-10241 10270 0
-742 -10241 10242 0
-10242 10271 0
-743 -10242 0
-715 10243 0
-10243 10272 0
-716 -10243 10244 0
-10244 10273 0
-717 -10244 10245 0
-10245 10274 0
-718 -10245 10246 0
-10246 10275 0
-719 -10246 10247 0
-10247 10276 0
-720 -10247 10248 0
-10248 10277 0
-721 -10248 10249 0
-10249 10278 0
-722 -10249 10250 0
-10250 10279 0
-723 -10250 10251 0
-10251 10280 0
-724 -10251 10252 0
-10252 10281 0
-725 -10252 10253 0
-10253 10282 0
-726 -10253 10254 0
-10254 10283 0
-727 -10254 10255 0
-10255 10284 0
-728 -10255 10256 0
-10256 10285 0
-729 -10256 10257 0
-10257 10286 0
-730 -10257 10258 0
-10258 10287 0
-731 -10258 10259 0
-10259 10288 0
-732 -10259 10260 0
-10260 10289 0
-733 -10260 10261 0
-10261 10290 0
-734 -10261 10262 0
-10262 10291 0
-735 -10262 10263 0
-10263 10292 0
-736 -10263 10264 0
-10264 10293 0
-737 -10264 10265 0
-10265 10294 0
-738 -10265 10266 0
-10266 10295 0
-739 -10266 10267 0
-10267 10296 0
-740 -10267 10268 0
-10268 10297 0
-741 -10268 10269 0
-10269 10298 0
-742 -10269 10270 0
-10270 10299 0
-743 -10270 10271 0
-10271 10300 0
-744 -10271 0
-716 10272 0
-10272 10301 0
-717 -10272 10273 0
-10273 10302 0
-718 -10273 10274 0
-10274 10303 0
-719 -10274 10275 0
-10275 10304 0
-720 -10275 10276 0
-10276 10305 0
-721 -10276 10277 0
-10277 10306 0
-722 -10277 10278 0
-10278 10307 0
-723 -10278 10279 0
-10279 10308 0
-724 -10279 10280 0
-10280 10309 0
-725 -10280 10281 0
-10281 10310 0
-726 -10281 10282 0
-10282 10311 0
-727 -10282 10283 0
-10283 10312 0
-728 -10283 10284 0
-10284 10313 0
-729 -10284 10285 0
-10285 10314 0
-730 -10285 10286 0
-10286 10315 0
-731 -10286 10287 0
-10287 10316 0
-732 -10287 10288 0
-10288 10317 0
-733 -10288 10289 0
-10289 10318 0
-734 -10289 10290 0
-10290 10319 0
-735 -10290 10291 0
-10291 10320 0
-736 -10291 10292 0
-10292 10321 0
-737 -10292 10293 0
-10293 10322 0
-738 -10293 10294 0
-10294 10323 0
-739 -10294 10295 0
-10295 10324 0
-740 -10295 10296 0
-10296 10325 0
-741 -10296 10297 0
-10297 10326 0
-742 -10297 10298 0
-10298 10327 0
-743 -10298 10299 0
-10299 10328 0
-744 -10299 10300 0
-10300 10329 0
-745 -10300 0
-717 10301 0
-10301 10330 0
-718 -10301 10302 0
-10302 10331 0
-719 -10302 10303 0
-10303 10332 0
-720 -10303 10304 0
-10304 10333 0
-721 -10304 10305 0
-10305 10334 0
-722 -10305 10306 0
-10306 10335 0
-723 -10306 10307 0
-10307 10336 0
-724 -10307 10308 0
-10308 10337 0
-725 -10308 10309 0
-10309 10338 0
-726 -10309 10310 0
-10310 10339 0
-727 -10310 10311 0
-10311 10340 0
-728 -10311 10312 0
-10312 10341 0
-729 -10312 10313 0
-10313 10342 0
-730 -10313 10314 0
-10314 10343 0
-731 -10314 10315 0
-10315 10344 0
-732 -10315 10316 0
-10316 10345 0
-733 -10316 10317 0
-10317 10346 0
-734 -10317 10318 0
-10318 10347 0
-735 -10318 10319 0
-10319 10348 0
-736 -10319 10320 0
-10320 10349 0
-737 -10320 10321 0
-10321 10350 0
-738 -10321 10322 0
-10322 10351 0
-739 -10322 10323 0
-10323 10352 0
-740 -10323 10324 0
-10324 10353 0
-741 -10324 10325 0
-10325 10354 0
-742 -10325 10326 0
-10326 10355 0
-743 -10326 10327 0
-10327 10356 0
-744 -10327 10328 0
-10328 10357 0
-745 -10328 10329 0
-10329 10358 0
-746 -10329 0
-718 10330 0
-10330 10359 0
-719 -10330 10331 0
-10331 10360 0
-720 -10331 10332 0
-10332 10361 0
-721 -10332 10333 0
-10333 10362 0
-722 -10333 10334 0
-10334 10363 0
-723 -10334 10335 0
-10335 10364 0
-724 -10335 10336 0
-10336 10365 0
-725 -10336 10337 0
-10337 10366 0
-726 -10337 10338 0
-10338 10367 0
-727 -10338 10339 0
-10339 10368 0
-728 -10339 10340 0
-10340 10369 0
-729 -10340 10341 0
-10341 10370 0
-730 -10341 10342 0
-10342 10371 0
-731 -10342 10343 0
-10343 10372 0
-732 -10343 10344 0
-10344 10373 0
-733 -10344 10345 0
-10345 10374 0
-734 -10345 10346 0
-10346 10375 0
-735 -10346 10347 0
-10347 10376 0
-736 -10347 10348 0
-10348 10377 0
-737 -10348 10349 0
-10349 10378 0
-738 -10349 10350 0
-10350 10379 0
-739 -10350 10351 0
-10351 10380 0
-740 -10351 10352 0
-10352 10381 0
-741 -10352 10353 0
-10353 10382 0
-742 -10353 10354 0
-10354 10383 0
-743 -10354 10355 0
-10355 10384 0
-744 -10355 10356 0
-10356 10385 0
-745 -10356 10357 0
-10357 10386 0
-746 -10357 10358 0
-10358 10387 0
-747 -10358 0
-719 10359 0
-10359 10388 0
-720 -10359 10360 0
-10360 10389 0
-721 -10360 10361 0
-10361 10390 0
-722 -10361 10362 0
-10362 10391 0
-723 -10362 10363 0
-10363 10392 0
-724 -10363 10364 0
-10364 10393 0
-725 -10364 10365 0
-10365 10394 0
-726 -10365 10366 0
-10366 10395 0
-727 -10366 10367 0
-10367 10396 0
-728 -10367 10368 0
-10368 10397 0
-729 -10368 10369 0
-10369 10398 0
-730 -10369 10370 0
-10370 10399 0
-731 -10370 10371 0
-10371 10400 0
-732 -10371 10372 0
-10372 10401 0
-733 -10372 10373 0
-10373 10402 0
-734 -10373 10374 0
-10374 10403 0
-735 -10374 10375 0
-10375 10404 0
-736 -10375 10376 0
-10376 10405 0
-737 -10376 10377 0
-10377 10406 0
-738 -10377 10378 0
-10378 10407 0
-739 -10378 10379 0
-10379 10408 0
-740 -10379 10380 0
-10380 10409 0
-741 -10380 10381 0
-10381 10410 0
-742 -10381 10382 0
-10382 10411 0
-743 -10382 10383 0
-10383 10412 0
-744 -10383 10384 0
-10384 10413 0
-745 -10384 10385 0
-10385 10414 0
-746 -10385 10386 0
-10386 10415 0
-747 -10386 10387 0
-10387 10416 0
-748 -10387 0
-720 10388 0
-10388 10417 0
-721 -10388 10389 0
-10389 10418 0
-722 -10389 10390 0
-10390 10419 0
-723 -10390 10391 0
-10391 10420 0
-724 -10391 10392 0
-10392 10421 0
-725 -10392 10393 0
-10393 10422 0
-726 -10393 10394 0
-10394 10423 0
-727 -10394 10395 0
-10395 10424 0
-728 -10395 10396 0
-10396 10425 0
-729 -10396 10397 0
-10397 10426 0
-730 -10397 10398 0
-10398 10427 0
-731 -10398 10399 0
-10399 10428 0
-732 -10399 10400 0
-10400 10429 0
-733 -10400 10401 0
-10401 10430 0
-734 -10401 10402 0
-10402 10431 0
-735 -10402 10403 0
-10403 10432 0
-736 -10403 10404 0
-10404 10433 0
-737 -10404 10405 0
-10405 10434 0
-738 -10405 10406 0
-10406 10435 0
-739 -10406 10407 0
-10407 10436 0
-740 -10407 10408 0
-10408 10437 0
-741 -10408 10409 0
-10409 10438 0
-742 -10409 10410 0
-10410 10439 0
-743 -10410 10411 0
-10411 10440 0
-744 -10411 10412 0
-10412 10441 0
-745 -10412 10413 0
-10413 10442 0
-746 -10413 10414 0
-10414 10443 0
-747 -10414 10415 0
-10415 10444 0
-748 -10415 10416 0
-10416 10445 0
-749 -10416 0
-721 10417 0
-10417 10446 0
-722 -10417 10418 0
-10418 10447 0
-723 -10418 10419 0
-10419 10448 0
-724 -10419 10420 0
-10420 10449 0
-725 -10420 10421 0
-10421 10450 0
-726 -10421 10422 0
-10422 10451 0
-727 -10422 10423 0
-10423 10452 0
-728 -10423 10424 0
-10424 10453 0
-729 -10424 10425 0
-10425 10454 0
-730 -10425 10426 0
-10426 10455 0
-731 -10426 10427 0
-10427 10456 0
-732 -10427 10428 0
-10428 10457 0
-733 -10428 10429 0
-10429 10458 0
-734 -10429 10430 0
-10430 10459 0
-735 -10430 10431 0
-10431 10460 0
-736 -10431 10432 0
-10432 10461 0
-737 -10432 10433 0
-10433 10462 0
-738 -10433 10434 0
-10434 10463 0
-739 -10434 10435 0
-10435 10464 0
-740 -10435 10436 0
-10436 10465 0
-741 -10436 10437 0
-10437 10466 0
-742 -10437 10438 0
-10438 10467 0
-743 -10438 10439 0
-10439 10468 0
-744 -10439 10440 0
-10440 10469 0
-745 -10440 10441 0
-10441 10470 0
-746 -10441 10442 0
-10442 10471 0
-747 -10442 10443 0
-10443 10472 0
-748 -10443 10444 0
-10444 10473 0
-749 -10444 10445 0
-10445 10474 0
-750 -10445 0
-722 10446 0
-10446 10475 0
-723 -10446 10447 0
-10447 10476 0
-724 -10447 10448 0
-10448 10477 0
-725 -10448 10449 0
-10449 10478 0
-726 -10449 10450 0
-10450 10479 0
-727 -10450 10451 0
-10451 10480 0
-728 -10451 10452 0
-10452 10481 0
-729 -10452 10453 0
-10453 10482 0
-730 -10453 10454 0
-10454 10483 0
-731 -10454 10455 0
-10455 10484 0
-732 -10455 10456 0
-10456 10485 0
-733 -10456 10457 0
-10457 10486 0
-734 -10457 10458 0
-10458 10487 0
-735 -10458 10459 0
-10459 10488 0
-736 -10459 10460 0
-10460 10489 0
-737 -10460 10461 0
-10461 10490 0
-738 -10461 10462 0
-10462 10491 0
-739 -10462 10463 0
-10463 10492 0
-740 -10463 10464 0
-10464 10493 0
-741 -10464 10465 0
-10465 10494 0
-742 -10465 10466 0
-10466 10495 0
-743 -10466 10467 0
-10467 10496 0
-744 -10467 10468 0
-10468 10497 0
-745 -10468 10469 0
-10469 10498 0
-746 -10469 10470 0
-10470 10499 0
-747 -10470 10471 0
-10471 10500 0
-748 -10471 10472 0
-10472 10501 0
-749 -10472 10473 0
-10473 10502 0
-750 -10473 10474 0
-10474 10503 0
-751 -10474 0
-723 10475 0
-10475 10504 0
-724 -10475 10476 0
-10476 10505 0
-725 -10476 10477 0
-10477 10506 0
-726 -10477 10478 0
-10478 10507 0
-727 -10478 10479 0
-10479 10508 0
-728 -10479 10480 0
-10480 10509 0
-729 -10480 10481 0
-10481 10510 0
-730 -10481 10482 0
-10482 10511 0
-731 -10482 10483 0
-10483 10512 0
-732 -10483 10484 0
-10484 10513 0
-733 -10484 10485 0
-10485 10514 0
-734 -10485 10486 0
-10486 10515 0
-735 -10486 10487 0
-10487 10516 0
-736 -10487 10488 0
-10488 10517 0
-737 -10488 10489 0
-10489 10518 0
-738 -10489 10490 0
-10490 10519 0
-739 -10490 10491 0
-10491 10520 0
-740 -10491 10492 0
-10492 10521 0
-741 -10492 10493 0
-10493 10522 0
-742 -10493 10494 0
-10494 10523 0
-743 -10494 10495 0
-10495 10524 0
-744 -10495 10496 0
-10496 10525 0
-745 -10496 10497 0
-10497 10526 0
-746 -10497 10498 0
-10498 10527 0
-747 -10498 10499 0
-10499 10528 0
-748 -10499 10500 0
-10500 10529 0
-749 -10500 10501 0
-10501 10530 0
-750 -10501 10502 0
-10502 10531 0
-751 -10502 10503 0
-10503 10532 0
-752 -10503 0
-724 10504 0
-10504 10533 0
-725 -10504 10505 0
-10505 10534 0
-726 -10505 10506 0
-10506 10535 0
-727 -10506 10507 0
-10507 10536 0
-728 -10507 10508 0
-10508 10537 0
-729 -10508 10509 0
-10509 10538 0
-730 -10509 10510 0
-10510 10539 0
-731 -10510 10511 0
-10511 10540 0
-732 -10511 10512 0
-10512 10541 0
-733 -10512 10513 0
-10513 10542 0
-734 -10513 10514 0
-10514 10543 0
-735 -10514 10515 0
-10515 10544 0
-736 -10515 10516 0
-10516 10545 0
-737 -10516 10517 0
-10517 10546 0
-738 -10517 10518 0
-10518 10547 0
-739 -10518 10519 0
-10519 10548 0
-740 -10519 10520 0
-10520 10549 0
-741 -10520 10521 0
-10521 10550 0
-742 -10521 10522 0
-10522 10551 0
-743 -10522 10523 0
-10523 10552 0
-744 -10523 10524 0
-10524 10553 0
-745 -10524 10525 0
-10525 10554 0
-746 -10525 10526 0
-10526 10555 0
-747 -10526 10527 0
-10527 10556 0
-748 -10527 10528 0
-10528 10557 0
-749 -10528 10529 0
-10529 10558 0
-750 -10529 10530 0
-10530 10559 0
-751 -10530 10531 0
-10531 10560 0
-752 -10531 10532 0
-10532 10561 0
-753 -10532 0
-725 10533 0
-10533 10562 0
-726 -10533 10534 0
-10534 10563 0
-727 -10534 10535 0
-10535 10564 0
-728 -10535 10536 0
-10536 10565 0
-729 -10536 10537 0
-10537 10566 0
-730 -10537 10538 0
-10538 10567 0
-731 -10538 10539 0
-10539 10568 0
-732 -10539 10540 0
-10540 10569 0
-733 -10540 10541 0
-10541 10570 0
-734 -10541 10542 0
-10542 10571 0
-735 -10542 10543 0
-10543 10572 0
-736 -10543 10544 0
-10544 10573 0
-737 -10544 10545 0
-10545 10574 0
-738 -10545 10546 0
-10546 10575 0
-739 -10546 10547 0
-10547 10576 0
-740 -10547 10548 0
-10548 10577 0
-741 -10548 10549 0
-10549 10578 0
-742 -10549 10550 0
-10550 10579 0
-743 -10550 10551 0
-10551 10580 0
-744 -10551 10552 0
-10552 10581 0
-745 -10552 10553 0
-10553 10582 0
-746 -10553 10554 0
-10554 10583 0
-747 -10554 10555 0
-10555 10584 0
-748 -10555 10556 0
-10556 10585 0
-749 -10556 10557 0
-10557 10586 0
-750 -10557 10558 0
-10558 10587 0
-751 -10558 10559 0
-10559 10588 0
-752 -10559 10560 0
-10560 10589 0
-753 -10560 10561 0
-10561 10590 0
-754 -10561 0
-726 10562 0
-10562 10591 0
-727 -10562 10563 0
-10563 10592 0
-728 -10563 10564 0
-10564 10593 0
-729 -10564 10565 0
-10565 10594 0
-730 -10565 10566 0
-10566 10595 0
-731 -10566 10567 0
-10567 10596 0
-732 -10567 10568 0
-10568 10597 0
-733 -10568 10569 0
-10569 10598 0
-734 -10569 10570 0
-10570 10599 0
-735 -10570 10571 0
-10571 10600 0
-736 -10571 10572 0
-10572 10601 0
-737 -10572 10573 0
-10573 10602 0
-738 -10573 10574 0
-10574 10603 0
-739 -10574 10575 0
-10575 10604 0
-740 -10575 10576 0
-10576 10605 0
-741 -10576 10577 0
-10577 10606 0
-742 -10577 10578 0
-10578 10607 0
-743 -10578 10579 0
-10579 10608 0
-744 -10579 10580 0
-10580 10609 0
-745 -10580 10581 0
-10581 10610 0
-746 -10581 10582 0
-10582 10611 0
-747 -10582 10583 0
-10583 10612 0
-748 -10583 10584 0
-10584 10613 0
-749 -10584 10585 0
-10585 10614 0
-750 -10585 10586 0
-10586 10615 0
-751 -10586 10587 0
-10587 10616 0
-752 -10587 10588 0
-10588 10617 0
-753 -10588 10589 0
-10589 10618 0
-754 -10589 10590 0
-10590 10619 0
-755 -10590 0
-727 10591 0
-10591 10620 0
-728 -10591 10592 0
-10592 10621 0
-729 -10592 10593 0
-10593 10622 0
-730 -10593 10594 0
-10594 10623 0
-731 -10594 10595 0
-10595 10624 0
-732 -10595 10596 0
-10596 10625 0
-733 -10596 10597 0
-10597 10626 0
-734 -10597 10598 0
-10598 10627 0
-735 -10598 10599 0
-10599 10628 0
-736 -10599 10600 0
-10600 10629 0
-737 -10600 10601 0
-10601 10630 0
-738 -10601 10602 0
-10602 10631 0
-739 -10602 10603 0
-10603 10632 0
-740 -10603 10604 0
-10604 10633 0
-741 -10604 10605 0
-10605 10634 0
-742 -10605 10606 0
-10606 10635 0
-743 -10606 10607 0
-10607 10636 0
-744 -10607 10608 0
-10608 10637 0
-745 -10608 10609 0
-10609 10638 0
-746 -10609 10610 0
-10610 10639 0
-747 -10610 10611 0
-10611 10640 0
-748 -10611 10612 0
-10612 10641 0
-749 -10612 10613 0
-10613 10642 0
-750 -10613 10614 0
-10614 10643 0
-751 -10614 10615 0
-10615 10644 0
-752 -10615 10616 0
-10616 10645 0
-753 -10616 10617 0
-10617 10646 0
-754 -10617 10618 0
-10618 10647 0
-755 -10618 10619 0
-10619 10648 0
-756 -10619 0
-728 10620 0
-10620 10649 0
-729 -10620 10621 0
-10621 10650 0
-730 -10621 10622 0
-10622 10651 0
-731 -10622 10623 0
-10623 10652 0
-732 -10623 10624 0
-10624 10653 0
-733 -10624 10625 0
-10625 10654 0
-734 -10625 10626 0
-10626 10655 0
-735 -10626 10627 0
-10627 10656 0
-736 -10627 10628 0
-10628 10657 0
-737 -10628 10629 0
-10629 10658 0
-738 -10629 10630 0
-10630 10659 0
-739 -10630 10631 0
-10631 10660 0
-740 -10631 10632 0
-10632 10661 0
-741 -10632 10633 0
-10633 10662 0
-742 -10633 10634 0
-10634 10663 0
-743 -10634 10635 0
-10635 10664 0
-744 -10635 10636 0
-10636 10665 0
-745 -10636 10637 0
-10637 10666 0
-746 -10637 10638 0
-10638 10667 0
-747 -10638 10639 0
-10639 10668 0
-748 -10639 10640 0
-10640 10669 0
-749 -10640 10641 0
-10641 10670 0
-750 -10641 10642 0
-10642 10671 0
-751 -10642 10643 0
-10643 10672 0
-752 -10643 10644 0
-10644 10673 0
-753 -10644 10645 0
-10645 10674 0
-754 -10645 10646 0
-10646 10675 0
-755 -10646 10647 0
-10647 10676 0
-756 -10647 10648 0
-10648 10677 0
-757 -10648 0
-729 10649 0
-10649 10678 0
-730 -10649 10650 0
-10650 10679 0
-731 -10650 10651 0
-10651 10680 0
-732 -10651 10652 0
-10652 10681 0
-733 -10652 10653 0
-10653 10682 0
-734 -10653 10654 0
-10654 10683 0
-735 -10654 10655 0
-10655 10684 0
-736 -10655 10656 0
-10656 10685 0
-737 -10656 10657 0
-10657 10686 0
-738 -10657 10658 0
-10658 10687 0
-739 -10658 10659 0
-10659 10688 0
-740 -10659 10660 0
-10660 10689 0
-741 -10660 10661 0
-10661 10690 0
-742 -10661 10662 0
-10662 10691 0
-743 -10662 10663 0
-10663 10692 0
-744 -10663 10664 0
-10664 10693 0
-745 -10664 10665 0
-10665 10694 0
-746 -10665 10666 0
-10666 10695 0
-747 -10666 10667 0
-10667 10696 0
-748 -10667 10668 0
-10668 10697 0
-749 -10668 10669 0
-10669 10698 0
-750 -10669 10670 0
-10670 10699 0
-751 -10670 10671 0
-10671 10700 0
-752 -10671 10672 0
-10672 10701 0
-753 -10672 10673 0
-10673 10702 0
-754 -10673 10674 0
-10674 10703 0
-755 -10674 10675 0
-10675 10704 0
-756 -10675 10676 0
-10676 10705 0
-757 -10676 10677 0
-10677 10706 0
-758 -10677 0
-730 10678 0
-10678 10707 0
-731 -10678 10679 0
-10679 10708 0
-732 -10679 10680 0
-10680 10709 0
-733 -10680 10681 0
-10681 10710 0
-734 -10681 10682 0
-10682 10711 0
-735 -10682 10683 0
-10683 10712 0
-736 -10683 10684 0
-10684 10713 0
-737 -10684 10685 0
-10685 10714 0
-738 -10685 10686 0
-10686 10715 0
-739 -10686 10687 0
-10687 10716 0
-740 -10687 10688 0
-10688 10717 0
-741 -10688 10689 0
-10689 10718 0
-742 -10689 10690 0
-10690 10719 0
-743 -10690 10691 0
-10691 10720 0
-744 -10691 10692 0
-10692 10721 0
-745 -10692 10693 0
-10693 10722 0
-746 -10693 10694 0
-10694 10723 0
-747 -10694 10695 0
-10695 10724 0
-748 -10695 10696 0
-10696 10725 0
-749 -10696 10697 0
-10697 10726 0
-750 -10697 10698 0
-10698 10727 0
-751 -10698 10699 0
-10699 10728 0
-752 -10699 10700 0
-10700 10729 0
-753 -10700 10701 0
-10701 10730 0
-754 -10701 10702 0
-10702 10731 0
-755 -10702 10703 0
-10703 10732 0
-756 -10703 10704 0
-10704 10733 0
-757 -10704 10705 0
-10705 10734 0
-758 -10705 10706 0
-10706 10735 0
-759 -10706 0
-731 10707 0
-10707 10736 0
-732 -10707 10708 0
-10708 10737 0
-733 -10708 10709 0
-10709 10738 0
-734 -10709 10710 0
-10710 10739 0
-735 -10710 10711 0
-10711 10740 0
-736 -10711 10712 0
-10712 10741 0
-737 -10712 10713 0
-10713 10742 0
-738 -10713 10714 0
-10714 10743 0
-739 -10714 10715 0
-10715 10744 0
-740 -10715 10716 0
-10716 10745 0
-741 -10716 10717 0
-10717 10746 0
-742 -10717 10718 0
-10718 10747 0
-743 -10718 10719 0
-10719 10748 0
-744 -10719 10720 0
-10720 10749 0
-745 -10720 10721 0
-10721 10750 0
-746 -10721 10722 0
-10722 10751 0
-747 -10722 10723 0
-10723 10752 0
-748 -10723 10724 0
-10724 10753 0
-749 -10724 10725 0
-10725 10754 0
-750 -10725 10726 0
-10726 10755 0
-751 -10726 10727 0
-10727 10756 0
-752 -10727 10728 0
-10728 10757 0
-753 -10728 10729 0
-10729 10758 0
-754 -10729 10730 0
-10730 10759 0
-755 -10730 10731 0
-10731 10760 0
-756 -10731 10732 0
-10732 10761 0
-757 -10732 10733 0
-10733 10762 0
-758 -10733 10734 0
-10734 10763 0
-759 -10734 10735 0
-10735 10764 0
-760 -10735 0
-732 10736 0
-10736 10765 0
-733 -10736 10737 0
-10737 10766 0
-734 -10737 10738 0
-10738 10767 0
-735 -10738 10739 0
-10739 10768 0
-736 -10739 10740 0
-10740 10769 0
-737 -10740 10741 0
-10741 10770 0
-738 -10741 10742 0
-10742 10771 0
-739 -10742 10743 0
-10743 10772 0
-740 -10743 10744 0
-10744 10773 0
-741 -10744 10745 0
-10745 10774 0
-742 -10745 10746 0
-10746 10775 0
-743 -10746 10747 0
-10747 10776 0
-744 -10747 10748 0
-10748 10777 0
-745 -10748 10749 0
-10749 10778 0
-746 -10749 10750 0
-10750 10779 0
-747 -10750 10751 0
-10751 10780 0
-748 -10751 10752 0
-10752 10781 0
-749 -10752 10753 0
-10753 10782 0
-750 -10753 10754 0
-10754 10783 0
-751 -10754 10755 0
-10755 10784 0
-752 -10755 10756 0
-10756 10785 0
-753 -10756 10757 0
-10757 10786 0
-754 -10757 10758 0
-10758 10787 0
-755 -10758 10759 0
-10759 10788 0
-756 -10759 10760 0
-10760 10789 0
-757 -10760 10761 0
-10761 10790 0
-758 -10761 10762 0
-10762 10791 0
-759 -10762 10763 0
-10763 10792 0
-760 -10763 10764 0
-10764 10793 0
-761 -10764 0
-733 10765 0
-10765 10794 0
-734 -10765 10766 0
-10766 10795 0
-735 -10766 10767 0
-10767 10796 0
-736 -10767 10768 0
-10768 10797 0
-737 -10768 10769 0
-10769 10798 0
-738 -10769 10770 0
-10770 10799 0
-739 -10770 10771 0
-10771 10800 0
-740 -10771 10772 0
-10772 10801 0
-741 -10772 10773 0
-10773 10802 0
-742 -10773 10774 0
-10774 10803 0
-743 -10774 10775 0
-10775 10804 0
-744 -10775 10776 0
-10776 10805 0
-745 -10776 10777 0
-10777 10806 0
-746 -10777 10778 0
-10778 10807 0
-747 -10778 10779 0
-10779 10808 0
-748 -10779 10780 0
-10780 10809 0
-749 -10780 10781 0
-10781 10810 0
-750 -10781 10782 0
-10782 10811 0
-751 -10782 10783 0
-10783 10812 0
-752 -10783 10784 0
-10784 10813 0
-753 -10784 10785 0
-10785 10814 0
-754 -10785 10786 0
-10786 10815 0
-755 -10786 10787 0
-10787 10816 0
-756 -10787 10788 0
-10788 10817 0
-757 -10788 10789 0
-10789 10818 0
-758 -10789 10790 0
-10790 10819 0
-759 -10790 10791 0
-10791 10820 0
-760 -10791 10792 0
-10792 10821 0
-761 -10792 10793 0
-10793 10822 0
-762 -10793 0
-734 10794 0
-10794 10823 0
-735 -10794 10795 0
-10795 10824 0
-736 -10795 10796 0
-10796 10825 0
-737 -10796 10797 0
-10797 10826 0
-738 -10797 10798 0
-10798 10827 0
-739 -10798 10799 0
-10799 10828 0
-740 -10799 10800 0
-10800 10829 0
-741 -10800 10801 0
-10801 10830 0
-742 -10801 10802 0
-10802 10831 0
-743 -10802 10803 0
-10803 10832 0
-744 -10803 10804 0
-10804 10833 0
-745 -10804 10805 0
-10805 10834 0
-746 -10805 10806 0
-10806 10835 0
-747 -10806 10807 0
-10807 10836 0
-748 -10807 10808 0
-10808 10837 0
-749 -10808 10809 0
-10809 10838 0
-750 -10809 10810 0
-10810 10839 0
-751 -10810 10811 0
-10811 10840 0
-752 -10811 10812 0
-10812 10841 0
-753 -10812 10813 0
-10813 10842 0
-754 -10813 10814 0
-10814 10843 0
-755 -10814 10815 0
-10815 10844 0
-756 -10815 10816 0
-10816 10845 0
-757 -10816 10817 0
-10817 10846 0
-758 -10817 10818 0
-10818 10847 0
-759 -10818 10819 0
-10819 10848 0
-760 -10819 10820 0
-10820 10849 0
-761 -10820 10821 0
-10821 10850 0
-762 -10821 10822 0
-10822 10851 0
-763 -10822 0
-735 10823 0
-10823 10852 0
-736 -10823 10824 0
-10824 10853 0
-737 -10824 10825 0
-10825 10854 0
-738 -10825 10826 0
-10826 10855 0
-739 -10826 10827 0
-10827 10856 0
-740 -10827 10828 0
-10828 10857 0
-741 -10828 10829 0
-10829 10858 0
-742 -10829 10830 0
-10830 10859 0
-743 -10830 10831 0
-10831 10860 0
-744 -10831 10832 0
-10832 10861 0
-745 -10832 10833 0
-10833 10862 0
-746 -10833 10834 0
-10834 10863 0
-747 -10834 10835 0
-10835 10864 0
-748 -10835 10836 0
-10836 10865 0
-749 -10836 10837 0
-10837 10866 0
-750 -10837 10838 0
-10838 10867 0
-751 -10838 10839 0
-10839 10868 0
-752 -10839 10840 0
-10840 10869 0
-753 -10840 10841 0
-10841 10870 0
-754 -10841 10842 0
-10842 10871 0
-755 -10842 10843 0
-10843 10872 0
-756 -10843 10844 0
-10844 10873 0
-757 -10844 10845 0
-10845 10874 0
-758 -10845 10846 0
-10846 10875 0
-759 -10846 10847 0
-10847 10876 0
-760 -10847 10848 0
-10848 10877 0
-761 -10848 10849 0
-10849 10878 0
-762 -10849 10850 0
-10850 10879 0
-763 -10850 10851 0
-10851 10880 0
-764 -10851 0
-736 10852 0
-10852 10881 0
-737 -10852 10853 0
-10853 10882 0
-738 -10853 10854 0
-10854 10883 0
-739 -10854 10855 0
-10855 10884 0
-740 -10855 10856 0
-10856 10885 0
-741 -10856 10857 0
-10857 10886 0
-742 -10857 10858 0
-10858 10887 0
-743 -10858 10859 0
-10859 10888 0
-744 -10859 10860 0
-10860 10889 0
-745 -10860 10861 0
-10861 10890 0
-746 -10861 10862 0
-10862 10891 0
-747 -10862 10863 0
-10863 10892 0
-748 -10863 10864 0
-10864 10893 0
-749 -10864 10865 0
-10865 10894 0
-750 -10865 10866 0
-10866 10895 0
-751 -10866 10867 0
-10867 10896 0
-752 -10867 10868 0
-10868 10897 0
-753 -10868 10869 0
-10869 10898 0
-754 -10869 10870 0
-10870 10899 0
-755 -10870 10871 0
-10871 10900 0
-756 -10871 10872 0
-10872 10901 0
-757 -10872 10873 0
-10873 10902 0
-758 -10873 10874 0
-10874 10903 0
-759 -10874 10875 0
-10875 10904 0
-760 -10875 10876 0
-10876 10905 0
-761 -10876 10877 0
-10877 10906 0
-762 -10877 10878 0
-10878 10907 0
-763 -10878 10879 0
-10879 10908 0
-764 -10879 10880 0
-10880 10909 0
-765 -10880 0
-737 10881 0
-10881 10910 0
-738 -10881 10882 0
-10882 10911 0
-739 -10882 10883 0
-10883 10912 0
-740 -10883 10884 0
-10884 10913 0
-741 -10884 10885 0
-10885 10914 0
-742 -10885 10886 0
-10886 10915 0
-743 -10886 10887 0
-10887 10916 0
-744 -10887 10888 0
-10888 10917 0
-745 -10888 10889 0
-10889 10918 0
-746 -10889 10890 0
-10890 10919 0
-747 -10890 10891 0
-10891 10920 0
-748 -10891 10892 0
-10892 10921 0
-749 -10892 10893 0
-10893 10922 0
-750 -10893 10894 0
-10894 10923 0
-751 -10894 10895 0
-10895 10924 0
-752 -10895 10896 0
-10896 10925 0
-753 -10896 10897 0
-10897 10926 0
-754 -10897 10898 0
-10898 10927 0
-755 -10898 10899 0
-10899 10928 0
-756 -10899 10900 0
-10900 10929 0
-757 -10900 10901 0
-10901 10930 0
-758 -10901 10902 0
-10902 10931 0
-759 -10902 10903 0
-10903 10932 0
-760 -10903 10904 0
-10904 10933 0
-761 -10904 10905 0
-10905 10934 0
-762 -10905 10906 0
-10906 10935 0
-763 -10906 10907 0
-10907 10936 0
-764 -10907 10908 0
-10908 10937 0
-765 -10908 10909 0
-10909 10938 0
-766 -10909 0
-738 10910 0
-10910 10939 0
-739 -10910 10911 0
-10911 10940 0
-740 -10911 10912 0
-10912 10941 0
-741 -10912 10913 0
-10913 10942 0
-742 -10913 10914 0
-10914 10943 0
-743 -10914 10915 0
-10915 10944 0
-744 -10915 10916 0
-10916 10945 0
-745 -10916 10917 0
-10917 10946 0
-746 -10917 10918 0
-10918 10947 0
-747 -10918 10919 0
-10919 10948 0
-748 -10919 10920 0
-10920 10949 0
-749 -10920 10921 0
-10921 10950 0
-750 -10921 10922 0
-10922 10951 0
-751 -10922 10923 0
-10923 10952 0
-752 -10923 10924 0
-10924 10953 0
-753 -10924 10925 0
-10925 10954 0
-754 -10925 10926 0
-10926 10955 0
-755 -10926 10927 0
-10927 10956 0
-756 -10927 10928 0
-10928 10957 0
-757 -10928 10929 0
-10929 10958 0
-758 -10929 10930 0
-10930 10959 0
-759 -10930 10931 0
-10931 10960 0
-760 -10931 10932 0
-10932 10961 0
-761 -10932 10933 0
-10933 10962 0
-762 -10933 10934 0
-10934 10963 0
-763 -10934 10935 0
-10935 10964 0
-764 -10935 10936 0
-10936 10965 0
-765 -10936 10937 0
-10937 10966 0
-766 -10937 10938 0
-10938 10967 0
-767 -10938 0
-739 10939 0
-10939 10968 0
-740 -10939 10940 0
-10940 10969 0
-741 -10940 10941 0
-10941 10970 0
-742 -10941 10942 0
-10942 10971 0
-743 -10942 10943 0
-10943 10972 0
-744 -10943 10944 0
-10944 10973 0
-745 -10944 10945 0
-10945 10974 0
-746 -10945 10946 0
-10946 10975 0
-747 -10946 10947 0
-10947 10976 0
-748 -10947 10948 0
-10948 10977 0
-749 -10948 10949 0
-10949 10978 0
-750 -10949 10950 0
-10950 10979 0
-751 -10950 10951 0
-10951 10980 0
-752 -10951 10952 0
-10952 10981 0
-753 -10952 10953 0
-10953 10982 0
-754 -10953 10954 0
-10954 10983 0
-755 -10954 10955 0
-10955 10984 0
-756 -10955 10956 0
-10956 10985 0
-757 -10956 10957 0
-10957 10986 0
-758 -10957 10958 0
-10958 10987 0
-759 -10958 10959 0
-10959 10988 0
-760 -10959 10960 0
-10960 10989 0
-761 -10960 10961 0
-10961 10990 0
-762 -10961 10962 0
-10962 10991 0
-763 -10962 10963 0
-10963 10992 0
-764 -10963 10964 0
-10964 10993 0
-765 -10964 10965 0
-10965 10994 0
-766 -10965 10966 0
-10966 10995 0
-767 -10966 10967 0
-10967 10996 0
-768 -10967 0
-740 10968 0
-10968 10997 0
-741 -10968 10969 0
-10969 10998 0
-742 -10969 10970 0
-10970 10999 0
-743 -10970 10971 0
-10971 11000 0
-744 -10971 10972 0
-10972 11001 0
-745 -10972 10973 0
-10973 11002 0
-746 -10973 10974 0
-10974 11003 0
-747 -10974 10975 0
-10975 11004 0
-748 -10975 10976 0
-10976 11005 0
-749 -10976 10977 0
-10977 11006 0
-750 -10977 10978 0
-10978 11007 0
-751 -10978 10979 0
-10979 11008 0
-752 -10979 10980 0
-10980 11009 0
-753 -10980 10981 0
-10981 11010 0
-754 -10981 10982 0
-10982 11011 0
-755 -10982 10983 0
-10983 11012 0
-756 -10983 10984 0
-10984 11013 0
-757 -10984 10985 0
-10985 11014 0
-758 -10985 10986 0
-10986 11015 0
-759 -10986 10987 0
-10987 11016 0
-760 -10987 10988 0
-10988 11017 0
-761 -10988 10989 0
-10989 11018 0
-762 -10989 10990 0
-10990 11019 0
-763 -10990 10991 0
-10991 11020 0
-764 -10991 10992 0
-10992 11021 0
-765 -10992 10993 0
-10993 11022 0
-766 -10993 10994 0
-10994 11023 0
-767 -10994 10995 0
-10995 11024 0
-768 -10995 10996 0
-10996 11025 0
-769 -10996 0
-741 10997 0
-10997 11026 0
-742 -10997 10998 0
-10998 11027 0
-743 -10998 10999 0
-10999 11028 0
-744 -10999 11000 0
-11000 11029 0
-745 -11000 11001 0
-11001 11030 0
-746 -11001 11002 0
-11002 11031 0
-747 -11002 11003 0
-11003 11032 0
-748 -11003 11004 0
-11004 11033 0
-749 -11004 11005 0
-11005 11034 0
-750 -11005 11006 0
-11006 11035 0
-751 -11006 11007 0
-11007 11036 0
-752 -11007 11008 0
-11008 11037 0
-753 -11008 11009 0
-11009 11038 0
-754 -11009 11010 0
-11010 11039 0
-755 -11010 11011 0
-11011 11040 0
-756 -11011 11012 0
-11012 11041 0
-757 -11012 11013 0
-11013 11042 0
-758 -11013 11014 0
-11014 11043 0
-759 -11014 11015 0
-11015 11044 0
-760 -11015 11016 0
-11016 11045 0
-761 -11016 11017 0
-11017 11046 0
-762 -11017 11018 0
-11018 11047 0
-763 -11018 11019 0
-11019 11048 0
-764 -11019 11020 0
-11020 11049 0
-765 -11020 11021 0
-11021 11050 0
-766 -11021 11022 0
-11022 11051 0
-767 -11022 11023 0
-11023 11052 0
-768 -11023 11024 0
-11024 11053 0
-769 -11024 11025 0
-11025 11054 0
-770 -11025 0
-742 11026 0
-11026 11055 0
-743 -11026 11027 0
-11027 11056 0
-744 -11027 11028 0
-11028 11057 0
-745 -11028 11029 0
-11029 11058 0
-746 -11029 11030 0
-11030 11059 0
-747 -11030 11031 0
-11031 11060 0
-748 -11031 11032 0
-11032 11061 0
-749 -11032 11033 0
-11033 11062 0
-750 -11033 11034 0
-11034 11063 0
-751 -11034 11035 0
-11035 11064 0
-752 -11035 11036 0
-11036 11065 0
-753 -11036 11037 0
-11037 11066 0
-754 -11037 11038 0
-11038 11067 0
-755 -11038 11039 0
-11039 11068 0
-756 -11039 11040 0
-11040 11069 0
-757 -11040 11041 0
-11041 11070 0
-758 -11041 11042 0
-11042 11071 0
-759 -11042 11043 0
-11043 11072 0
-760 -11043 11044 0
-11044 11073 0
-761 -11044 11045 0
-11045 11074 0
-762 -11045 11046 0
-11046 11075 0
-763 -11046 11047 0
-11047 11076 0
-764 -11047 11048 0
-11048 11077 0
-765 -11048 11049 0
-11049 11078 0
-766 -11049 11050 0
-11050 11079 0
-767 -11050 11051 0
-11051 11080 0
-768 -11051 11052 0
-11052 11081 0
-769 -11052 11053 0
-11053 11082 0
-770 -11053 11054 0
-11054 11083 0
-771 -11054 0
-743 11055 0
-11055 11084 0
-744 -11055 11056 0
-11056 11085 0
-745 -11056 11057 0
-11057 11086 0
-746 -11057 11058 0
-11058 11087 0
-747 -11058 11059 0
-11059 11088 0
-748 -11059 11060 0
-11060 11089 0
-749 -11060 11061 0
-11061 11090 0
-750 -11061 11062 0
-11062 11091 0
-751 -11062 11063 0
-11063 11092 0
-752 -11063 11064 0
-11064 11093 0
-753 -11064 11065 0
-11065 11094 0
-754 -11065 11066 0
-11066 11095 0
-755 -11066 11067 0
-11067 11096 0
-756 -11067 11068 0
-11068 11097 0
-757 -11068 11069 0
-11069 11098 0
-758 -11069 11070 0
-11070 11099 0
-759 -11070 11071 0
-11071 11100 0
-760 -11071 11072 0
-11072 11101 0
-761 -11072 11073 0
-11073 11102 0
-762 -11073 11074 0
-11074 11103 0
-763 -11074 11075 0
-11075 11104 0
-764 -11075 11076 0
-11076 11105 0
-765 -11076 11077 0
-11077 11106 0
-766 -11077 11078 0
-11078 11107 0
-767 -11078 11079 0
-11079 11108 0
-768 -11079 11080 0
-11080 11109 0
-769 -11080 11081 0
-11081 11110 0
-770 -11081 11082 0
-11082 11111 0
-771 -11082 11083 0
-11083 11112 0
-772 -11083 0
-744 11084 0
-11084 11113 0
-745 -11084 11085 0
-11085 11114 0
-746 -11085 11086 0
-11086 11115 0
-747 -11086 11087 0
-11087 11116 0
-748 -11087 11088 0
-11088 11117 0
-749 -11088 11089 0
-11089 11118 0
-750 -11089 11090 0
-11090 11119 0
-751 -11090 11091 0
-11091 11120 0
-752 -11091 11092 0
-11092 11121 0
-753 -11092 11093 0
-11093 11122 0
-754 -11093 11094 0
-11094 11123 0
-755 -11094 11095 0
-11095 11124 0
-756 -11095 11096 0
-11096 11125 0
-757 -11096 11097 0
-11097 11126 0
-758 -11097 11098 0
-11098 11127 0
-759 -11098 11099 0
-11099 11128 0
-760 -11099 11100 0
-11100 11129 0
-761 -11100 11101 0
-11101 11130 0
-762 -11101 11102 0
-11102 11131 0
-763 -11102 11103 0
-11103 11132 0
-764 -11103 11104 0
-11104 11133 0
-765 -11104 11105 0
-11105 11134 0
-766 -11105 11106 0
-11106 11135 0
-767 -11106 11107 0
-11107 11136 0
-768 -11107 11108 0
-11108 11137 0
-769 -11108 11109 0
-11109 11138 0
-770 -11109 11110 0
-11110 11139 0
-771 -11110 11111 0
-11111 11140 0
-772 -11111 11112 0
-11112 11141 0
-773 -11112 0
-745 11113 0
-11113 11142 0
-746 -11113 11114 0
-11114 11143 0
-747 -11114 11115 0
-11115 11144 0
-748 -11115 11116 0
-11116 11145 0
-749 -11116 11117 0
-11117 11146 0
-750 -11117 11118 0
-11118 11147 0
-751 -11118 11119 0
-11119 11148 0
-752 -11119 11120 0
-11120 11149 0
-753 -11120 11121 0
-11121 11150 0
-754 -11121 11122 0
-11122 11151 0
-755 -11122 11123 0
-11123 11152 0
-756 -11123 11124 0
-11124 11153 0
-757 -11124 11125 0
-11125 11154 0
-758 -11125 11126 0
-11126 11155 0
-759 -11126 11127 0
-11127 11156 0
-760 -11127 11128 0
-11128 11157 0
-761 -11128 11129 0
-11129 11158 0
-762 -11129 11130 0
-11130 11159 0
-763 -11130 11131 0
-11131 11160 0
-764 -11131 11132 0
-11132 11161 0
-765 -11132 11133 0
-11133 11162 0
-766 -11133 11134 0
-11134 11163 0
-767 -11134 11135 0
-11135 11164 0
-768 -11135 11136 0
-11136 11165 0
-769 -11136 11137 0
-11137 11166 0
-770 -11137 11138 0
-11138 11167 0
-771 -11138 11139 0
-11139 11168 0
-772 -11139 11140 0
-11140 11169 0
-773 -11140 11141 0
-11141 11170 0
-774 -11141 0
-746 11142 0
-11142 11171 0
-747 -11142 11143 0
-11143 11172 0
-748 -11143 11144 0
-11144 11173 0
-749 -11144 11145 0
-11145 11174 0
-750 -11145 11146 0
-11146 11175 0
-751 -11146 11147 0
-11147 11176 0
-752 -11147 11148 0
-11148 11177 0
-753 -11148 11149 0
-11149 11178 0
-754 -11149 11150 0
-11150 11179 0
-755 -11150 11151 0
-11151 11180 0
-756 -11151 11152 0
-11152 11181 0
-757 -11152 11153 0
-11153 11182 0
-758 -11153 11154 0
-11154 11183 0
-759 -11154 11155 0
-11155 11184 0
-760 -11155 11156 0
-11156 11185 0
-761 -11156 11157 0
-11157 11186 0
-762 -11157 11158 0
-11158 11187 0
-763 -11158 11159 0
-11159 11188 0
-764 -11159 11160 0
-11160 11189 0
-765 -11160 11161 0
-11161 11190 0
-766 -11161 11162 0
-11162 11191 0
-767 -11162 11163 0
-11163 11192 0
-768 -11163 11164 0
-11164 11193 0
-769 -11164 11165 0
-11165 11194 0
-770 -11165 11166 0
-11166 11195 0
-771 -11166 11167 0
-11167 11196 0
-772 -11167 11168 0
-11168 11197 0
-773 -11168 11169 0
-11169 11198 0
-774 -11169 11170 0
-11170 11199 0
-775 -11170 0
-747 11171 0
-11171 11200 0
-748 -11171 11172 0
-11172 11201 0
-749 -11172 11173 0
-11173 11202 0
-750 -11173 11174 0
-11174 11203 0
-751 -11174 11175 0
-11175 11204 0
-752 -11175 11176 0
-11176 11205 0
-753 -11176 11177 0
-11177 11206 0
-754 -11177 11178 0
-11178 11207 0
-755 -11178 11179 0
-11179 11208 0
-756 -11179 11180 0
-11180 11209 0
-757 -11180 11181 0
-11181 11210 0
-758 -11181 11182 0
-11182 11211 0
-759 -11182 11183 0
-11183 11212 0
-760 -11183 11184 0
-11184 11213 0
-761 -11184 11185 0
-11185 11214 0
-762 -11185 11186 0
-11186 11215 0
-763 -11186 11187 0
-11187 11216 0
-764 -11187 11188 0
-11188 11217 0
-765 -11188 11189 0
-11189 11218 0
-766 -11189 11190 0
-11190 11219 0
-767 -11190 11191 0
-11191 11220 0
-768 -11191 11192 0
-11192 11221 0
-769 -11192 11193 0
-11193 11222 0
-770 -11193 11194 0
-11194 11223 0
-771 -11194 11195 0
-11195 11224 0
-772 -11195 11196 0
-11196 11225 0
-773 -11196 11197 0
-11197 11226 0
-774 -11197 11198 0
-11198 11227 0
-775 -11198 11199 0
-11199 11228 0
-776 -11199 0
-748 11200 0
-11200 11229 0
-749 -11200 11201 0
-11201 11230 0
-750 -11201 11202 0
-11202 11231 0
-751 -11202 11203 0
-11203 11232 0
-752 -11203 11204 0
-11204 11233 0
-753 -11204 11205 0
-11205 11234 0
-754 -11205 11206 0
-11206 11235 0
-755 -11206 11207 0
-11207 11236 0
-756 -11207 11208 0
-11208 11237 0
-757 -11208 11209 0
-11209 11238 0
-758 -11209 11210 0
-11210 11239 0
-759 -11210 11211 0
-11211 11240 0
-760 -11211 11212 0
-11212 11241 0
-761 -11212 11213 0
-11213 11242 0
-762 -11213 11214 0
-11214 11243 0
-763 -11214 11215 0
-11215 11244 0
-764 -11215 11216 0
-11216 11245 0
-765 -11216 11217 0
-11217 11246 0
-766 -11217 11218 0
-11218 11247 0
-767 -11218 11219 0
-11219 11248 0
-768 -11219 11220 0
-11220 11249 0
-769 -11220 11221 0
-11221 11250 0
-770 -11221 11222 0
-11222 11251 0
-771 -11222 11223 0
-11223 11252 0
-772 -11223 11224 0
-11224 11253 0
-773 -11224 11225 0
-11225 11254 0
-774 -11225 11226 0
-11226 11255 0
-775 -11226 11227 0
-11227 11256 0
-776 -11227 11228 0
-11228 11257 0
-777 -11228 0
-749 11229 0
-11229 11258 0
-750 -11229 11230 0
-11230 11259 0
-751 -11230 11231 0
-11231 11260 0
-752 -11231 11232 0
-11232 11261 0
-753 -11232 11233 0
-11233 11262 0
-754 -11233 11234 0
-11234 11263 0
-755 -11234 11235 0
-11235 11264 0
-756 -11235 11236 0
-11236 11265 0
-757 -11236 11237 0
-11237 11266 0
-758 -11237 11238 0
-11238 11267 0
-759 -11238 11239 0
-11239 11268 0
-760 -11239 11240 0
-11240 11269 0
-761 -11240 11241 0
-11241 11270 0
-762 -11241 11242 0
-11242 11271 0
-763 -11242 11243 0
-11243 11272 0
-764 -11243 11244 0
-11244 11273 0
-765 -11244 11245 0
-11245 11274 0
-766 -11245 11246 0
-11246 11275 0
-767 -11246 11247 0
-11247 11276 0
-768 -11247 11248 0
-11248 11277 0
-769 -11248 11249 0
-11249 11278 0
-770 -11249 11250 0
-11250 11279 0
-771 -11250 11251 0
-11251 11280 0
-772 -11251 11252 0
-11252 11281 0
-773 -11252 11253 0
-11253 11282 0
-774 -11253 11254 0
-11254 11283 0
-775 -11254 11255 0
-11255 11284 0
-776 -11255 11256 0
-11256 11285 0
-777 -11256 11257 0
-11257 11286 0
-778 -11257 0
-750 11258 0
-11258 11287 0
-751 -11258 11259 0
-11259 11288 0
-752 -11259 11260 0
-11260 11289 0
-753 -11260 11261 0
-11261 11290 0
-754 -11261 11262 0
-11262 11291 0
-755 -11262 11263 0
-11263 11292 0
-756 -11263 11264 0
-11264 11293 0
-757 -11264 11265 0
-11265 11294 0
-758 -11265 11266 0
-11266 11295 0
-759 -11266 11267 0
-11267 11296 0
-760 -11267 11268 0
-11268 11297 0
-761 -11268 11269 0
-11269 11298 0
-762 -11269 11270 0
-11270 11299 0
-763 -11270 11271 0
-11271 11300 0
-764 -11271 11272 0
-11272 11301 0
-765 -11272 11273 0
-11273 11302 0
-766 -11273 11274 0
-11274 11303 0
-767 -11274 11275 0
-11275 11304 0
-768 -11275 11276 0
-11276 11305 0
-769 -11276 11277 0
-11277 11306 0
-770 -11277 11278 0
-11278 11307 0
-771 -11278 11279 0
-11279 11308 0
-772 -11279 11280 0
-11280 11309 0
-773 -11280 11281 0
-11281 11310 0
-774 -11281 11282 0
-11282 11311 0
-775 -11282 11283 0
-11283 11312 0
-776 -11283 11284 0
-11284 11313 0
-777 -11284 11285 0
-11285 11314 0
-778 -11285 11286 0
-11286 11315 0
-779 -11286 0
-751 11287 0
-11287 11316 0
-752 -11287 11288 0
-11288 11317 0
-753 -11288 11289 0
-11289 11318 0
-754 -11289 11290 0
-11290 11319 0
-755 -11290 11291 0
-11291 11320 0
-756 -11291 11292 0
-11292 11321 0
-757 -11292 11293 0
-11293 11322 0
-758 -11293 11294 0
-11294 11323 0
-759 -11294 11295 0
-11295 11324 0
-760 -11295 11296 0
-11296 11325 0
-761 -11296 11297 0
-11297 11326 0
-762 -11297 11298 0
-11298 11327 0
-763 -11298 11299 0
-11299 11328 0
-764 -11299 11300 0
-11300 11329 0
-765 -11300 11301 0
-11301 11330 0
-766 -11301 11302 0
-11302 11331 0
-767 -11302 11303 0
-11303 11332 0
-768 -11303 11304 0
-11304 11333 0
-769 -11304 11305 0
-11305 11334 0
-770 -11305 11306 0
-11306 11335 0
-771 -11306 11307 0
-11307 11336 0
-772 -11307 11308 0
-11308 11337 0
-773 -11308 11309 0
-11309 11338 0
-774 -11309 11310 0
-11310 11339 0
-775 -11310 11311 0
-11311 11340 0
-776 -11311 11312 0
-11312 11341 0
-777 -11312 11313 0
-11313 11342 0
-778 -11313 11314 0
-11314 11343 0
-779 -11314 11315 0
-11315 11344 0
-780 -11315 0
-752 11316 0
-11316 11345 0
-753 -11316 11317 0
-11317 11346 0
-754 -11317 11318 0
-11318 11347 0
-755 -11318 11319 0
-11319 11348 0
-756 -11319 11320 0
-11320 11349 0
-757 -11320 11321 0
-11321 11350 0
-758 -11321 11322 0
-11322 11351 0
-759 -11322 11323 0
-11323 11352 0
-760 -11323 11324 0
-11324 11353 0
-761 -11324 11325 0
-11325 11354 0
-762 -11325 11326 0
-11326 11355 0
-763 -11326 11327 0
-11327 11356 0
-764 -11327 11328 0
-11328 11357 0
-765 -11328 11329 0
-11329 11358 0
-766 -11329 11330 0
-11330 11359 0
-767 -11330 11331 0
-11331 11360 0
-768 -11331 11332 0
-11332 11361 0
-769 -11332 11333 0
-11333 11362 0
-770 -11333 11334 0
-11334 11363 0
-771 -11334 11335 0
-11335 11364 0
-772 -11335 11336 0
-11336 11365 0
-773 -11336 11337 0
-11337 11366 0
-774 -11337 11338 0
-11338 11367 0
-775 -11338 11339 0
-11339 11368 0
-776 -11339 11340 0
-11340 11369 0
-777 -11340 11341 0
-11341 11370 0
-778 -11341 11342 0
-11342 11371 0
-779 -11342 11343 0
-11343 11372 0
-780 -11343 11344 0
-11344 11373 0
-781 -11344 0
-753 11345 0
-11345 11374 0
-754 -11345 11346 0
-11346 11375 0
-755 -11346 11347 0
-11347 11376 0
-756 -11347 11348 0
-11348 11377 0
-757 -11348 11349 0
-11349 11378 0
-758 -11349 11350 0
-11350 11379 0
-759 -11350 11351 0
-11351 11380 0
-760 -11351 11352 0
-11352 11381 0
-761 -11352 11353 0
-11353 11382 0
-762 -11353 11354 0
-11354 11383 0
-763 -11354 11355 0
-11355 11384 0
-764 -11355 11356 0
-11356 11385 0
-765 -11356 11357 0
-11357 11386 0
-766 -11357 11358 0
-11358 11387 0
-767 -11358 11359 0
-11359 11388 0
-768 -11359 11360 0
-11360 11389 0
-769 -11360 11361 0
-11361 11390 0
-770 -11361 11362 0
-11362 11391 0
-771 -11362 11363 0
-11363 11392 0
-772 -11363 11364 0
-11364 11393 0
-773 -11364 11365 0
-11365 11394 0
-774 -11365 11366 0
-11366 11395 0
-775 -11366 11367 0
-11367 11396 0
-776 -11367 11368 0
-11368 11397 0
-777 -11368 11369 0
-11369 11398 0
-778 -11369 11370 0
-11370 11399 0
-779 -11370 11371 0
-11371 11400 0
-780 -11371 11372 0
-11372 11401 0
-781 -11372 11373 0
-11373 11402 0
-782 -11373 0
-754 11374 0
-11374 11403 0
-755 -11374 11375 0
-11375 11404 0
-756 -11375 11376 0
-11376 11405 0
-757 -11376 11377 0
-11377 11406 0
-758 -11377 11378 0
-11378 11407 0
-759 -11378 11379 0
-11379 11408 0
-760 -11379 11380 0
-11380 11409 0
-761 -11380 11381 0
-11381 11410 0
-762 -11381 11382 0
-11382 11411 0
-763 -11382 11383 0
-11383 11412 0
-764 -11383 11384 0
-11384 11413 0
-765 -11384 11385 0
-11385 11414 0
-766 -11385 11386 0
-11386 11415 0
-767 -11386 11387 0
-11387 11416 0
-768 -11387 11388 0
-11388 11417 0
-769 -11388 11389 0
-11389 11418 0
-770 -11389 11390 0
-11390 11419 0
-771 -11390 11391 0
-11391 11420 0
-772 -11391 11392 0
-11392 11421 0
-773 -11392 11393 0
-11393 11422 0
-774 -11393 11394 0
-11394 11423 0
-775 -11394 11395 0
-11395 11424 0
-776 -11395 11396 0
-11396 11425 0
-777 -11396 11397 0
-11397 11426 0
-778 -11397 11398 0
-11398 11427 0
-779 -11398 11399 0
-11399 11428 0
-780 -11399 11400 0
-11400 11429 0
-781 -11400 11401 0
-11401 11430 0
-782 -11401 11402 0
-11402 11431 0
-783 -11402 0
-755 11403 0
-756 -11403 11404 0
-757 -11404 11405 0
-758 -11405 11406 0
-759 -11406 11407 0
-760 -11407 11408 0
-761 -11408 11409 0
-762 -11409 11410 0
-763 -11410 11411 0
-764 -11411 11412 0
-765 -11412 11413 0
-766 -11413 11414 0
-767 -11414 11415 0
-768 -11415 11416 0
-769 -11416 11417 0
-770 -11417 11418 0
-771 -11418 11419 0
-772 -11419 11420 0
-773 -11420 11421 0
-774 -11421 11422 0
-775 -11422 11423 0
-776 -11423 11424 0
-777 -11424 11425 0
-778 -11425 11426 0
-779 -11426 11427 0
-780 -11427 11428 0
-781 -11428 11429 0
-782 -11429 11430 0
-783 -11430 11431 0
-784 -11431 0
