p cnf 3608 38541
-1 -2 -3 0
-1 -2 -4 0
-1 -3 -4 0
-2 -3 -4 0
2 3 4 0
1 3 4 0
1 2 4 0
1 2 3 0
-5 -6 -7 0
-5 -6 -8 0
-5 -7 -8 0
-6 -7 -8 0
6 7 8 0
5 7 8 0
5 6 8 0
5 6 7 0
-9 -10 -11 0
-9 -10 -12 0
-9 -11 -12 0
-10 -11 -12 0
10 11 12 0
9 11 12 0
9 10 12 0
9 10 11 0
-13 -14 -15 0
-13 -14 -16 0
-13 -15 -16 0
-14 -15 -16 0
14 15 16 0
13 15 16 0
13 14 16 0
13 14 15 0
-17 -18 -19 0
-17 -18 -20 0
-17 -19 -20 0
-18 -19 -20 0
18 19 20 0
17 19 20 0
17 18 20 0
17 18 19 0
-21 -22 -23 0
-21 -22 -24 0
-21 -23 -24 0
-22 -23 -24 0
22 23 24 0
21 23 24 0
21 22 24 0
21 22 23 0
-25 -26 -27 0
-25 -26 -28 0
-25 -27 -28 0
-26 -27 -28 0
26 27 28 0
25 27 28 0
25 26 28 0
25 26 27 0
-29 -30 -31 0
-29 -30 -32 0
-29 -31 -32 0
-30 -31 -32 0
30 31 32 0
29 31 32 0
29 30 32 0
29 30 31 0
-10 -25 -33 0
-10 -25 -34 0
-10 -25 -35 0
-10 -25 -36 0
-10 -33 -34 0
-10 -33 -35 0
-10 -33 -36 0
-10 -34 -35 0
-10 -34 -36 0
-10 -35 -36 0
-25 -33 -34 0
-25 -33 -35 0
-25 -33 -36 0
-25 -34 -35 0
-25 -34 -36 0
-25 -35 -36 0
-33 -34 -35 0
-33 -34 -36 0
-33 -35 -36 0
-34 -35 -36 0
25 33 34 35 36 0
10 33 34 35 36 0
10 25 34 35 36 0
10 25 33 35 36 0
10 25 33 34 36 0
10 25 33 34 35 0
-14 -29 -37 0
-14 -29 -38 0
-14 -29 -39 0
-14 -29 -40 0
-14 -37 -38 0
-14 -37 -39 0
-14 -37 -40 0
-14 -38 -39 0
-14 -38 -40 0
-14 -39 -40 0
-29 -37 -38 0
-29 -37 -39 0
-29 -37 -40 0
-29 -38 -39 0
-29 -38 -40 0
-29 -39 -40 0
-37 -38 -39 0
-37 -38 -40 0
-37 -39 -40 0
-38 -39 -40 0
29 37 38 39 40 0
14 37 38 39 40 0
14 29 38 39 40 0
14 29 37 39 40 0
14 29 37 38 40 0
14 29 37 38 39 0
-1 -18 -41 0
-1 -18 -42 0
-1 -18 -43 0
-1 -18 -44 0
-1 -41 -42 0
-1 -41 -43 0
-1 -41 -44 0
-1 -42 -43 0
-1 -42 -44 0
-1 -43 -44 0
-18 -41 -42 0
-18 -41 -43 0
-18 -41 -44 0
-18 -42 -43 0
-18 -42 -44 0
-18 -43 -44 0
-41 -42 -43 0
-41 -42 -44 0
-41 -43 -44 0
-42 -43 -44 0
18 41 42 43 44 0
1 41 42 43 44 0
1 18 42 43 44 0
1 18 41 43 44 0
1 18 41 42 44 0
1 18 41 42 43 0
-5 -22 -45 0
-5 -22 -46 0
-5 -22 -47 0
-5 -22 -48 0
-5 -45 -46 0
-5 -45 -47 0
-5 -45 -48 0
-5 -46 -47 0
-5 -46 -48 0
-5 -47 -48 0
-22 -45 -46 0
-22 -45 -47 0
-22 -45 -48 0
-22 -46 -47 0
-22 -46 -48 0
-22 -47 -48 0
-45 -46 -47 0
-45 -46 -48 0
-45 -47 -48 0
-46 -47 -48 0
22 45 46 47 48 0
5 45 46 47 48 0
5 22 46 47 48 0
5 22 45 47 48 0
5 22 45 46 48 0
5 22 45 46 47 0
-9 -26 -49 0
-9 -26 -50 0
-9 -26 -51 0
-9 -26 -52 0
-9 -49 -50 0
-9 -49 -51 0
-9 -49 -52 0
-9 -50 -51 0
-9 -50 -52 0
-9 -51 -52 0
-26 -49 -50 0
-26 -49 -51 0
-26 -49 -52 0
-26 -50 -51 0
-26 -50 -52 0
-26 -51 -52 0
-49 -50 -51 0
-49 -50 -52 0
-49 -51 -52 0
-50 -51 -52 0
26 49 50 51 52 0
9 49 50 51 52 0
9 26 50 51 52 0
9 26 49 51 52 0
9 26 49 50 52 0
9 26 49 50 51 0
-13 -30 -53 0
-13 -30 -54 0
-13 -30 -55 0
-13 -30 -56 0
-13 -53 -54 0
-13 -53 -55 0
-13 -53 -56 0
-13 -54 -55 0
-13 -54 -56 0
-13 -55 -56 0
-30 -53 -54 0
-30 -53 -55 0
-30 -53 -56 0
-30 -54 -55 0
-30 -54 -56 0
-30 -55 -56 0
-53 -54 -55 0
-53 -54 -56 0
-53 -55 -56 0
-54 -55 -56 0
30 53 54 55 56 0
13 53 54 55 56 0
13 30 54 55 56 0
13 30 53 55 56 0
13 30 53 54 56 0
13 30 53 54 55 0
-2 -17 -57 0
-2 -17 -58 0
-2 -17 -59 0
-2 -17 -60 0
-2 -57 -58 0
-2 -57 -59 0
-2 -57 -60 0
-2 -58 -59 0
-2 -58 -60 0
-2 -59 -60 0
-17 -57 -58 0
-17 -57 -59 0
-17 -57 -60 0
-17 -58 -59 0
-17 -58 -60 0
-17 -59 -60 0
-57 -58 -59 0
-57 -58 -60 0
-57 -59 -60 0
-58 -59 -60 0
17 57 58 59 60 0
2 57 58 59 60 0
2 17 58 59 60 0
2 17 57 59 60 0
2 17 57 58 60 0
2 17 57 58 59 0
-6 -21 -61 0
-6 -21 -62 0
-6 -21 -63 0
-6 -21 -64 0
-6 -61 -62 0
-6 -61 -63 0
-6 -61 -64 0
-6 -62 -63 0
-6 -62 -64 0
-6 -63 -64 0
-21 -61 -62 0
-21 -61 -63 0
-21 -61 -64 0
-21 -62 -63 0
-21 -62 -64 0
-21 -63 -64 0
-61 -62 -63 0
-61 -62 -64 0
-61 -63 -64 0
-62 -63 -64 0
21 61 62 63 64 0
6 61 62 63 64 0
6 21 62 63 64 0
6 21 61 63 64 0
6 21 61 62 64 0
6 21 61 62 63 0
-8 -31 -42 0
-8 -31 -57 0
-8 -31 -65 0
-8 -31 -66 0
-8 -31 -67 0
-8 -31 -68 0
-8 -42 -57 0
-8 -42 -65 0
-8 -42 -66 0
-8 -42 -67 0
-8 -42 -68 0
-8 -57 -65 0
-8 -57 -66 0
-8 -57 -67 0
-8 -57 -68 0
-8 -65 -66 0
-8 -65 -67 0
-8 -65 -68 0
-8 -66 -67 0
-8 -66 -68 0
-8 -67 -68 0
-31 -42 -57 0
-31 -42 -65 0
-31 -42 -66 0
-31 -42 -67 0
-31 -42 -68 0
-31 -57 -65 0
-31 -57 -66 0
-31 -57 -67 0
-31 -57 -68 0
-31 -65 -66 0
-31 -65 -67 0
-31 -65 -68 0
-31 -66 -67 0
-31 -66 -68 0
-31 -67 -68 0
-42 -57 -65 0
-42 -57 -66 0
-42 -57 -67 0
-42 -57 -68 0
-42 -65 -66 0
-42 -65 -67 0
-42 -65 -68 0
-42 -66 -67 0
-42 -66 -68 0
-42 -67 -68 0
-57 -65 -66 0
-57 -65 -67 0
-57 -65 -68 0
-57 -66 -67 0
-57 -66 -68 0
-57 -67 -68 0
-65 -66 -67 0
-65 -66 -68 0
-65 -67 -68 0
-66 -67 -68 0
31 42 57 65 66 67 68 0
8 42 57 65 66 67 68 0
8 31 57 65 66 67 68 0
8 31 42 65 66 67 68 0
8 31 42 57 66 67 68 0
8 31 42 57 65 67 68 0
8 31 42 57 65 66 68 0
8 31 42 57 65 66 67 0
-3 -12 -46 0
-3 -12 -61 0
-3 -12 -69 0
-3 -12 -70 0
-3 -12 -71 0
-3 -12 -72 0
-3 -46 -61 0
-3 -46 -69 0
-3 -46 -70 0
-3 -46 -71 0
-3 -46 -72 0
-3 -61 -69 0
-3 -61 -70 0
-3 -61 -71 0
-3 -61 -72 0
-3 -69 -70 0
-3 -69 -71 0
-3 -69 -72 0
-3 -70 -71 0
-3 -70 -72 0
-3 -71 -72 0
-12 -46 -61 0
-12 -46 -69 0
-12 -46 -70 0
-12 -46 -71 0
-12 -46 -72 0
-12 -61 -69 0
-12 -61 -70 0
-12 -61 -71 0
-12 -61 -72 0
-12 -69 -70 0
-12 -69 -71 0
-12 -69 -72 0
-12 -70 -71 0
-12 -70 -72 0
-12 -71 -72 0
-46 -61 -69 0
-46 -61 -70 0
-46 -61 -71 0
-46 -61 -72 0
-46 -69 -70 0
-46 -69 -71 0
-46 -69 -72 0
-46 -70 -71 0
-46 -70 -72 0
-46 -71 -72 0
-61 -69 -70 0
-61 -69 -71 0
-61 -69 -72 0
-61 -70 -71 0
-61 -70 -72 0
-61 -71 -72 0
-69 -70 -71 0
-69 -70 -72 0
-69 -71 -72 0
-70 -71 -72 0
12 46 61 69 70 71 72 0
3 46 61 69 70 71 72 0
3 12 61 69 70 71 72 0
3 12 46 69 70 71 72 0
3 12 46 61 70 71 72 0
3 12 46 61 69 71 72 0
3 12 46 61 69 70 72 0
3 12 46 61 69 70 71 0
-7 -16 -33 0
-7 -16 -50 0
-7 -16 -73 0
-7 -16 -74 0
-7 -16 -75 0
-7 -16 -76 0
-7 -33 -50 0
-7 -33 -73 0
-7 -33 -74 0
-7 -33 -75 0
-7 -33 -76 0
-7 -50 -73 0
-7 -50 -74 0
-7 -50 -75 0
-7 -50 -76 0
-7 -73 -74 0
-7 -73 -75 0
-7 -73 -76 0
-7 -74 -75 0
-7 -74 -76 0
-7 -75 -76 0
-16 -33 -50 0
-16 -33 -73 0
-16 -33 -74 0
-16 -33 -75 0
-16 -33 -76 0
-16 -50 -73 0
-16 -50 -74 0
-16 -50 -75 0
-16 -50 -76 0
-16 -73 -74 0
-16 -73 -75 0
-16 -73 -76 0
-16 -74 -75 0
-16 -74 -76 0
-16 -75 -76 0
-33 -50 -73 0
-33 -50 -74 0
-33 -50 -75 0
-33 -50 -76 0
-33 -73 -74 0
-33 -73 -75 0
-33 -73 -76 0
-33 -74 -75 0
-33 -74 -76 0
-33 -75 -76 0
-50 -73 -74 0
-50 -73 -75 0
-50 -73 -76 0
-50 -74 -75 0
-50 -74 -76 0
-50 -75 -76 0
-73 -74 -75 0
-73 -74 -76 0
-73 -75 -76 0
-74 -75 -76 0
16 33 50 73 74 75 76 0
7 33 50 73 74 75 76 0
7 16 50 73 74 75 76 0
7 16 33 73 74 75 76 0
7 16 33 50 74 75 76 0
7 16 33 50 73 75 76 0
7 16 33 50 73 74 76 0
7 16 33 50 73 74 75 0
-11 -20 -37 0
-11 -20 -54 0
-11 -20 -77 0
-11 -20 -78 0
-11 -20 -79 0
-11 -20 -80 0
-11 -37 -54 0
-11 -37 -77 0
-11 -37 -78 0
-11 -37 -79 0
-11 -37 -80 0
-11 -54 -77 0
-11 -54 -78 0
-11 -54 -79 0
-11 -54 -80 0
-11 -77 -78 0
-11 -77 -79 0
-11 -77 -80 0
-11 -78 -79 0
-11 -78 -80 0
-11 -79 -80 0
-20 -37 -54 0
-20 -37 -77 0
-20 -37 -78 0
-20 -37 -79 0
-20 -37 -80 0
-20 -54 -77 0
-20 -54 -78 0
-20 -54 -79 0
-20 -54 -80 0
-20 -77 -78 0
-20 -77 -79 0
-20 -77 -80 0
-20 -78 -79 0
-20 -78 -80 0
-20 -79 -80 0
-37 -54 -77 0
-37 -54 -78 0
-37 -54 -79 0
-37 -54 -80 0
-37 -77 -78 0
-37 -77 -79 0
-37 -77 -80 0
-37 -78 -79 0
-37 -78 -80 0
-37 -79 -80 0
-54 -77 -78 0
-54 -77 -79 0
-54 -77 -80 0
-54 -78 -79 0
-54 -78 -80 0
-54 -79 -80 0
-77 -78 -79 0
-77 -78 -80 0
-77 -79 -80 0
-78 -79 -80 0
20 37 54 77 78 79 80 0
11 37 54 77 78 79 80 0
11 20 54 77 78 79 80 0
11 20 37 77 78 79 80 0
11 20 37 54 78 79 80 0
11 20 37 54 77 79 80 0
11 20 37 54 77 78 80 0
11 20 37 54 77 78 79 0
-15 -24 -41 0
-15 -24 -58 0
-15 -24 -81 0
-15 -24 -82 0
-15 -24 -83 0
-15 -24 -84 0
-15 -41 -58 0
-15 -41 -81 0
-15 -41 -82 0
-15 -41 -83 0
-15 -41 -84 0
-15 -58 -81 0
-15 -58 -82 0
-15 -58 -83 0
-15 -58 -84 0
-15 -81 -82 0
-15 -81 -83 0
-15 -81 -84 0
-15 -82 -83 0
-15 -82 -84 0
-15 -83 -84 0
-24 -41 -58 0
-24 -41 -81 0
-24 -41 -82 0
-24 -41 -83 0
-24 -41 -84 0
-24 -58 -81 0
-24 -58 -82 0
-24 -58 -83 0
-24 -58 -84 0
-24 -81 -82 0
-24 -81 -83 0
-24 -81 -84 0
-24 -82 -83 0
-24 -82 -84 0
-24 -83 -84 0
-41 -58 -81 0
-41 -58 -82 0
-41 -58 -83 0
-41 -58 -84 0
-41 -81 -82 0
-41 -81 -83 0
-41 -81 -84 0
-41 -82 -83 0
-41 -82 -84 0
-41 -83 -84 0
-58 -81 -82 0
-58 -81 -83 0
-58 -81 -84 0
-58 -82 -83 0
-58 -82 -84 0
-58 -83 -84 0
-81 -82 -83 0
-81 -82 -84 0
-81 -83 -84 0
-82 -83 -84 0
24 41 58 81 82 83 84 0
15 41 58 81 82 83 84 0
15 24 58 81 82 83 84 0
15 24 41 81 82 83 84 0
15 24 41 58 82 83 84 0
15 24 41 58 81 83 84 0
15 24 41 58 81 82 84 0
15 24 41 58 81 82 83 0
-19 -28 -45 0
-19 -28 -62 0
-19 -28 -85 0
-19 -28 -86 0
-19 -28 -87 0
-19 -28 -88 0
-19 -45 -62 0
-19 -45 -85 0
-19 -45 -86 0
-19 -45 -87 0
-19 -45 -88 0
-19 -62 -85 0
-19 -62 -86 0
-19 -62 -87 0
-19 -62 -88 0
-19 -85 -86 0
-19 -85 -87 0
-19 -85 -88 0
-19 -86 -87 0
-19 -86 -88 0
-19 -87 -88 0
-28 -45 -62 0
-28 -45 -85 0
-28 -45 -86 0
-28 -45 -87 0
-28 -45 -88 0
-28 -62 -85 0
-28 -62 -86 0
-28 -62 -87 0
-28 -62 -88 0
-28 -85 -86 0
-28 -85 -87 0
-28 -85 -88 0
-28 -86 -87 0
-28 -86 -88 0
-28 -87 -88 0
-45 -62 -85 0
-45 -62 -86 0
-45 -62 -87 0
-45 -62 -88 0
-45 -85 -86 0
-45 -85 -87 0
-45 -85 -88 0
-45 -86 -87 0
-45 -86 -88 0
-45 -87 -88 0
-62 -85 -86 0
-62 -85 -87 0
-62 -85 -88 0
-62 -86 -87 0
-62 -86 -88 0
-62 -87 -88 0
-85 -86 -87 0
-85 -86 -88 0
-85 -87 -88 0
-86 -87 -88 0
28 45 62 85 86 87 88 0
19 45 62 85 86 87 88 0
19 28 62 85 86 87 88 0
19 28 45 85 86 87 88 0
19 28 45 62 86 87 88 0
19 28 45 62 85 87 88 0
19 28 45 62 85 86 88 0
19 28 45 62 85 86 87 0
-23 -32 -34 0
-23 -32 -49 0
-23 -32 -89 0
-23 -32 -90 0
-23 -32 -91 0
-23 -32 -92 0
-23 -34 -49 0
-23 -34 -89 0
-23 -34 -90 0
-23 -34 -91 0
-23 -34 -92 0
-23 -49 -89 0
-23 -49 -90 0
-23 -49 -91 0
-23 -49 -92 0
-23 -89 -90 0
-23 -89 -91 0
-23 -89 -92 0
-23 -90 -91 0
-23 -90 -92 0
-23 -91 -92 0
-32 -34 -49 0
-32 -34 -89 0
-32 -34 -90 0
-32 -34 -91 0
-32 -34 -92 0
-32 -49 -89 0
-32 -49 -90 0
-32 -49 -91 0
-32 -49 -92 0
-32 -89 -90 0
-32 -89 -91 0
-32 -89 -92 0
-32 -90 -91 0
-32 -90 -92 0
-32 -91 -92 0
-34 -49 -89 0
-34 -49 -90 0
-34 -49 -91 0
-34 -49 -92 0
-34 -89 -90 0
-34 -89 -91 0
-34 -89 -92 0
-34 -90 -91 0
-34 -90 -92 0
-34 -91 -92 0
-49 -89 -90 0
-49 -89 -91 0
-49 -89 -92 0
-49 -90 -91 0
-49 -90 -92 0
-49 -91 -92 0
-89 -90 -91 0
-89 -90 -92 0
-89 -91 -92 0
-90 -91 -92 0
32 34 49 89 90 91 92 0
23 34 49 89 90 91 92 0
23 32 49 89 90 91 92 0
23 32 34 89 90 91 92 0
23 32 34 49 90 91 92 0
23 32 34 49 89 91 92 0
23 32 34 49 89 90 92 0
23 32 34 49 89 90 91 0
-4 -27 -38 0
-4 -27 -53 0
-4 -27 -93 0
-4 -27 -94 0
-4 -27 -95 0
-4 -27 -96 0
-4 -38 -53 0
-4 -38 -93 0
-4 -38 -94 0
-4 -38 -95 0
-4 -38 -96 0
-4 -53 -93 0
-4 -53 -94 0
-4 -53 -95 0
-4 -53 -96 0
-4 -93 -94 0
-4 -93 -95 0
-4 -93 -96 0
-4 -94 -95 0
-4 -94 -96 0
-4 -95 -96 0
-27 -38 -53 0
-27 -38 -93 0
-27 -38 -94 0
-27 -38 -95 0
-27 -38 -96 0
-27 -53 -93 0
-27 -53 -94 0
-27 -53 -95 0
-27 -53 -96 0
-27 -93 -94 0
-27 -93 -95 0
-27 -93 -96 0
-27 -94 -95 0
-27 -94 -96 0
-27 -95 -96 0
-38 -53 -93 0
-38 -53 -94 0
-38 -53 -95 0
-38 -53 -96 0
-38 -93 -94 0
-38 -93 -95 0
-38 -93 -96 0
-38 -94 -95 0
-38 -94 -96 0
-38 -95 -96 0
-53 -93 -94 0
-53 -93 -95 0
-53 -93 -96 0
-53 -94 -95 0
-53 -94 -96 0
-53 -95 -96 0
-93 -94 -95 0
-93 -94 -96 0
-93 -95 -96 0
-94 -95 -96 0
27 38 53 93 94 95 96 0
4 38 53 93 94 95 96 0
4 27 53 93 94 95 96 0
4 27 38 93 94 95 96 0
4 27 38 53 94 95 96 0
4 27 38 53 93 95 96 0
4 27 38 53 93 94 96 0
4 27 38 53 93 94 95 0
-40 -63 -74 0
-40 -63 -89 0
-40 -63 -97 0
-40 -63 -98 0
-40 -63 -99 0
-40 -63 -100 0
-40 -74 -89 0
-40 -74 -97 0
-40 -74 -98 0
-40 -74 -99 0
-40 -74 -100 0
-40 -89 -97 0
-40 -89 -98 0
-40 -89 -99 0
-40 -89 -100 0
-40 -97 -98 0
-40 -97 -99 0
-40 -97 -100 0
-40 -98 -99 0
-40 -98 -100 0
-40 -99 -100 0
-63 -74 -89 0
-63 -74 -97 0
-63 -74 -98 0
-63 -74 -99 0
-63 -74 -100 0
-63 -89 -97 0
-63 -89 -98 0
-63 -89 -99 0
-63 -89 -100 0
-63 -97 -98 0
-63 -97 -99 0
-63 -97 -100 0
-63 -98 -99 0
-63 -98 -100 0
-63 -99 -100 0
-74 -89 -97 0
-74 -89 -98 0
-74 -89 -99 0
-74 -89 -100 0
-74 -97 -98 0
-74 -97 -99 0
-74 -97 -100 0
-74 -98 -99 0
-74 -98 -100 0
-74 -99 -100 0
-89 -97 -98 0
-89 -97 -99 0
-89 -97 -100 0
-89 -98 -99 0
-89 -98 -100 0
-89 -99 -100 0
-97 -98 -99 0
-97 -98 -100 0
-97 -99 -100 0
-98 -99 -100 0
63 74 89 97 98 99 100 0
40 74 89 97 98 99 100 0
40 63 89 97 98 99 100 0
40 63 74 97 98 99 100 0
40 63 74 89 98 99 100 0
40 63 74 89 97 99 100 0
40 63 74 89 97 98 100 0
40 63 74 89 97 98 99 0
-35 -44 -78 0
-35 -44 -93 0
-35 -44 -101 0
-35 -44 -102 0
-35 -44 -103 0
-35 -44 -104 0
-35 -78 -93 0
-35 -78 -101 0
-35 -78 -102 0
-35 -78 -103 0
-35 -78 -104 0
-35 -93 -101 0
-35 -93 -102 0
-35 -93 -103 0
-35 -93 -104 0
-35 -101 -102 0
-35 -101 -103 0
-35 -101 -104 0
-35 -102 -103 0
-35 -102 -104 0
-35 -103 -104 0
-44 -78 -93 0
-44 -78 -101 0
-44 -78 -102 0
-44 -78 -103 0
-44 -78 -104 0
-44 -93 -101 0
-44 -93 -102 0
-44 -93 -103 0
-44 -93 -104 0
-44 -101 -102 0
-44 -101 -103 0
-44 -101 -104 0
-44 -102 -103 0
-44 -102 -104 0
-44 -103 -104 0
-78 -93 -101 0
-78 -93 -102 0
-78 -93 -103 0
-78 -93 -104 0
-78 -101 -102 0
-78 -101 -103 0
-78 -101 -104 0
-78 -102 -103 0
-78 -102 -104 0
-78 -103 -104 0
-93 -101 -102 0
-93 -101 -103 0
-93 -101 -104 0
-93 -102 -103 0
-93 -102 -104 0
-93 -103 -104 0
-101 -102 -103 0
-101 -102 -104 0
-101 -103 -104 0
-102 -103 -104 0
44 78 93 101 102 103 104 0
35 78 93 101 102 103 104 0
35 44 93 101 102 103 104 0
35 44 78 101 102 103 104 0
35 44 78 93 102 103 104 0
35 44 78 93 101 103 104 0
35 44 78 93 101 102 104 0
35 44 78 93 101 102 103 0
-39 -48 -65 0
-39 -48 -82 0
-39 -48 -105 0
-39 -48 -106 0
-39 -48 -107 0
-39 -48 -108 0
-39 -65 -82 0
-39 -65 -105 0
-39 -65 -106 0
-39 -65 -107 0
-39 -65 -108 0
-39 -82 -105 0
-39 -82 -106 0
-39 -82 -107 0
-39 -82 -108 0
-39 -105 -106 0
-39 -105 -107 0
-39 -105 -108 0
-39 -106 -107 0
-39 -106 -108 0
-39 -107 -108 0
-48 -65 -82 0
-48 -65 -105 0
-48 -65 -106 0
-48 -65 -107 0
-48 -65 -108 0
-48 -82 -105 0
-48 -82 -106 0
-48 -82 -107 0
-48 -82 -108 0
-48 -105 -106 0
-48 -105 -107 0
-48 -105 -108 0
-48 -106 -107 0
-48 -106 -108 0
-48 -107 -108 0
-65 -82 -105 0
-65 -82 -106 0
-65 -82 -107 0
-65 -82 -108 0
-65 -105 -106 0
-65 -105 -107 0
-65 -105 -108 0
-65 -106 -107 0
-65 -106 -108 0
-65 -107 -108 0
-82 -105 -106 0
-82 -105 -107 0
-82 -105 -108 0
-82 -106 -107 0
-82 -106 -108 0
-82 -107 -108 0
-105 -106 -107 0
-105 -106 -108 0
-105 -107 -108 0
-106 -107 -108 0
48 65 82 105 106 107 108 0
39 65 82 105 106 107 108 0
39 48 82 105 106 107 108 0
39 48 65 105 106 107 108 0
39 48 65 82 106 107 108 0
39 48 65 82 105 107 108 0
39 48 65 82 105 106 108 0
39 48 65 82 105 106 107 0
-43 -52 -69 0
-43 -52 -86 0
-43 -52 -109 0
-43 -52 -110 0
-43 -52 -111 0
-43 -52 -112 0
-43 -69 -86 0
-43 -69 -109 0
-43 -69 -110 0
-43 -69 -111 0
-43 -69 -112 0
-43 -86 -109 0
-43 -86 -110 0
-43 -86 -111 0
-43 -86 -112 0
-43 -109 -110 0
-43 -109 -111 0
-43 -109 -112 0
-43 -110 -111 0
-43 -110 -112 0
-43 -111 -112 0
-52 -69 -86 0
-52 -69 -109 0
-52 -69 -110 0
-52 -69 -111 0
-52 -69 -112 0
-52 -86 -109 0
-52 -86 -110 0
-52 -86 -111 0
-52 -86 -112 0
-52 -109 -110 0
-52 -109 -111 0
-52 -109 -112 0
-52 -110 -111 0
-52 -110 -112 0
-52 -111 -112 0
-69 -86 -109 0
-69 -86 -110 0
-69 -86 -111 0
-69 -86 -112 0
-69 -109 -110 0
-69 -109 -111 0
-69 -109 -112 0
-69 -110 -111 0
-69 -110 -112 0
-69 -111 -112 0
-86 -109 -110 0
-86 -109 -111 0
-86 -109 -112 0
-86 -110 -111 0
-86 -110 -112 0
-86 -111 -112 0
-109 -110 -111 0
-109 -110 -112 0
-109 -111 -112 0
-110 -111 -112 0
52 69 86 109 110 111 112 0
43 69 86 109 110 111 112 0
43 52 86 109 110 111 112 0
43 52 69 109 110 111 112 0
43 52 69 86 110 111 112 0
43 52 69 86 109 111 112 0
43 52 69 86 109 110 112 0
43 52 69 86 109 110 111 0
-47 -56 -73 0
-47 -56 -90 0
-47 -56 -113 0
-47 -56 -114 0
-47 -56 -115 0
-47 -56 -116 0
-47 -73 -90 0
-47 -73 -113 0
-47 -73 -114 0
-47 -73 -115 0
-47 -73 -116 0
-47 -90 -113 0
-47 -90 -114 0
-47 -90 -115 0
-47 -90 -116 0
-47 -113 -114 0
-47 -113 -115 0
-47 -113 -116 0
-47 -114 -115 0
-47 -114 -116 0
-47 -115 -116 0
-56 -73 -90 0
-56 -73 -113 0
-56 -73 -114 0
-56 -73 -115 0
-56 -73 -116 0
-56 -90 -113 0
-56 -90 -114 0
-56 -90 -115 0
-56 -90 -116 0
-56 -113 -114 0
-56 -113 -115 0
-56 -113 -116 0
-56 -114 -115 0
-56 -114 -116 0
-56 -115 -116 0
-73 -90 -113 0
-73 -90 -114 0
-73 -90 -115 0
-73 -90 -116 0
-73 -113 -114 0
-73 -113 -115 0
-73 -113 -116 0
-73 -114 -115 0
-73 -114 -116 0
-73 -115 -116 0
-90 -113 -114 0
-90 -113 -115 0
-90 -113 -116 0
-90 -114 -115 0
-90 -114 -116 0
-90 -115 -116 0
-113 -114 -115 0
-113 -114 -116 0
-113 -115 -116 0
-114 -115 -116 0
56 73 90 113 114 115 116 0
47 73 90 113 114 115 116 0
47 56 90 113 114 115 116 0
47 56 73 113 114 115 116 0
47 56 73 90 114 115 116 0
47 56 73 90 113 115 116 0
47 56 73 90 113 114 116 0
47 56 73 90 113 114 115 0
-51 -60 -77 0
-51 -60 -94 0
-51 -60 -117 0
-51 -60 -118 0
-51 -60 -119 0
-51 -60 -120 0
-51 -77 -94 0
-51 -77 -117 0
-51 -77 -118 0
-51 -77 -119 0
-51 -77 -120 0
-51 -94 -117 0
-51 -94 -118 0
-51 -94 -119 0
-51 -94 -120 0
-51 -117 -118 0
-51 -117 -119 0
-51 -117 -120 0
-51 -118 -119 0
-51 -118 -120 0
-51 -119 -120 0
-60 -77 -94 0
-60 -77 -117 0
-60 -77 -118 0
-60 -77 -119 0
-60 -77 -120 0
-60 -94 -117 0
-60 -94 -118 0
-60 -94 -119 0
-60 -94 -120 0
-60 -117 -118 0
-60 -117 -119 0
-60 -117 -120 0
-60 -118 -119 0
-60 -118 -120 0
-60 -119 -120 0
-77 -94 -117 0
-77 -94 -118 0
-77 -94 -119 0
-77 -94 -120 0
-77 -117 -118 0
-77 -117 -119 0
-77 -117 -120 0
-77 -118 -119 0
-77 -118 -120 0
-77 -119 -120 0
-94 -117 -118 0
-94 -117 -119 0
-94 -117 -120 0
-94 -118 -119 0
-94 -118 -120 0
-94 -119 -120 0
-117 -118 -119 0
-117 -118 -120 0
-117 -119 -120 0
-118 -119 -120 0
60 77 94 117 118 119 120 0
51 77 94 117 118 119 120 0
51 60 94 117 118 119 120 0
51 60 77 117 118 119 120 0
51 60 77 94 118 119 120 0
51 60 77 94 117 119 120 0
51 60 77 94 117 118 120 0
51 60 77 94 117 118 119 0
-55 -64 -66 0
-55 -64 -81 0
-55 -64 -121 0
-55 -64 -122 0
-55 -64 -123 0
-55 -64 -124 0
-55 -66 -81 0
-55 -66 -121 0
-55 -66 -122 0
-55 -66 -123 0
-55 -66 -124 0
-55 -81 -121 0
-55 -81 -122 0
-55 -81 -123 0
-55 -81 -124 0
-55 -121 -122 0
-55 -121 -123 0
-55 -121 -124 0
-55 -122 -123 0
-55 -122 -124 0
-55 -123 -124 0
-64 -66 -81 0
-64 -66 -121 0
-64 -66 -122 0
-64 -66 -123 0
-64 -66 -124 0
-64 -81 -121 0
-64 -81 -122 0
-64 -81 -123 0
-64 -81 -124 0
-64 -121 -122 0
-64 -121 -123 0
-64 -121 -124 0
-64 -122 -123 0
-64 -122 -124 0
-64 -123 -124 0
-66 -81 -121 0
-66 -81 -122 0
-66 -81 -123 0
-66 -81 -124 0
-66 -121 -122 0
-66 -121 -123 0
-66 -121 -124 0
-66 -122 -123 0
-66 -122 -124 0
-66 -123 -124 0
-81 -121 -122 0
-81 -121 -123 0
-81 -121 -124 0
-81 -122 -123 0
-81 -122 -124 0
-81 -123 -124 0
-121 -122 -123 0
-121 -122 -124 0
-121 -123 -124 0
-122 -123 -124 0
64 66 81 121 122 123 124 0
55 66 81 121 122 123 124 0
55 64 81 121 122 123 124 0
55 64 66 121 122 123 124 0
55 64 66 81 122 123 124 0
55 64 66 81 121 123 124 0
55 64 66 81 121 122 124 0
55 64 66 81 121 122 123 0
-36 -59 -70 0
-36 -59 -85 0
-36 -59 -125 0
-36 -59 -126 0
-36 -59 -127 0
-36 -59 -128 0
-36 -70 -85 0
-36 -70 -125 0
-36 -70 -126 0
-36 -70 -127 0
-36 -70 -128 0
-36 -85 -125 0
-36 -85 -126 0
-36 -85 -127 0
-36 -85 -128 0
-36 -125 -126 0
-36 -125 -127 0
-36 -125 -128 0
-36 -126 -127 0
-36 -126 -128 0
-36 -127 -128 0
-59 -70 -85 0
-59 -70 -125 0
-59 -70 -126 0
-59 -70 -127 0
-59 -70 -128 0
-59 -85 -125 0
-59 -85 -126 0
-59 -85 -127 0
-59 -85 -128 0
-59 -125 -126 0
-59 -125 -127 0
-59 -125 -128 0
-59 -126 -127 0
-59 -126 -128 0
-59 -127 -128 0
-70 -85 -125 0
-70 -85 -126 0
-70 -85 -127 0
-70 -85 -128 0
-70 -125 -126 0
-70 -125 -127 0
-70 -125 -128 0
-70 -126 -127 0
-70 -126 -128 0
-70 -127 -128 0
-85 -125 -126 0
-85 -125 -127 0
-85 -125 -128 0
-85 -126 -127 0
-85 -126 -128 0
-85 -127 -128 0
-125 -126 -127 0
-125 -126 -128 0
-125 -127 -128 0
-126 -127 -128 0
59 70 85 125 126 127 128 0
36 70 85 125 126 127 128 0
36 59 85 125 126 127 128 0
36 59 70 125 126 127 128 0
36 59 70 85 126 127 128 0
36 59 70 85 125 127 128 0
36 59 70 85 125 126 128 0
36 59 70 85 125 126 127 0
-72 -95 -106 0
-72 -95 -121 0
-72 -95 -129 0
-72 -95 -130 0
-72 -95 -131 0
-72 -95 -132 0
-72 -106 -121 0
-72 -106 -129 0
-72 -106 -130 0
-72 -106 -131 0
-72 -106 -132 0
-72 -121 -129 0
-72 -121 -130 0
-72 -121 -131 0
-72 -121 -132 0
-72 -129 -130 0
-72 -129 -131 0
-72 -129 -132 0
-72 -130 -131 0
-72 -130 -132 0
-72 -131 -132 0
-95 -106 -121 0
-95 -106 -129 0
-95 -106 -130 0
-95 -106 -131 0
-95 -106 -132 0
-95 -121 -129 0
-95 -121 -130 0
-95 -121 -131 0
-95 -121 -132 0
-95 -129 -130 0
-95 -129 -131 0
-95 -129 -132 0
-95 -130 -131 0
-95 -130 -132 0
-95 -131 -132 0
-106 -121 -129 0
-106 -121 -130 0
-106 -121 -131 0
-106 -121 -132 0
-106 -129 -130 0
-106 -129 -131 0
-106 -129 -132 0
-106 -130 -131 0
-106 -130 -132 0
-106 -131 -132 0
-121 -129 -130 0
-121 -129 -131 0
-121 -129 -132 0
-121 -130 -131 0
-121 -130 -132 0
-121 -131 -132 0
-129 -130 -131 0
-129 -130 -132 0
-129 -131 -132 0
-130 -131 -132 0
95 106 121 129 130 131 132 0
72 106 121 129 130 131 132 0
72 95 121 129 130 131 132 0
72 95 106 129 130 131 132 0
72 95 106 121 130 131 132 0
72 95 106 121 129 131 132 0
72 95 106 121 129 130 132 0
72 95 106 121 129 130 131 0
-67 -76 -110 0
-67 -76 -125 0
-67 -76 -133 0
-67 -76 -134 0
-67 -76 -135 0
-67 -76 -136 0
-67 -110 -125 0
-67 -110 -133 0
-67 -110 -134 0
-67 -110 -135 0
-67 -110 -136 0
-67 -125 -133 0
-67 -125 -134 0
-67 -125 -135 0
-67 -125 -136 0
-67 -133 -134 0
-67 -133 -135 0
-67 -133 -136 0
-67 -134 -135 0
-67 -134 -136 0
-67 -135 -136 0
-76 -110 -125 0
-76 -110 -133 0
-76 -110 -134 0
-76 -110 -135 0
-76 -110 -136 0
-76 -125 -133 0
-76 -125 -134 0
-76 -125 -135 0
-76 -125 -136 0
-76 -133 -134 0
-76 -133 -135 0
-76 -133 -136 0
-76 -134 -135 0
-76 -134 -136 0
-76 -135 -136 0
-110 -125 -133 0
-110 -125 -134 0
-110 -125 -135 0
-110 -125 -136 0
-110 -133 -134 0
-110 -133 -135 0
-110 -133 -136 0
-110 -134 -135 0
-110 -134 -136 0
-110 -135 -136 0
-125 -133 -134 0
-125 -133 -135 0
-125 -133 -136 0
-125 -134 -135 0
-125 -134 -136 0
-125 -135 -136 0
-133 -134 -135 0
-133 -134 -136 0
-133 -135 -136 0
-134 -135 -136 0
76 110 125 133 134 135 136 0
67 110 125 133 134 135 136 0
67 76 125 133 134 135 136 0
67 76 110 133 134 135 136 0
67 76 110 125 134 135 136 0
67 76 110 125 133 135 136 0
67 76 110 125 133 134 136 0
67 76 110 125 133 134 135 0
-71 -80 -97 0
-71 -80 -114 0
-71 -80 -137 0
-71 -80 -138 0
-71 -80 -139 0
-71 -80 -140 0
-71 -97 -114 0
-71 -97 -137 0
-71 -97 -138 0
-71 -97 -139 0
-71 -97 -140 0
-71 -114 -137 0
-71 -114 -138 0
-71 -114 -139 0
-71 -114 -140 0
-71 -137 -138 0
-71 -137 -139 0
-71 -137 -140 0
-71 -138 -139 0
-71 -138 -140 0
-71 -139 -140 0
-80 -97 -114 0
-80 -97 -137 0
-80 -97 -138 0
-80 -97 -139 0
-80 -97 -140 0
-80 -114 -137 0
-80 -114 -138 0
-80 -114 -139 0
-80 -114 -140 0
-80 -137 -138 0
-80 -137 -139 0
-80 -137 -140 0
-80 -138 -139 0
-80 -138 -140 0
-80 -139 -140 0
-97 -114 -137 0
-97 -114 -138 0
-97 -114 -139 0
-97 -114 -140 0
-97 -137 -138 0
-97 -137 -139 0
-97 -137 -140 0
-97 -138 -139 0
-97 -138 -140 0
-97 -139 -140 0
-114 -137 -138 0
-114 -137 -139 0
-114 -137 -140 0
-114 -138 -139 0
-114 -138 -140 0
-114 -139 -140 0
-137 -138 -139 0
-137 -138 -140 0
-137 -139 -140 0
-138 -139 -140 0
80 97 114 137 138 139 140 0
71 97 114 137 138 139 140 0
71 80 114 137 138 139 140 0
71 80 97 137 138 139 140 0
71 80 97 114 138 139 140 0
71 80 97 114 137 139 140 0
71 80 97 114 137 138 140 0
71 80 97 114 137 138 139 0
-75 -84 -101 0
-75 -84 -118 0
-75 -84 -141 0
-75 -84 -142 0
-75 -84 -143 0
-75 -84 -144 0
-75 -101 -118 0
-75 -101 -141 0
-75 -101 -142 0
-75 -101 -143 0
-75 -101 -144 0
-75 -118 -141 0
-75 -118 -142 0
-75 -118 -143 0
-75 -118 -144 0
-75 -141 -142 0
-75 -141 -143 0
-75 -141 -144 0
-75 -142 -143 0
-75 -142 -144 0
-75 -143 -144 0
-84 -101 -118 0
-84 -101 -141 0
-84 -101 -142 0
-84 -101 -143 0
-84 -101 -144 0
-84 -118 -141 0
-84 -118 -142 0
-84 -118 -143 0
-84 -118 -144 0
-84 -141 -142 0
-84 -141 -143 0
-84 -141 -144 0
-84 -142 -143 0
-84 -142 -144 0
-84 -143 -144 0
-101 -118 -141 0
-101 -118 -142 0
-101 -118 -143 0
-101 -118 -144 0
-101 -141 -142 0
-101 -141 -143 0
-101 -141 -144 0
-101 -142 -143 0
-101 -142 -144 0
-101 -143 -144 0
-118 -141 -142 0
-118 -141 -143 0
-118 -141 -144 0
-118 -142 -143 0
-118 -142 -144 0
-118 -143 -144 0
-141 -142 -143 0
-141 -142 -144 0
-141 -143 -144 0
-142 -143 -144 0
84 101 118 141 142 143 144 0
75 101 118 141 142 143 144 0
75 84 118 141 142 143 144 0
75 84 101 141 142 143 144 0
75 84 101 118 142 143 144 0
75 84 101 118 141 143 144 0
75 84 101 118 141 142 144 0
75 84 101 118 141 142 143 0
-79 -88 -105 0
-79 -88 -122 0
-79 -88 -145 0
-79 -88 -146 0
-79 -88 -147 0
-79 -88 -148 0
-79 -105 -122 0
-79 -105 -145 0
-79 -105 -146 0
-79 -105 -147 0
-79 -105 -148 0
-79 -122 -145 0
-79 -122 -146 0
-79 -122 -147 0
-79 -122 -148 0
-79 -145 -146 0
-79 -145 -147 0
-79 -145 -148 0
-79 -146 -147 0
-79 -146 -148 0
-79 -147 -148 0
-88 -105 -122 0
-88 -105 -145 0
-88 -105 -146 0
-88 -105 -147 0
-88 -105 -148 0
-88 -122 -145 0
-88 -122 -146 0
-88 -122 -147 0
-88 -122 -148 0
-88 -145 -146 0
-88 -145 -147 0
-88 -145 -148 0
-88 -146 -147 0
-88 -146 -148 0
-88 -147 -148 0
-105 -122 -145 0
-105 -122 -146 0
-105 -122 -147 0
-105 -122 -148 0
-105 -145 -146 0
-105 -145 -147 0
-105 -145 -148 0
-105 -146 -147 0
-105 -146 -148 0
-105 -147 -148 0
-122 -145 -146 0
-122 -145 -147 0
-122 -145 -148 0
-122 -146 -147 0
-122 -146 -148 0
-122 -147 -148 0
-145 -146 -147 0
-145 -146 -148 0
-145 -147 -148 0
-146 -147 -148 0
88 105 122 145 146 147 148 0
79 105 122 145 146 147 148 0
79 88 122 145 146 147 148 0
79 88 105 145 146 147 148 0
79 88 105 122 146 147 148 0
79 88 105 122 145 147 148 0
79 88 105 122 145 146 148 0
79 88 105 122 145 146 147 0
-83 -92 -109 0
-83 -92 -126 0
-83 -92 -149 0
-83 -92 -150 0
-83 -92 -151 0
-83 -92 -152 0
-83 -109 -126 0
-83 -109 -149 0
-83 -109 -150 0
-83 -109 -151 0
-83 -109 -152 0
-83 -126 -149 0
-83 -126 -150 0
-83 -126 -151 0
-83 -126 -152 0
-83 -149 -150 0
-83 -149 -151 0
-83 -149 -152 0
-83 -150 -151 0
-83 -150 -152 0
-83 -151 -152 0
-92 -109 -126 0
-92 -109 -149 0
-92 -109 -150 0
-92 -109 -151 0
-92 -109 -152 0
-92 -126 -149 0
-92 -126 -150 0
-92 -126 -151 0
-92 -126 -152 0
-92 -149 -150 0
-92 -149 -151 0
-92 -149 -152 0
-92 -150 -151 0
-92 -150 -152 0
-92 -151 -152 0
-109 -126 -149 0
-109 -126 -150 0
-109 -126 -151 0
-109 -126 -152 0
-109 -149 -150 0
-109 -149 -151 0
-109 -149 -152 0
-109 -150 -151 0
-109 -150 -152 0
-109 -151 -152 0
-126 -149 -150 0
-126 -149 -151 0
-126 -149 -152 0
-126 -150 -151 0
-126 -150 -152 0
-126 -151 -152 0
-149 -150 -151 0
-149 -150 -152 0
-149 -151 -152 0
-150 -151 -152 0
92 109 126 149 150 151 152 0
83 109 126 149 150 151 152 0
83 92 126 149 150 151 152 0
83 92 109 149 150 151 152 0
83 92 109 126 150 151 152 0
83 92 109 126 149 151 152 0
83 92 109 126 149 150 152 0
83 92 109 126 149 150 151 0
-87 -96 -98 0
-87 -96 -113 0
-87 -96 -153 0
-87 -96 -154 0
-87 -96 -155 0
-87 -96 -156 0
-87 -98 -113 0
-87 -98 -153 0
-87 -98 -154 0
-87 -98 -155 0
-87 -98 -156 0
-87 -113 -153 0
-87 -113 -154 0
-87 -113 -155 0
-87 -113 -156 0
-87 -153 -154 0
-87 -153 -155 0
-87 -153 -156 0
-87 -154 -155 0
-87 -154 -156 0
-87 -155 -156 0
-96 -98 -113 0
-96 -98 -153 0
-96 -98 -154 0
-96 -98 -155 0
-96 -98 -156 0
-96 -113 -153 0
-96 -113 -154 0
-96 -113 -155 0
-96 -113 -156 0
-96 -153 -154 0
-96 -153 -155 0
-96 -153 -156 0
-96 -154 -155 0
-96 -154 -156 0
-96 -155 -156 0
-98 -113 -153 0
-98 -113 -154 0
-98 -113 -155 0
-98 -113 -156 0
-98 -153 -154 0
-98 -153 -155 0
-98 -153 -156 0
-98 -154 -155 0
-98 -154 -156 0
-98 -155 -156 0
-113 -153 -154 0
-113 -153 -155 0
-113 -153 -156 0
-113 -154 -155 0
-113 -154 -156 0
-113 -155 -156 0
-153 -154 -155 0
-153 -154 -156 0
-153 -155 -156 0
-154 -155 -156 0
96 98 113 153 154 155 156 0
87 98 113 153 154 155 156 0
87 96 113 153 154 155 156 0
87 96 98 153 154 155 156 0
87 96 98 113 154 155 156 0
87 96 98 113 153 155 156 0
87 96 98 113 153 154 156 0
87 96 98 113 153 154 155 0
-68 -91 -102 0
-68 -91 -117 0
-68 -91 -157 0
-68 -91 -158 0
-68 -91 -159 0
-68 -91 -160 0
-68 -102 -117 0
-68 -102 -157 0
-68 -102 -158 0
-68 -102 -159 0
-68 -102 -160 0
-68 -117 -157 0
-68 -117 -158 0
-68 -117 -159 0
-68 -117 -160 0
-68 -157 -158 0
-68 -157 -159 0
-68 -157 -160 0
-68 -158 -159 0
-68 -158 -160 0
-68 -159 -160 0
-91 -102 -117 0
-91 -102 -157 0
-91 -102 -158 0
-91 -102 -159 0
-91 -102 -160 0
-91 -117 -157 0
-91 -117 -158 0
-91 -117 -159 0
-91 -117 -160 0
-91 -157 -158 0
-91 -157 -159 0
-91 -157 -160 0
-91 -158 -159 0
-91 -158 -160 0
-91 -159 -160 0
-102 -117 -157 0
-102 -117 -158 0
-102 -117 -159 0
-102 -117 -160 0
-102 -157 -158 0
-102 -157 -159 0
-102 -157 -160 0
-102 -158 -159 0
-102 -158 -160 0
-102 -159 -160 0
-117 -157 -158 0
-117 -157 -159 0
-117 -157 -160 0
-117 -158 -159 0
-117 -158 -160 0
-117 -159 -160 0
-157 -158 -159 0
-157 -158 -160 0
-157 -159 -160 0
-158 -159 -160 0
91 102 117 157 158 159 160 0
68 102 117 157 158 159 160 0
68 91 117 157 158 159 160 0
68 91 102 157 158 159 160 0
68 91 102 117 158 159 160 0
68 91 102 117 157 159 160 0
68 91 102 117 157 158 160 0
68 91 102 117 157 158 159 0
-104 -127 -138 0
-104 -127 -153 0
-104 -127 -161 0
-104 -127 -162 0
-104 -127 -163 0
-104 -127 -164 0
-104 -138 -153 0
-104 -138 -161 0
-104 -138 -162 0
-104 -138 -163 0
-104 -138 -164 0
-104 -153 -161 0
-104 -153 -162 0
-104 -153 -163 0
-104 -153 -164 0
-104 -161 -162 0
-104 -161 -163 0
-104 -161 -164 0
-104 -162 -163 0
-104 -162 -164 0
-104 -163 -164 0
-127 -138 -153 0
-127 -138 -161 0
-127 -138 -162 0
-127 -138 -163 0
-127 -138 -164 0
-127 -153 -161 0
-127 -153 -162 0
-127 -153 -163 0
-127 -153 -164 0
-127 -161 -162 0
-127 -161 -163 0
-127 -161 -164 0
-127 -162 -163 0
-127 -162 -164 0
-127 -163 -164 0
-138 -153 -161 0
-138 -153 -162 0
-138 -153 -163 0
-138 -153 -164 0
-138 -161 -162 0
-138 -161 -163 0
-138 -161 -164 0
-138 -162 -163 0
-138 -162 -164 0
-138 -163 -164 0
-153 -161 -162 0
-153 -161 -163 0
-153 -161 -164 0
-153 -162 -163 0
-153 -162 -164 0
-153 -163 -164 0
-161 -162 -163 0
-161 -162 -164 0
-161 -163 -164 0
-162 -163 -164 0
127 138 153 161 162 163 164 0
104 138 153 161 162 163 164 0
104 127 153 161 162 163 164 0
104 127 138 161 162 163 164 0
104 127 138 153 162 163 164 0
104 127 138 153 161 163 164 0
104 127 138 153 161 162 164 0
104 127 138 153 161 162 163 0
-99 -108 -142 0
-99 -108 -157 0
-99 -108 -165 0
-99 -108 -166 0
-99 -108 -167 0
-99 -108 -168 0
-99 -142 -157 0
-99 -142 -165 0
-99 -142 -166 0
-99 -142 -167 0
-99 -142 -168 0
-99 -157 -165 0
-99 -157 -166 0
-99 -157 -167 0
-99 -157 -168 0
-99 -165 -166 0
-99 -165 -167 0
-99 -165 -168 0
-99 -166 -167 0
-99 -166 -168 0
-99 -167 -168 0
-108 -142 -157 0
-108 -142 -165 0
-108 -142 -166 0
-108 -142 -167 0
-108 -142 -168 0
-108 -157 -165 0
-108 -157 -166 0
-108 -157 -167 0
-108 -157 -168 0
-108 -165 -166 0
-108 -165 -167 0
-108 -165 -168 0
-108 -166 -167 0
-108 -166 -168 0
-108 -167 -168 0
-142 -157 -165 0
-142 -157 -166 0
-142 -157 -167 0
-142 -157 -168 0
-142 -165 -166 0
-142 -165 -167 0
-142 -165 -168 0
-142 -166 -167 0
-142 -166 -168 0
-142 -167 -168 0
-157 -165 -166 0
-157 -165 -167 0
-157 -165 -168 0
-157 -166 -167 0
-157 -166 -168 0
-157 -167 -168 0
-165 -166 -167 0
-165 -166 -168 0
-165 -167 -168 0
-166 -167 -168 0
108 142 157 165 166 167 168 0
99 142 157 165 166 167 168 0
99 108 157 165 166 167 168 0
99 108 142 165 166 167 168 0
99 108 142 157 166 167 168 0
99 108 142 157 165 167 168 0
99 108 142 157 165 166 168 0
99 108 142 157 165 166 167 0
-103 -112 -129 0
-103 -112 -146 0
-103 -112 -169 0
-103 -112 -170 0
-103 -112 -171 0
-103 -112 -172 0
-103 -129 -146 0
-103 -129 -169 0
-103 -129 -170 0
-103 -129 -171 0
-103 -129 -172 0
-103 -146 -169 0
-103 -146 -170 0
-103 -146 -171 0
-103 -146 -172 0
-103 -169 -170 0
-103 -169 -171 0
-103 -169 -172 0
-103 -170 -171 0
-103 -170 -172 0
-103 -171 -172 0
-112 -129 -146 0
-112 -129 -169 0
-112 -129 -170 0
-112 -129 -171 0
-112 -129 -172 0
-112 -146 -169 0
-112 -146 -170 0
-112 -146 -171 0
-112 -146 -172 0
-112 -169 -170 0
-112 -169 -171 0
-112 -169 -172 0
-112 -170 -171 0
-112 -170 -172 0
-112 -171 -172 0
-129 -146 -169 0
-129 -146 -170 0
-129 -146 -171 0
-129 -146 -172 0
-129 -169 -170 0
-129 -169 -171 0
-129 -169 -172 0
-129 -170 -171 0
-129 -170 -172 0
-129 -171 -172 0
-146 -169 -170 0
-146 -169 -171 0
-146 -169 -172 0
-146 -170 -171 0
-146 -170 -172 0
-146 -171 -172 0
-169 -170 -171 0
-169 -170 -172 0
-169 -171 -172 0
-170 -171 -172 0
112 129 146 169 170 171 172 0
103 129 146 169 170 171 172 0
103 112 146 169 170 171 172 0
103 112 129 169 170 171 172 0
103 112 129 146 170 171 172 0
103 112 129 146 169 171 172 0
103 112 129 146 169 170 172 0
103 112 129 146 169 170 171 0
-107 -116 -133 0
-107 -116 -150 0
-107 -116 -173 0
-107 -116 -174 0
-107 -116 -175 0
-107 -116 -176 0
-107 -133 -150 0
-107 -133 -173 0
-107 -133 -174 0
-107 -133 -175 0
-107 -133 -176 0
-107 -150 -173 0
-107 -150 -174 0
-107 -150 -175 0
-107 -150 -176 0
-107 -173 -174 0
-107 -173 -175 0
-107 -173 -176 0
-107 -174 -175 0
-107 -174 -176 0
-107 -175 -176 0
-116 -133 -150 0
-116 -133 -173 0
-116 -133 -174 0
-116 -133 -175 0
-116 -133 -176 0
-116 -150 -173 0
-116 -150 -174 0
-116 -150 -175 0
-116 -150 -176 0
-116 -173 -174 0
-116 -173 -175 0
-116 -173 -176 0
-116 -174 -175 0
-116 -174 -176 0
-116 -175 -176 0
-133 -150 -173 0
-133 -150 -174 0
-133 -150 -175 0
-133 -150 -176 0
-133 -173 -174 0
-133 -173 -175 0
-133 -173 -176 0
-133 -174 -175 0
-133 -174 -176 0
-133 -175 -176 0
-150 -173 -174 0
-150 -173 -175 0
-150 -173 -176 0
-150 -174 -175 0
-150 -174 -176 0
-150 -175 -176 0
-173 -174 -175 0
-173 -174 -176 0
-173 -175 -176 0
-174 -175 -176 0
116 133 150 173 174 175 176 0
107 133 150 173 174 175 176 0
107 116 150 173 174 175 176 0
107 116 133 173 174 175 176 0
107 116 133 150 174 175 176 0
107 116 133 150 173 175 176 0
107 116 133 150 173 174 176 0
107 116 133 150 173 174 175 0
-111 -120 -137 0
-111 -120 -154 0
-111 -120 -177 0
-111 -120 -178 0
-111 -120 -179 0
-111 -120 -180 0
-111 -137 -154 0
-111 -137 -177 0
-111 -137 -178 0
-111 -137 -179 0
-111 -137 -180 0
-111 -154 -177 0
-111 -154 -178 0
-111 -154 -179 0
-111 -154 -180 0
-111 -177 -178 0
-111 -177 -179 0
-111 -177 -180 0
-111 -178 -179 0
-111 -178 -180 0
-111 -179 -180 0
-120 -137 -154 0
-120 -137 -177 0
-120 -137 -178 0
-120 -137 -179 0
-120 -137 -180 0
-120 -154 -177 0
-120 -154 -178 0
-120 -154 -179 0
-120 -154 -180 0
-120 -177 -178 0
-120 -177 -179 0
-120 -177 -180 0
-120 -178 -179 0
-120 -178 -180 0
-120 -179 -180 0
-137 -154 -177 0
-137 -154 -178 0
-137 -154 -179 0
-137 -154 -180 0
-137 -177 -178 0
-137 -177 -179 0
-137 -177 -180 0
-137 -178 -179 0
-137 -178 -180 0
-137 -179 -180 0
-154 -177 -178 0
-154 -177 -179 0
-154 -177 -180 0
-154 -178 -179 0
-154 -178 -180 0
-154 -179 -180 0
-177 -178 -179 0
-177 -178 -180 0
-177 -179 -180 0
-178 -179 -180 0
120 137 154 177 178 179 180 0
111 137 154 177 178 179 180 0
111 120 154 177 178 179 180 0
111 120 137 177 178 179 180 0
111 120 137 154 178 179 180 0
111 120 137 154 177 179 180 0
111 120 137 154 177 178 180 0
111 120 137 154 177 178 179 0
-115 -124 -141 0
-115 -124 -158 0
-115 -124 -181 0
-115 -124 -182 0
-115 -124 -183 0
-115 -124 -184 0
-115 -141 -158 0
-115 -141 -181 0
-115 -141 -182 0
-115 -141 -183 0
-115 -141 -184 0
-115 -158 -181 0
-115 -158 -182 0
-115 -158 -183 0
-115 -158 -184 0
-115 -181 -182 0
-115 -181 -183 0
-115 -181 -184 0
-115 -182 -183 0
-115 -182 -184 0
-115 -183 -184 0
-124 -141 -158 0
-124 -141 -181 0
-124 -141 -182 0
-124 -141 -183 0
-124 -141 -184 0
-124 -158 -181 0
-124 -158 -182 0
-124 -158 -183 0
-124 -158 -184 0
-124 -181 -182 0
-124 -181 -183 0
-124 -181 -184 0
-124 -182 -183 0
-124 -182 -184 0
-124 -183 -184 0
-141 -158 -181 0
-141 -158 -182 0
-141 -158 -183 0
-141 -158 -184 0
-141 -181 -182 0
-141 -181 -183 0
-141 -181 -184 0
-141 -182 -183 0
-141 -182 -184 0
-141 -183 -184 0
-158 -181 -182 0
-158 -181 -183 0
-158 -181 -184 0
-158 -182 -183 0
-158 -182 -184 0
-158 -183 -184 0
-181 -182 -183 0
-181 -182 -184 0
-181 -183 -184 0
-182 -183 -184 0
124 141 158 181 182 183 184 0
115 141 158 181 182 183 184 0
115 124 158 181 182 183 184 0
115 124 141 181 182 183 184 0
115 124 141 158 182 183 184 0
115 124 141 158 181 183 184 0
115 124 141 158 181 182 184 0
115 124 141 158 181 182 183 0
-119 -128 -130 0
-119 -128 -145 0
-119 -128 -185 0
-119 -128 -186 0
-119 -128 -187 0
-119 -128 -188 0
-119 -130 -145 0
-119 -130 -185 0
-119 -130 -186 0
-119 -130 -187 0
-119 -130 -188 0
-119 -145 -185 0
-119 -145 -186 0
-119 -145 -187 0
-119 -145 -188 0
-119 -185 -186 0
-119 -185 -187 0
-119 -185 -188 0
-119 -186 -187 0
-119 -186 -188 0
-119 -187 -188 0
-128 -130 -145 0
-128 -130 -185 0
-128 -130 -186 0
-128 -130 -187 0
-128 -130 -188 0
-128 -145 -185 0
-128 -145 -186 0
-128 -145 -187 0
-128 -145 -188 0
-128 -185 -186 0
-128 -185 -187 0
-128 -185 -188 0
-128 -186 -187 0
-128 -186 -188 0
-128 -187 -188 0
-130 -145 -185 0
-130 -145 -186 0
-130 -145 -187 0
-130 -145 -188 0
-130 -185 -186 0
-130 -185 -187 0
-130 -185 -188 0
-130 -186 -187 0
-130 -186 -188 0
-130 -187 -188 0
-145 -185 -186 0
-145 -185 -187 0
-145 -185 -188 0
-145 -186 -187 0
-145 -186 -188 0
-145 -187 -188 0
-185 -186 -187 0
-185 -186 -188 0
-185 -187 -188 0
-186 -187 -188 0
128 130 145 185 186 187 188 0
119 130 145 185 186 187 188 0
119 128 145 185 186 187 188 0
119 128 130 185 186 187 188 0
119 128 130 145 186 187 188 0
119 128 130 145 185 187 188 0
119 128 130 145 185 186 188 0
119 128 130 145 185 186 187 0
-100 -123 -134 0
-100 -123 -149 0
-100 -123 -189 0
-100 -123 -190 0
-100 -123 -191 0
-100 -123 -192 0
-100 -134 -149 0
-100 -134 -189 0
-100 -134 -190 0
-100 -134 -191 0
-100 -134 -192 0
-100 -149 -189 0
-100 -149 -190 0
-100 -149 -191 0
-100 -149 -192 0
-100 -189 -190 0
-100 -189 -191 0
-100 -189 -192 0
-100 -190 -191 0
-100 -190 -192 0
-100 -191 -192 0
-123 -134 -149 0
-123 -134 -189 0
-123 -134 -190 0
-123 -134 -191 0
-123 -134 -192 0
-123 -149 -189 0
-123 -149 -190 0
-123 -149 -191 0
-123 -149 -192 0
-123 -189 -190 0
-123 -189 -191 0
-123 -189 -192 0
-123 -190 -191 0
-123 -190 -192 0
-123 -191 -192 0
-134 -149 -189 0
-134 -149 -190 0
-134 -149 -191 0
-134 -149 -192 0
-134 -189 -190 0
-134 -189 -191 0
-134 -189 -192 0
-134 -190 -191 0
-134 -190 -192 0
-134 -191 -192 0
-149 -189 -190 0
-149 -189 -191 0
-149 -189 -192 0
-149 -190 -191 0
-149 -190 -192 0
-149 -191 -192 0
-189 -190 -191 0
-189 -190 -192 0
-189 -191 -192 0
-190 -191 -192 0
123 134 149 189 190 191 192 0
100 134 149 189 190 191 192 0
100 123 149 189 190 191 192 0
100 123 134 189 190 191 192 0
100 123 134 149 190 191 192 0
100 123 134 149 189 191 192 0
100 123 134 149 189 190 192 0
100 123 134 149 189 190 191 0
-136 -159 -170 0
-136 -159 -185 0
-136 -159 -193 0
-136 -159 -194 0
-136 -159 -195 0
-136 -159 -196 0
-136 -170 -185 0
-136 -170 -193 0
-136 -170 -194 0
-136 -170 -195 0
-136 -170 -196 0
-136 -185 -193 0
-136 -185 -194 0
-136 -185 -195 0
-136 -185 -196 0
-136 -193 -194 0
-136 -193 -195 0
-136 -193 -196 0
-136 -194 -195 0
-136 -194 -196 0
-136 -195 -196 0
-159 -170 -185 0
-159 -170 -193 0
-159 -170 -194 0
-159 -170 -195 0
-159 -170 -196 0
-159 -185 -193 0
-159 -185 -194 0
-159 -185 -195 0
-159 -185 -196 0
-159 -193 -194 0
-159 -193 -195 0
-159 -193 -196 0
-159 -194 -195 0
-159 -194 -196 0
-159 -195 -196 0
-170 -185 -193 0
-170 -185 -194 0
-170 -185 -195 0
-170 -185 -196 0
-170 -193 -194 0
-170 -193 -195 0
-170 -193 -196 0
-170 -194 -195 0
-170 -194 -196 0
-170 -195 -196 0
-185 -193 -194 0
-185 -193 -195 0
-185 -193 -196 0
-185 -194 -195 0
-185 -194 -196 0
-185 -195 -196 0
-193 -194 -195 0
-193 -194 -196 0
-193 -195 -196 0
-194 -195 -196 0
159 170 185 193 194 195 196 0
136 170 185 193 194 195 196 0
136 159 185 193 194 195 196 0
136 159 170 193 194 195 196 0
136 159 170 185 194 195 196 0
136 159 170 185 193 195 196 0
136 159 170 185 193 194 196 0
136 159 170 185 193 194 195 0
-131 -140 -174 0
-131 -140 -189 0
-131 -140 -197 0
-131 -140 -198 0
-131 -140 -199 0
-131 -140 -200 0
-131 -174 -189 0
-131 -174 -197 0
-131 -174 -198 0
-131 -174 -199 0
-131 -174 -200 0
-131 -189 -197 0
-131 -189 -198 0
-131 -189 -199 0
-131 -189 -200 0
-131 -197 -198 0
-131 -197 -199 0
-131 -197 -200 0
-131 -198 -199 0
-131 -198 -200 0
-131 -199 -200 0
-140 -174 -189 0
-140 -174 -197 0
-140 -174 -198 0
-140 -174 -199 0
-140 -174 -200 0
-140 -189 -197 0
-140 -189 -198 0
-140 -189 -199 0
-140 -189 -200 0
-140 -197 -198 0
-140 -197 -199 0
-140 -197 -200 0
-140 -198 -199 0
-140 -198 -200 0
-140 -199 -200 0
-174 -189 -197 0
-174 -189 -198 0
-174 -189 -199 0
-174 -189 -200 0
-174 -197 -198 0
-174 -197 -199 0
-174 -197 -200 0
-174 -198 -199 0
-174 -198 -200 0
-174 -199 -200 0
-189 -197 -198 0
-189 -197 -199 0
-189 -197 -200 0
-189 -198 -199 0
-189 -198 -200 0
-189 -199 -200 0
-197 -198 -199 0
-197 -198 -200 0
-197 -199 -200 0
-198 -199 -200 0
140 174 189 197 198 199 200 0
131 174 189 197 198 199 200 0
131 140 189 197 198 199 200 0
131 140 174 197 198 199 200 0
131 140 174 189 198 199 200 0
131 140 174 189 197 199 200 0
131 140 174 189 197 198 200 0
131 140 174 189 197 198 199 0
-135 -144 -161 0
-135 -144 -178 0
-135 -144 -201 0
-135 -144 -202 0
-135 -144 -203 0
-135 -144 -204 0
-135 -161 -178 0
-135 -161 -201 0
-135 -161 -202 0
-135 -161 -203 0
-135 -161 -204 0
-135 -178 -201 0
-135 -178 -202 0
-135 -178 -203 0
-135 -178 -204 0
-135 -201 -202 0
-135 -201 -203 0
-135 -201 -204 0
-135 -202 -203 0
-135 -202 -204 0
-135 -203 -204 0
-144 -161 -178 0
-144 -161 -201 0
-144 -161 -202 0
-144 -161 -203 0
-144 -161 -204 0
-144 -178 -201 0
-144 -178 -202 0
-144 -178 -203 0
-144 -178 -204 0
-144 -201 -202 0
-144 -201 -203 0
-144 -201 -204 0
-144 -202 -203 0
-144 -202 -204 0
-144 -203 -204 0
-161 -178 -201 0
-161 -178 -202 0
-161 -178 -203 0
-161 -178 -204 0
-161 -201 -202 0
-161 -201 -203 0
-161 -201 -204 0
-161 -202 -203 0
-161 -202 -204 0
-161 -203 -204 0
-178 -201 -202 0
-178 -201 -203 0
-178 -201 -204 0
-178 -202 -203 0
-178 -202 -204 0
-178 -203 -204 0
-201 -202 -203 0
-201 -202 -204 0
-201 -203 -204 0
-202 -203 -204 0
144 161 178 201 202 203 204 0
135 161 178 201 202 203 204 0
135 144 178 201 202 203 204 0
135 144 161 201 202 203 204 0
135 144 161 178 202 203 204 0
135 144 161 178 201 203 204 0
135 144 161 178 201 202 204 0
135 144 161 178 201 202 203 0
-139 -148 -165 0
-139 -148 -182 0
-139 -148 -205 0
-139 -148 -206 0
-139 -148 -207 0
-139 -148 -208 0
-139 -165 -182 0
-139 -165 -205 0
-139 -165 -206 0
-139 -165 -207 0
-139 -165 -208 0
-139 -182 -205 0
-139 -182 -206 0
-139 -182 -207 0
-139 -182 -208 0
-139 -205 -206 0
-139 -205 -207 0
-139 -205 -208 0
-139 -206 -207 0
-139 -206 -208 0
-139 -207 -208 0
-148 -165 -182 0
-148 -165 -205 0
-148 -165 -206 0
-148 -165 -207 0
-148 -165 -208 0
-148 -182 -205 0
-148 -182 -206 0
-148 -182 -207 0
-148 -182 -208 0
-148 -205 -206 0
-148 -205 -207 0
-148 -205 -208 0
-148 -206 -207 0
-148 -206 -208 0
-148 -207 -208 0
-165 -182 -205 0
-165 -182 -206 0
-165 -182 -207 0
-165 -182 -208 0
-165 -205 -206 0
-165 -205 -207 0
-165 -205 -208 0
-165 -206 -207 0
-165 -206 -208 0
-165 -207 -208 0
-182 -205 -206 0
-182 -205 -207 0
-182 -205 -208 0
-182 -206 -207 0
-182 -206 -208 0
-182 -207 -208 0
-205 -206 -207 0
-205 -206 -208 0
-205 -207 -208 0
-206 -207 -208 0
148 165 182 205 206 207 208 0
139 165 182 205 206 207 208 0
139 148 182 205 206 207 208 0
139 148 165 205 206 207 208 0
139 148 165 182 206 207 208 0
139 148 165 182 205 207 208 0
139 148 165 182 205 206 208 0
139 148 165 182 205 206 207 0
-143 -152 -169 0
-143 -152 -186 0
-143 -152 -209 0
-143 -152 -210 0
-143 -152 -211 0
-143 -152 -212 0
-143 -169 -186 0
-143 -169 -209 0
-143 -169 -210 0
-143 -169 -211 0
-143 -169 -212 0
-143 -186 -209 0
-143 -186 -210 0
-143 -186 -211 0
-143 -186 -212 0
-143 -209 -210 0
-143 -209 -211 0
-143 -209 -212 0
-143 -210 -211 0
-143 -210 -212 0
-143 -211 -212 0
-152 -169 -186 0
-152 -169 -209 0
-152 -169 -210 0
-152 -169 -211 0
-152 -169 -212 0
-152 -186 -209 0
-152 -186 -210 0
-152 -186 -211 0
-152 -186 -212 0
-152 -209 -210 0
-152 -209 -211 0
-152 -209 -212 0
-152 -210 -211 0
-152 -210 -212 0
-152 -211 -212 0
-169 -186 -209 0
-169 -186 -210 0
-169 -186 -211 0
-169 -186 -212 0
-169 -209 -210 0
-169 -209 -211 0
-169 -209 -212 0
-169 -210 -211 0
-169 -210 -212 0
-169 -211 -212 0
-186 -209 -210 0
-186 -209 -211 0
-186 -209 -212 0
-186 -210 -211 0
-186 -210 -212 0
-186 -211 -212 0
-209 -210 -211 0
-209 -210 -212 0
-209 -211 -212 0
-210 -211 -212 0
152 169 186 209 210 211 212 0
143 169 186 209 210 211 212 0
143 152 186 209 210 211 212 0
143 152 169 209 210 211 212 0
143 152 169 186 210 211 212 0
143 152 169 186 209 211 212 0
143 152 169 186 209 210 212 0
143 152 169 186 209 210 211 0
-147 -156 -173 0
-147 -156 -190 0
-147 -156 -213 0
-147 -156 -214 0
-147 -156 -215 0
-147 -156 -216 0
-147 -173 -190 0
-147 -173 -213 0
-147 -173 -214 0
-147 -173 -215 0
-147 -173 -216 0
-147 -190 -213 0
-147 -190 -214 0
-147 -190 -215 0
-147 -190 -216 0
-147 -213 -214 0
-147 -213 -215 0
-147 -213 -216 0
-147 -214 -215 0
-147 -214 -216 0
-147 -215 -216 0
-156 -173 -190 0
-156 -173 -213 0
-156 -173 -214 0
-156 -173 -215 0
-156 -173 -216 0
-156 -190 -213 0
-156 -190 -214 0
-156 -190 -215 0
-156 -190 -216 0
-156 -213 -214 0
-156 -213 -215 0
-156 -213 -216 0
-156 -214 -215 0
-156 -214 -216 0
-156 -215 -216 0
-173 -190 -213 0
-173 -190 -214 0
-173 -190 -215 0
-173 -190 -216 0
-173 -213 -214 0
-173 -213 -215 0
-173 -213 -216 0
-173 -214 -215 0
-173 -214 -216 0
-173 -215 -216 0
-190 -213 -214 0
-190 -213 -215 0
-190 -213 -216 0
-190 -214 -215 0
-190 -214 -216 0
-190 -215 -216 0
-213 -214 -215 0
-213 -214 -216 0
-213 -215 -216 0
-214 -215 -216 0
156 173 190 213 214 215 216 0
147 173 190 213 214 215 216 0
147 156 190 213 214 215 216 0
147 156 173 213 214 215 216 0
147 156 173 190 214 215 216 0
147 156 173 190 213 215 216 0
147 156 173 190 213 214 216 0
147 156 173 190 213 214 215 0
-151 -160 -162 0
-151 -160 -177 0
-151 -160 -217 0
-151 -160 -218 0
-151 -160 -219 0
-151 -160 -220 0
-151 -162 -177 0
-151 -162 -217 0
-151 -162 -218 0
-151 -162 -219 0
-151 -162 -220 0
-151 -177 -217 0
-151 -177 -218 0
-151 -177 -219 0
-151 -177 -220 0
-151 -217 -218 0
-151 -217 -219 0
-151 -217 -220 0
-151 -218 -219 0
-151 -218 -220 0
-151 -219 -220 0
-160 -162 -177 0
-160 -162 -217 0
-160 -162 -218 0
-160 -162 -219 0
-160 -162 -220 0
-160 -177 -217 0
-160 -177 -218 0
-160 -177 -219 0
-160 -177 -220 0
-160 -217 -218 0
-160 -217 -219 0
-160 -217 -220 0
-160 -218 -219 0
-160 -218 -220 0
-160 -219 -220 0
-162 -177 -217 0
-162 -177 -218 0
-162 -177 -219 0
-162 -177 -220 0
-162 -217 -218 0
-162 -217 -219 0
-162 -217 -220 0
-162 -218 -219 0
-162 -218 -220 0
-162 -219 -220 0
-177 -217 -218 0
-177 -217 -219 0
-177 -217 -220 0
-177 -218 -219 0
-177 -218 -220 0
-177 -219 -220 0
-217 -218 -219 0
-217 -218 -220 0
-217 -219 -220 0
-218 -219 -220 0
160 162 177 217 218 219 220 0
151 162 177 217 218 219 220 0
151 160 177 217 218 219 220 0
151 160 162 217 218 219 220 0
151 160 162 177 218 219 220 0
151 160 162 177 217 219 220 0
151 160 162 177 217 218 220 0
151 160 162 177 217 218 219 0
-132 -155 -166 0
-132 -155 -181 0
-132 -155 -221 0
-132 -155 -222 0
-132 -155 -223 0
-132 -155 -224 0
-132 -166 -181 0
-132 -166 -221 0
-132 -166 -222 0
-132 -166 -223 0
-132 -166 -224 0
-132 -181 -221 0
-132 -181 -222 0
-132 -181 -223 0
-132 -181 -224 0
-132 -221 -222 0
-132 -221 -223 0
-132 -221 -224 0
-132 -222 -223 0
-132 -222 -224 0
-132 -223 -224 0
-155 -166 -181 0
-155 -166 -221 0
-155 -166 -222 0
-155 -166 -223 0
-155 -166 -224 0
-155 -181 -221 0
-155 -181 -222 0
-155 -181 -223 0
-155 -181 -224 0
-155 -221 -222 0
-155 -221 -223 0
-155 -221 -224 0
-155 -222 -223 0
-155 -222 -224 0
-155 -223 -224 0
-166 -181 -221 0
-166 -181 -222 0
-166 -181 -223 0
-166 -181 -224 0
-166 -221 -222 0
-166 -221 -223 0
-166 -221 -224 0
-166 -222 -223 0
-166 -222 -224 0
-166 -223 -224 0
-181 -221 -222 0
-181 -221 -223 0
-181 -221 -224 0
-181 -222 -223 0
-181 -222 -224 0
-181 -223 -224 0
-221 -222 -223 0
-221 -222 -224 0
-221 -223 -224 0
-222 -223 -224 0
155 166 181 221 222 223 224 0
132 166 181 221 222 223 224 0
132 155 181 221 222 223 224 0
132 155 166 221 222 223 224 0
132 155 166 181 222 223 224 0
132 155 166 181 221 223 224 0
132 155 166 181 221 222 224 0
132 155 166 181 221 222 223 0
-168 -191 -202 0
-168 -191 -217 0
-168 -191 -225 0
-168 -191 -226 0
-168 -191 -227 0
-168 -191 -228 0
-168 -202 -217 0
-168 -202 -225 0
-168 -202 -226 0
-168 -202 -227 0
-168 -202 -228 0
-168 -217 -225 0
-168 -217 -226 0
-168 -217 -227 0
-168 -217 -228 0
-168 -225 -226 0
-168 -225 -227 0
-168 -225 -228 0
-168 -226 -227 0
-168 -226 -228 0
-168 -227 -228 0
-191 -202 -217 0
-191 -202 -225 0
-191 -202 -226 0
-191 -202 -227 0
-191 -202 -228 0
-191 -217 -225 0
-191 -217 -226 0
-191 -217 -227 0
-191 -217 -228 0
-191 -225 -226 0
-191 -225 -227 0
-191 -225 -228 0
-191 -226 -227 0
-191 -226 -228 0
-191 -227 -228 0
-202 -217 -225 0
-202 -217 -226 0
-202 -217 -227 0
-202 -217 -228 0
-202 -225 -226 0
-202 -225 -227 0
-202 -225 -228 0
-202 -226 -227 0
-202 -226 -228 0
-202 -227 -228 0
-217 -225 -226 0
-217 -225 -227 0
-217 -225 -228 0
-217 -226 -227 0
-217 -226 -228 0
-217 -227 -228 0
-225 -226 -227 0
-225 -226 -228 0
-225 -227 -228 0
-226 -227 -228 0
191 202 217 225 226 227 228 0
168 202 217 225 226 227 228 0
168 191 217 225 226 227 228 0
168 191 202 225 226 227 228 0
168 191 202 217 226 227 228 0
168 191 202 217 225 227 228 0
168 191 202 217 225 226 228 0
168 191 202 217 225 226 227 0
-163 -172 -206 0
-163 -172 -221 0
-163 -172 -229 0
-163 -172 -230 0
-163 -172 -231 0
-163 -172 -232 0
-163 -206 -221 0
-163 -206 -229 0
-163 -206 -230 0
-163 -206 -231 0
-163 -206 -232 0
-163 -221 -229 0
-163 -221 -230 0
-163 -221 -231 0
-163 -221 -232 0
-163 -229 -230 0
-163 -229 -231 0
-163 -229 -232 0
-163 -230 -231 0
-163 -230 -232 0
-163 -231 -232 0
-172 -206 -221 0
-172 -206 -229 0
-172 -206 -230 0
-172 -206 -231 0
-172 -206 -232 0
-172 -221 -229 0
-172 -221 -230 0
-172 -221 -231 0
-172 -221 -232 0
-172 -229 -230 0
-172 -229 -231 0
-172 -229 -232 0
-172 -230 -231 0
-172 -230 -232 0
-172 -231 -232 0
-206 -221 -229 0
-206 -221 -230 0
-206 -221 -231 0
-206 -221 -232 0
-206 -229 -230 0
-206 -229 -231 0
-206 -229 -232 0
-206 -230 -231 0
-206 -230 -232 0
-206 -231 -232 0
-221 -229 -230 0
-221 -229 -231 0
-221 -229 -232 0
-221 -230 -231 0
-221 -230 -232 0
-221 -231 -232 0
-229 -230 -231 0
-229 -230 -232 0
-229 -231 -232 0
-230 -231 -232 0
172 206 221 229 230 231 232 0
163 206 221 229 230 231 232 0
163 172 221 229 230 231 232 0
163 172 206 229 230 231 232 0
163 172 206 221 230 231 232 0
163 172 206 221 229 231 232 0
163 172 206 221 229 230 232 0
163 172 206 221 229 230 231 0
-167 -176 -193 0
-167 -176 -210 0
-167 -176 -233 0
-167 -176 -234 0
-167 -176 -235 0
-167 -176 -236 0
-167 -193 -210 0
-167 -193 -233 0
-167 -193 -234 0
-167 -193 -235 0
-167 -193 -236 0
-167 -210 -233 0
-167 -210 -234 0
-167 -210 -235 0
-167 -210 -236 0
-167 -233 -234 0
-167 -233 -235 0
-167 -233 -236 0
-167 -234 -235 0
-167 -234 -236 0
-167 -235 -236 0
-176 -193 -210 0
-176 -193 -233 0
-176 -193 -234 0
-176 -193 -235 0
-176 -193 -236 0
-176 -210 -233 0
-176 -210 -234 0
-176 -210 -235 0
-176 -210 -236 0
-176 -233 -234 0
-176 -233 -235 0
-176 -233 -236 0
-176 -234 -235 0
-176 -234 -236 0
-176 -235 -236 0
-193 -210 -233 0
-193 -210 -234 0
-193 -210 -235 0
-193 -210 -236 0
-193 -233 -234 0
-193 -233 -235 0
-193 -233 -236 0
-193 -234 -235 0
-193 -234 -236 0
-193 -235 -236 0
-210 -233 -234 0
-210 -233 -235 0
-210 -233 -236 0
-210 -234 -235 0
-210 -234 -236 0
-210 -235 -236 0
-233 -234 -235 0
-233 -234 -236 0
-233 -235 -236 0
-234 -235 -236 0
176 193 210 233 234 235 236 0
167 193 210 233 234 235 236 0
167 176 210 233 234 235 236 0
167 176 193 233 234 235 236 0
167 176 193 210 234 235 236 0
167 176 193 210 233 235 236 0
167 176 193 210 233 234 236 0
167 176 193 210 233 234 235 0
-171 -180 -197 0
-171 -180 -214 0
-171 -180 -237 0
-171 -180 -238 0
-171 -180 -239 0
-171 -180 -240 0
-171 -197 -214 0
-171 -197 -237 0
-171 -197 -238 0
-171 -197 -239 0
-171 -197 -240 0
-171 -214 -237 0
-171 -214 -238 0
-171 -214 -239 0
-171 -214 -240 0
-171 -237 -238 0
-171 -237 -239 0
-171 -237 -240 0
-171 -238 -239 0
-171 -238 -240 0
-171 -239 -240 0
-180 -197 -214 0
-180 -197 -237 0
-180 -197 -238 0
-180 -197 -239 0
-180 -197 -240 0
-180 -214 -237 0
-180 -214 -238 0
-180 -214 -239 0
-180 -214 -240 0
-180 -237 -238 0
-180 -237 -239 0
-180 -237 -240 0
-180 -238 -239 0
-180 -238 -240 0
-180 -239 -240 0
-197 -214 -237 0
-197 -214 -238 0
-197 -214 -239 0
-197 -214 -240 0
-197 -237 -238 0
-197 -237 -239 0
-197 -237 -240 0
-197 -238 -239 0
-197 -238 -240 0
-197 -239 -240 0
-214 -237 -238 0
-214 -237 -239 0
-214 -237 -240 0
-214 -238 -239 0
-214 -238 -240 0
-214 -239 -240 0
-237 -238 -239 0
-237 -238 -240 0
-237 -239 -240 0
-238 -239 -240 0
180 197 214 237 238 239 240 0
171 197 214 237 238 239 240 0
171 180 214 237 238 239 240 0
171 180 197 237 238 239 240 0
171 180 197 214 238 239 240 0
171 180 197 214 237 239 240 0
171 180 197 214 237 238 240 0
171 180 197 214 237 238 239 0
-175 -184 -201 0
-175 -184 -218 0
-175 -184 -241 0
-175 -184 -242 0
-175 -184 -243 0
-175 -184 -244 0
-175 -201 -218 0
-175 -201 -241 0
-175 -201 -242 0
-175 -201 -243 0
-175 -201 -244 0
-175 -218 -241 0
-175 -218 -242 0
-175 -218 -243 0
-175 -218 -244 0
-175 -241 -242 0
-175 -241 -243 0
-175 -241 -244 0
-175 -242 -243 0
-175 -242 -244 0
-175 -243 -244 0
-184 -201 -218 0
-184 -201 -241 0
-184 -201 -242 0
-184 -201 -243 0
-184 -201 -244 0
-184 -218 -241 0
-184 -218 -242 0
-184 -218 -243 0
-184 -218 -244 0
-184 -241 -242 0
-184 -241 -243 0
-184 -241 -244 0
-184 -242 -243 0
-184 -242 -244 0
-184 -243 -244 0
-201 -218 -241 0
-201 -218 -242 0
-201 -218 -243 0
-201 -218 -244 0
-201 -241 -242 0
-201 -241 -243 0
-201 -241 -244 0
-201 -242 -243 0
-201 -242 -244 0
-201 -243 -244 0
-218 -241 -242 0
-218 -241 -243 0
-218 -241 -244 0
-218 -242 -243 0
-218 -242 -244 0
-218 -243 -244 0
-241 -242 -243 0
-241 -242 -244 0
-241 -243 -244 0
-242 -243 -244 0
184 201 218 241 242 243 244 0
175 201 218 241 242 243 244 0
175 184 218 241 242 243 244 0
175 184 201 241 242 243 244 0
175 184 201 218 242 243 244 0
175 184 201 218 241 243 244 0
175 184 201 218 241 242 244 0
175 184 201 218 241 242 243 0
-179 -188 -205 0
-179 -188 -222 0
-179 -188 -245 0
-179 -188 -246 0
-179 -188 -247 0
-179 -188 -248 0
-179 -205 -222 0
-179 -205 -245 0
-179 -205 -246 0
-179 -205 -247 0
-179 -205 -248 0
-179 -222 -245 0
-179 -222 -246 0
-179 -222 -247 0
-179 -222 -248 0
-179 -245 -246 0
-179 -245 -247 0
-179 -245 -248 0
-179 -246 -247 0
-179 -246 -248 0
-179 -247 -248 0
-188 -205 -222 0
-188 -205 -245 0
-188 -205 -246 0
-188 -205 -247 0
-188 -205 -248 0
-188 -222 -245 0
-188 -222 -246 0
-188 -222 -247 0
-188 -222 -248 0
-188 -245 -246 0
-188 -245 -247 0
-188 -245 -248 0
-188 -246 -247 0
-188 -246 -248 0
-188 -247 -248 0
-205 -222 -245 0
-205 -222 -246 0
-205 -222 -247 0
-205 -222 -248 0
-205 -245 -246 0
-205 -245 -247 0
-205 -245 -248 0
-205 -246 -247 0
-205 -246 -248 0
-205 -247 -248 0
-222 -245 -246 0
-222 -245 -247 0
-222 -245 -248 0
-222 -246 -247 0
-222 -246 -248 0
-222 -247 -248 0
-245 -246 -247 0
-245 -246 -248 0
-245 -247 -248 0
-246 -247 -248 0
188 205 222 245 246 247 248 0
179 205 222 245 246 247 248 0
179 188 222 245 246 247 248 0
179 188 205 245 246 247 248 0
179 188 205 222 246 247 248 0
179 188 205 222 245 247 248 0
179 188 205 222 245 246 248 0
179 188 205 222 245 246 247 0
-183 -192 -194 0
-183 -192 -209 0
-183 -192 -249 0
-183 -192 -250 0
-183 -192 -251 0
-183 -192 -252 0
-183 -194 -209 0
-183 -194 -249 0
-183 -194 -250 0
-183 -194 -251 0
-183 -194 -252 0
-183 -209 -249 0
-183 -209 -250 0
-183 -209 -251 0
-183 -209 -252 0
-183 -249 -250 0
-183 -249 -251 0
-183 -249 -252 0
-183 -250 -251 0
-183 -250 -252 0
-183 -251 -252 0
-192 -194 -209 0
-192 -194 -249 0
-192 -194 -250 0
-192 -194 -251 0
-192 -194 -252 0
-192 -209 -249 0
-192 -209 -250 0
-192 -209 -251 0
-192 -209 -252 0
-192 -249 -250 0
-192 -249 -251 0
-192 -249 -252 0
-192 -250 -251 0
-192 -250 -252 0
-192 -251 -252 0
-194 -209 -249 0
-194 -209 -250 0
-194 -209 -251 0
-194 -209 -252 0
-194 -249 -250 0
-194 -249 -251 0
-194 -249 -252 0
-194 -250 -251 0
-194 -250 -252 0
-194 -251 -252 0
-209 -249 -250 0
-209 -249 -251 0
-209 -249 -252 0
-209 -250 -251 0
-209 -250 -252 0
-209 -251 -252 0
-249 -250 -251 0
-249 -250 -252 0
-249 -251 -252 0
-250 -251 -252 0
192 194 209 249 250 251 252 0
183 194 209 249 250 251 252 0
183 192 209 249 250 251 252 0
183 192 194 249 250 251 252 0
183 192 194 209 250 251 252 0
183 192 194 209 249 251 252 0
183 192 194 209 249 250 252 0
183 192 194 209 249 250 251 0
-164 -187 -198 0
-164 -187 -213 0
-164 -187 -253 0
-164 -187 -254 0
-164 -187 -255 0
-164 -187 -256 0
-164 -198 -213 0
-164 -198 -253 0
-164 -198 -254 0
-164 -198 -255 0
-164 -198 -256 0
-164 -213 -253 0
-164 -213 -254 0
-164 -213 -255 0
-164 -213 -256 0
-164 -253 -254 0
-164 -253 -255 0
-164 -253 -256 0
-164 -254 -255 0
-164 -254 -256 0
-164 -255 -256 0
-187 -198 -213 0
-187 -198 -253 0
-187 -198 -254 0
-187 -198 -255 0
-187 -198 -256 0
-187 -213 -253 0
-187 -213 -254 0
-187 -213 -255 0
-187 -213 -256 0
-187 -253 -254 0
-187 -253 -255 0
-187 -253 -256 0
-187 -254 -255 0
-187 -254 -256 0
-187 -255 -256 0
-198 -213 -253 0
-198 -213 -254 0
-198 -213 -255 0
-198 -213 -256 0
-198 -253 -254 0
-198 -253 -255 0
-198 -253 -256 0
-198 -254 -255 0
-198 -254 -256 0
-198 -255 -256 0
-213 -253 -254 0
-213 -253 -255 0
-213 -253 -256 0
-213 -254 -255 0
-213 -254 -256 0
-213 -255 -256 0
-253 -254 -255 0
-253 -254 -256 0
-253 -255 -256 0
-254 -255 -256 0
187 198 213 253 254 255 256 0
164 198 213 253 254 255 256 0
164 187 213 253 254 255 256 0
164 187 198 253 254 255 256 0
164 187 198 213 254 255 256 0
164 187 198 213 253 255 256 0
164 187 198 213 253 254 256 0
164 187 198 213 253 254 255 0
-200 -223 -234 0
-200 -223 -249 0
-200 -223 -257 0
-200 -223 -258 0
-200 -223 -259 0
-200 -223 -260 0
-200 -234 -249 0
-200 -234 -257 0
-200 -234 -258 0
-200 -234 -259 0
-200 -234 -260 0
-200 -249 -257 0
-200 -249 -258 0
-200 -249 -259 0
-200 -249 -260 0
-200 -257 -258 0
-200 -257 -259 0
-200 -257 -260 0
-200 -258 -259 0
-200 -258 -260 0
-200 -259 -260 0
-223 -234 -249 0
-223 -234 -257 0
-223 -234 -258 0
-223 -234 -259 0
-223 -234 -260 0
-223 -249 -257 0
-223 -249 -258 0
-223 -249 -259 0
-223 -249 -260 0
-223 -257 -258 0
-223 -257 -259 0
-223 -257 -260 0
-223 -258 -259 0
-223 -258 -260 0
-223 -259 -260 0
-234 -249 -257 0
-234 -249 -258 0
-234 -249 -259 0
-234 -249 -260 0
-234 -257 -258 0
-234 -257 -259 0
-234 -257 -260 0
-234 -258 -259 0
-234 -258 -260 0
-234 -259 -260 0
-249 -257 -258 0
-249 -257 -259 0
-249 -257 -260 0
-249 -258 -259 0
-249 -258 -260 0
-249 -259 -260 0
-257 -258 -259 0
-257 -258 -260 0
-257 -259 -260 0
-258 -259 -260 0
223 234 249 257 258 259 260 0
200 234 249 257 258 259 260 0
200 223 249 257 258 259 260 0
200 223 234 257 258 259 260 0
200 223 234 249 258 259 260 0
200 223 234 249 257 259 260 0
200 223 234 249 257 258 260 0
200 223 234 249 257 258 259 0
-195 -204 -238 0
-195 -204 -253 0
-195 -204 -261 0
-195 -204 -262 0
-195 -204 -263 0
-195 -204 -264 0
-195 -238 -253 0
-195 -238 -261 0
-195 -238 -262 0
-195 -238 -263 0
-195 -238 -264 0
-195 -253 -261 0
-195 -253 -262 0
-195 -253 -263 0
-195 -253 -264 0
-195 -261 -262 0
-195 -261 -263 0
-195 -261 -264 0
-195 -262 -263 0
-195 -262 -264 0
-195 -263 -264 0
-204 -238 -253 0
-204 -238 -261 0
-204 -238 -262 0
-204 -238 -263 0
-204 -238 -264 0
-204 -253 -261 0
-204 -253 -262 0
-204 -253 -263 0
-204 -253 -264 0
-204 -261 -262 0
-204 -261 -263 0
-204 -261 -264 0
-204 -262 -263 0
-204 -262 -264 0
-204 -263 -264 0
-238 -253 -261 0
-238 -253 -262 0
-238 -253 -263 0
-238 -253 -264 0
-238 -261 -262 0
-238 -261 -263 0
-238 -261 -264 0
-238 -262 -263 0
-238 -262 -264 0
-238 -263 -264 0
-253 -261 -262 0
-253 -261 -263 0
-253 -261 -264 0
-253 -262 -263 0
-253 -262 -264 0
-253 -263 -264 0
-261 -262 -263 0
-261 -262 -264 0
-261 -263 -264 0
-262 -263 -264 0
204 238 253 261 262 263 264 0
195 238 253 261 262 263 264 0
195 204 253 261 262 263 264 0
195 204 238 261 262 263 264 0
195 204 238 253 262 263 264 0
195 204 238 253 261 263 264 0
195 204 238 253 261 262 264 0
195 204 238 253 261 262 263 0
-199 -208 -225 0
-199 -208 -242 0
-199 -208 -265 0
-199 -208 -266 0
-199 -208 -267 0
-199 -208 -268 0
-199 -225 -242 0
-199 -225 -265 0
-199 -225 -266 0
-199 -225 -267 0
-199 -225 -268 0
-199 -242 -265 0
-199 -242 -266 0
-199 -242 -267 0
-199 -242 -268 0
-199 -265 -266 0
-199 -265 -267 0
-199 -265 -268 0
-199 -266 -267 0
-199 -266 -268 0
-199 -267 -268 0
-208 -225 -242 0
-208 -225 -265 0
-208 -225 -266 0
-208 -225 -267 0
-208 -225 -268 0
-208 -242 -265 0
-208 -242 -266 0
-208 -242 -267 0
-208 -242 -268 0
-208 -265 -266 0
-208 -265 -267 0
-208 -265 -268 0
-208 -266 -267 0
-208 -266 -268 0
-208 -267 -268 0
-225 -242 -265 0
-225 -242 -266 0
-225 -242 -267 0
-225 -242 -268 0
-225 -265 -266 0
-225 -265 -267 0
-225 -265 -268 0
-225 -266 -267 0
-225 -266 -268 0
-225 -267 -268 0
-242 -265 -266 0
-242 -265 -267 0
-242 -265 -268 0
-242 -266 -267 0
-242 -266 -268 0
-242 -267 -268 0
-265 -266 -267 0
-265 -266 -268 0
-265 -267 -268 0
-266 -267 -268 0
208 225 242 265 266 267 268 0
199 225 242 265 266 267 268 0
199 208 242 265 266 267 268 0
199 208 225 265 266 267 268 0
199 208 225 242 266 267 268 0
199 208 225 242 265 267 268 0
199 208 225 242 265 266 268 0
199 208 225 242 265 266 267 0
-203 -212 -229 0
-203 -212 -246 0
-203 -212 -269 0
-203 -212 -270 0
-203 -212 -271 0
-203 -212 -272 0
-203 -229 -246 0
-203 -229 -269 0
-203 -229 -270 0
-203 -229 -271 0
-203 -229 -272 0
-203 -246 -269 0
-203 -246 -270 0
-203 -246 -271 0
-203 -246 -272 0
-203 -269 -270 0
-203 -269 -271 0
-203 -269 -272 0
-203 -270 -271 0
-203 -270 -272 0
-203 -271 -272 0
-212 -229 -246 0
-212 -229 -269 0
-212 -229 -270 0
-212 -229 -271 0
-212 -229 -272 0
-212 -246 -269 0
-212 -246 -270 0
-212 -246 -271 0
-212 -246 -272 0
-212 -269 -270 0
-212 -269 -271 0
-212 -269 -272 0
-212 -270 -271 0
-212 -270 -272 0
-212 -271 -272 0
-229 -246 -269 0
-229 -246 -270 0
-229 -246 -271 0
-229 -246 -272 0
-229 -269 -270 0
-229 -269 -271 0
-229 -269 -272 0
-229 -270 -271 0
-229 -270 -272 0
-229 -271 -272 0
-246 -269 -270 0
-246 -269 -271 0
-246 -269 -272 0
-246 -270 -271 0
-246 -270 -272 0
-246 -271 -272 0
-269 -270 -271 0
-269 -270 -272 0
-269 -271 -272 0
-270 -271 -272 0
212 229 246 269 270 271 272 0
203 229 246 269 270 271 272 0
203 212 246 269 270 271 272 0
203 212 229 269 270 271 272 0
203 212 229 246 270 271 272 0
203 212 229 246 269 271 272 0
203 212 229 246 269 270 272 0
203 212 229 246 269 270 271 0
-207 -216 -233 0
-207 -216 -250 0
-207 -216 -273 0
-207 -216 -274 0
-207 -216 -275 0
-207 -216 -276 0
-207 -233 -250 0
-207 -233 -273 0
-207 -233 -274 0
-207 -233 -275 0
-207 -233 -276 0
-207 -250 -273 0
-207 -250 -274 0
-207 -250 -275 0
-207 -250 -276 0
-207 -273 -274 0
-207 -273 -275 0
-207 -273 -276 0
-207 -274 -275 0
-207 -274 -276 0
-207 -275 -276 0
-216 -233 -250 0
-216 -233 -273 0
-216 -233 -274 0
-216 -233 -275 0
-216 -233 -276 0
-216 -250 -273 0
-216 -250 -274 0
-216 -250 -275 0
-216 -250 -276 0
-216 -273 -274 0
-216 -273 -275 0
-216 -273 -276 0
-216 -274 -275 0
-216 -274 -276 0
-216 -275 -276 0
-233 -250 -273 0
-233 -250 -274 0
-233 -250 -275 0
-233 -250 -276 0
-233 -273 -274 0
-233 -273 -275 0
-233 -273 -276 0
-233 -274 -275 0
-233 -274 -276 0
-233 -275 -276 0
-250 -273 -274 0
-250 -273 -275 0
-250 -273 -276 0
-250 -274 -275 0
-250 -274 -276 0
-250 -275 -276 0
-273 -274 -275 0
-273 -274 -276 0
-273 -275 -276 0
-274 -275 -276 0
216 233 250 273 274 275 276 0
207 233 250 273 274 275 276 0
207 216 250 273 274 275 276 0
207 216 233 273 274 275 276 0
207 216 233 250 274 275 276 0
207 216 233 250 273 275 276 0
207 216 233 250 273 274 276 0
207 216 233 250 273 274 275 0
-211 -220 -237 0
-211 -220 -254 0
-211 -220 -277 0
-211 -220 -278 0
-211 -220 -279 0
-211 -220 -280 0
-211 -237 -254 0
-211 -237 -277 0
-211 -237 -278 0
-211 -237 -279 0
-211 -237 -280 0
-211 -254 -277 0
-211 -254 -278 0
-211 -254 -279 0
-211 -254 -280 0
-211 -277 -278 0
-211 -277 -279 0
-211 -277 -280 0
-211 -278 -279 0
-211 -278 -280 0
-211 -279 -280 0
-220 -237 -254 0
-220 -237 -277 0
-220 -237 -278 0
-220 -237 -279 0
-220 -237 -280 0
-220 -254 -277 0
-220 -254 -278 0
-220 -254 -279 0
-220 -254 -280 0
-220 -277 -278 0
-220 -277 -279 0
-220 -277 -280 0
-220 -278 -279 0
-220 -278 -280 0
-220 -279 -280 0
-237 -254 -277 0
-237 -254 -278 0
-237 -254 -279 0
-237 -254 -280 0
-237 -277 -278 0
-237 -277 -279 0
-237 -277 -280 0
-237 -278 -279 0
-237 -278 -280 0
-237 -279 -280 0
-254 -277 -278 0
-254 -277 -279 0
-254 -277 -280 0
-254 -278 -279 0
-254 -278 -280 0
-254 -279 -280 0
-277 -278 -279 0
-277 -278 -280 0
-277 -279 -280 0
-278 -279 -280 0
220 237 254 277 278 279 280 0
211 237 254 277 278 279 280 0
211 220 254 277 278 279 280 0
211 220 237 277 278 279 280 0
211 220 237 254 278 279 280 0
211 220 237 254 277 279 280 0
211 220 237 254 277 278 280 0
211 220 237 254 277 278 279 0
-215 -224 -226 0
-215 -224 -241 0
-215 -224 -281 0
-215 -224 -282 0
-215 -224 -283 0
-215 -224 -284 0
-215 -226 -241 0
-215 -226 -281 0
-215 -226 -282 0
-215 -226 -283 0
-215 -226 -284 0
-215 -241 -281 0
-215 -241 -282 0
-215 -241 -283 0
-215 -241 -284 0
-215 -281 -282 0
-215 -281 -283 0
-215 -281 -284 0
-215 -282 -283 0
-215 -282 -284 0
-215 -283 -284 0
-224 -226 -241 0
-224 -226 -281 0
-224 -226 -282 0
-224 -226 -283 0
-224 -226 -284 0
-224 -241 -281 0
-224 -241 -282 0
-224 -241 -283 0
-224 -241 -284 0
-224 -281 -282 0
-224 -281 -283 0
-224 -281 -284 0
-224 -282 -283 0
-224 -282 -284 0
-224 -283 -284 0
-226 -241 -281 0
-226 -241 -282 0
-226 -241 -283 0
-226 -241 -284 0
-226 -281 -282 0
-226 -281 -283 0
-226 -281 -284 0
-226 -282 -283 0
-226 -282 -284 0
-226 -283 -284 0
-241 -281 -282 0
-241 -281 -283 0
-241 -281 -284 0
-241 -282 -283 0
-241 -282 -284 0
-241 -283 -284 0
-281 -282 -283 0
-281 -282 -284 0
-281 -283 -284 0
-282 -283 -284 0
224 226 241 281 282 283 284 0
215 226 241 281 282 283 284 0
215 224 241 281 282 283 284 0
215 224 226 281 282 283 284 0
215 224 226 241 282 283 284 0
215 224 226 241 281 283 284 0
215 224 226 241 281 282 284 0
215 224 226 241 281 282 283 0
-196 -219 -230 0
-196 -219 -245 0
-196 -219 -285 0
-196 -219 -286 0
-196 -219 -287 0
-196 -219 -288 0
-196 -230 -245 0
-196 -230 -285 0
-196 -230 -286 0
-196 -230 -287 0
-196 -230 -288 0
-196 -245 -285 0
-196 -245 -286 0
-196 -245 -287 0
-196 -245 -288 0
-196 -285 -286 0
-196 -285 -287 0
-196 -285 -288 0
-196 -286 -287 0
-196 -286 -288 0
-196 -287 -288 0
-219 -230 -245 0
-219 -230 -285 0
-219 -230 -286 0
-219 -230 -287 0
-219 -230 -288 0
-219 -245 -285 0
-219 -245 -286 0
-219 -245 -287 0
-219 -245 -288 0
-219 -285 -286 0
-219 -285 -287 0
-219 -285 -288 0
-219 -286 -287 0
-219 -286 -288 0
-219 -287 -288 0
-230 -245 -285 0
-230 -245 -286 0
-230 -245 -287 0
-230 -245 -288 0
-230 -285 -286 0
-230 -285 -287 0
-230 -285 -288 0
-230 -286 -287 0
-230 -286 -288 0
-230 -287 -288 0
-245 -285 -286 0
-245 -285 -287 0
-245 -285 -288 0
-245 -286 -287 0
-245 -286 -288 0
-245 -287 -288 0
-285 -286 -287 0
-285 -286 -288 0
-285 -287 -288 0
-286 -287 -288 0
219 230 245 285 286 287 288 0
196 230 245 285 286 287 288 0
196 219 245 285 286 287 288 0
196 219 230 285 286 287 288 0
196 219 230 245 286 287 288 0
196 219 230 245 285 287 288 0
196 219 230 245 285 286 288 0
196 219 230 245 285 286 287 0
-232 -255 -266 0
-232 -255 -281 0
-232 -266 -281 0
-255 -266 -281 0
-227 -236 -270 0
-227 -236 -285 0
-227 -270 -285 0
-236 -270 -285 0
-231 -240 -257 0
-231 -240 -274 0
-231 -257 -274 0
-240 -257 -274 0
-235 -244 -261 0
-235 -244 -278 0
-235 -261 -278 0
-244 -261 -278 0
-239 -248 -265 0
-239 -248 -282 0
-239 -265 -282 0
-248 -265 -282 0
-243 -252 -269 0
-243 -252 -286 0
-243 -269 -286 0
-252 -269 -286 0
-247 -256 -258 0
-247 -256 -273 0
-247 -258 -273 0
-256 -258 -273 0
-228 -251 -262 0
-228 -251 -277 0
-228 -262 -277 0
-251 -262 -277 0
-1 -6 289 0
-1 -7 290 0
-1 -8 291 0
-1 -10 292 0
-1 -12 293 0
-1 -14 294 0
-2 -21 295 0
-2 -25 296 0
-2 -27 297 0
-2 -29 298 0
-2 -31 299 0
-2 -32 300 0
-3 -6 301 0
-3 -8 302 0
-3 -10 303 0
-3 -29 304 0
-3 -33 305 0
-3 -38 306 0
-3 -40 307 0
-3 -42 308 0
-4 -6 309 0
-4 -25 310 0
-4 -29 311 0
-4 -31 312 0
-4 -34 313 0
-4 -57 314 0
-4 -61 315 0
-4 -63 316 0
-5 -10 317 0
-5 -11 318 0
-5 -12 319 0
-5 -14 320 0
-5 -16 321 0
-5 -18 322 0
-6 -25 323 0
-6 -29 324 0
-6 -31 325 0
-7 -10 326 0
-7 -12 327 0
-7 -14 328 0
-7 -37 329 0
-7 -42 330 0
-7 -44 331 0
-7 -46 332 0
-8 -10 333 0
-8 -29 334 0
-8 -33 335 0
-8 -35 336 0
-8 -38 337 0
-8 -61 338 0
-9 -14 339 0
-9 -15 340 0
-9 -16 341 0
-9 -18 342 0
-9 -20 343 0
-9 -22 344 0
-10 -29 345 0
-11 -14 346 0
-11 -16 347 0
-11 -18 348 0
-11 -41 349 0
-11 -46 350 0
-11 -48 351 0
-11 -50 352 0
-12 -14 353 0
-12 -33 354 0
-12 -37 355 0
-12 -39 356 0
-12 -42 357 0
-13 -18 358 0
-13 -19 359 0
-13 -20 360 0
-13 -22 361 0
-13 -24 362 0
-13 -26 363 0
-15 -18 364 0
-15 -20 365 0
-15 -22 366 0
-15 -45 367 0
-15 -50 368 0
-15 -52 369 0
-15 -54 370 0
-16 -18 371 0
-16 -37 372 0
-16 -41 373 0
-16 -43 374 0
-16 -46 375 0
-17 -22 376 0
-17 -23 377 0
-17 -24 378 0
-17 -26 379 0
-17 -28 380 0
-17 -30 381 0
-19 -22 382 0
-19 -24 383 0
-19 -26 384 0
-19 -49 385 0
-19 -54 386 0
-19 -56 387 0
-19 -58 388 0
-20 -22 389 0
-20 -41 390 0
-20 -45 391 0
-20 -47 392 0
-20 -50 393 0
-21 -26 394 0
-21 -27 395 0
-21 -28 396 0
-21 -30 397 0
-21 -32 398 0
-23 -26 399 0
-23 -28 400 0
-23 -30 401 0
-23 -53 402 0
-23 -58 403 0
-23 -60 404 0
-23 -62 405 0
-24 -26 406 0
-24 -45 407 0
-24 -49 408 0
-24 -51 409 0
-24 -54 410 0
-25 -30 411 0
-25 -31 412 0
-25 -32 413 0
-27 -30 414 0
-27 -32 415 0
-27 -34 416 0
-27 -57 417 0
-27 -62 418 0
-27 -64 419 0
-28 -30 420 0
-28 -49 421 0
-28 -53 422 0
-28 -55 423 0
-28 -58 424 0
-31 -34 425 0
-31 -36 426 0
-31 -38 427 0
-31 -61 428 0
-32 -53 429 0
-32 -57 430 0
-32 -59 431 0
-32 -62 432 0
-33 -38 433 0
-33 -39 434 0
-33 -40 435 0
-33 -42 436 0
-33 -44 437 0
-33 -46 438 0
-34 -53 439 0
-34 -57 440 0
-34 -59 441 0
-34 -61 442 0
-34 -63 443 0
-34 -64 444 0
-35 -38 445 0
-35 -40 446 0
-35 -42 447 0
-35 -61 448 0
-35 -65 0
-35 -70 0
-35 -72 0
-35 -74 0
-36 -38 449 0
-36 -57 450 0
-36 -61 451 0
-36 -63 452 0
-36 -66 0
-36 -89 0
-36 -93 0
-36 -95 0
-37 -42 453 0
-37 -43 454 0
-37 -44 455 0
-37 -46 456 0
-37 -48 457 0
-37 -50 458 0
-38 -57 459 0
-38 -61 460 0
-38 -63 461 0
-39 -42 462 0
-39 -44 463 0
-39 -46 464 0
-39 -69 0
-39 -74 0
-39 -76 0
-39 -78 0
-40 -42 465 0
-40 -61 466 0
-40 -65 0
-40 -67 0
-40 -70 0
-40 -93 0
-41 -46 467 0
-41 -47 468 0
-41 -48 469 0
-41 -50 470 0
-41 -52 471 0
-41 -54 472 0
-42 -61 473 0
-43 -46 474 0
-43 -48 475 0
-43 -50 476 0
-43 -73 0
-43 -78 0
-43 -80 0
-43 -82 0
-44 -46 477 0
-44 -65 0
-44 -69 0
-44 -71 0
-44 -74 0
-45 -50 478 0
-45 -51 479 0
-45 -52 480 0
-45 -54 481 0
-45 -56 482 0
-45 -58 483 0
-47 -50 484 0
-47 -52 485 0
-47 -54 486 0
-47 -77 0
-47 -82 0
-47 -84 0
-47 -86 0
-48 -50 487 0
-48 -69 0
-48 -73 0
-48 -75 0
-48 -78 0
-49 -54 488 0
-49 -55 489 0
-49 -56 490 0
-49 -58 491 0
-49 -60 492 0
-49 -62 493 0
-51 -54 494 0
-51 -56 495 0
-51 -58 496 0
-51 -81 0
-51 -86 0
-51 -88 0
-51 -90 0
-52 -54 497 0
-52 -73 0
-52 -77 0
-52 -79 0
-52 -82 0
-53 -58 498 0
-53 -59 499 0
-53 -60 500 0
-53 -62 501 0
-53 -64 502 0
-55 -58 503 0
-55 -60 504 0
-55 -62 505 0
-55 -85 0
-55 -90 0
-55 -92 0
-55 -94 0
-56 -58 506 0
-56 -77 0
-56 -81 0
-56 -83 0
-56 -86 0
-57 -62 507 0
-57 -63 508 0
-57 -64 509 0
-59 -62 510 0
-59 -64 511 0
-59 -66 0
-59 -89 0
-59 -94 0
-59 -96 0
-60 -62 512 0
-60 -81 0
-60 -85 0
-60 -87 0
-60 -90 0
-63 -66 0
-63 -68 0
-63 -70 0
-63 -93 0
-64 -85 0
-64 -89 0
-64 -91 0
-64 -94 0
-65 -70 0
-65 -71 0
-65 -72 0
-65 -74 0
-65 -76 0
-65 -78 0
-66 -85 0
-66 -89 0
-66 -91 0
-66 -93 0
-66 -95 0
-66 -96 0
-67 -70 0
-67 -72 0
-67 -74 0
-67 -93 0
-67 -97 0
-67 -102 0
-67 -104 0
-67 -106 0
-68 -70 0
-68 -89 0
-68 -93 0
-68 -95 0
-68 -98 0
-68 -121 0
-68 -125 0
-68 -127 0
-69 -74 0
-69 -75 0
-69 -76 0
-69 -78 0
-69 -80 0
-69 -82 0
-70 -89 0
-70 -93 0
-70 -95 0
-71 -74 0
-71 -76 0
-71 -78 0
-71 -101 0
-71 -106 0
-71 -108 0
-71 -110 0
-72 -74 0
-72 -93 0
-72 -97 0
-72 -99 0
-72 -102 0
-72 -125 0
-73 -78 0
-73 -79 0
-73 -80 0
-73 -82 0
-73 -84 0
-73 -86 0
-74 -93 0
-75 -78 0
-75 -80 0
-75 -82 0
-75 -105 0
-75 -110 0
-75 -112 0
-75 -114 0
-76 -78 0
-76 -97 0
-76 -101 0
-76 -103 0
-76 -106 0
-77 -82 0
-77 -83 0
-77 -84 0
-77 -86 0
-77 -88 0
-77 -90 0
-79 -82 0
-79 -84 0
-79 -86 0
-79 -109 0
-79 -114 0
-79 -116 0
-79 -118 0
-80 -82 0
-80 -101 0
-80 -105 0
-80 -107 0
-80 -110 0
-81 -86 0
-81 -87 0
-81 -88 0
-81 -90 0
-81 -92 0
-81 -94 0
-83 -86 0
-83 -88 0
-83 -90 0
-83 -113 0
-83 -118 0
-83 -120 0
-83 -122 0
-84 -86 0
-84 -105 0
-84 -109 0
-84 -111 0
-84 -114 0
-85 -90 0
-85 -91 0
-85 -92 0
-85 -94 0
-85 -96 0
-87 -90 0
-87 -92 0
-87 -94 0
-87 -117 0
-87 -122 0
-87 -124 0
-87 -126 0
-88 -90 0
-88 -109 0
-88 -113 0
-88 -115 0
-88 -118 0
-89 -94 0
-89 -95 0
-89 -96 0
-91 -94 0
-91 -96 0
-91 -98 0
-91 -121 0
-91 -126 0
-91 -128 0
-92 -94 0
-92 -113 0
-92 -117 0
-92 -119 0
-92 -122 0
-95 -98 0
-95 -100 0
-95 -102 0
-95 -125 0
-96 -117 0
-96 -121 0
-96 -123 0
-96 -126 0
-97 -102 0
-97 -103 0
-97 -104 0
-97 -106 0
-97 -108 0
-97 -110 0
-98 -117 0
-98 -121 0
-98 -123 0
-98 -125 0
-98 -127 0
-98 -128 0
-99 -102 0
-99 -104 0
-99 -106 0
-99 -125 0
-99 -129 0
-99 -134 0
-99 -136 0
-99 -138 0
-100 -102 0
-100 -121 0
-100 -125 0
-100 -127 0
-100 -130 0
-100 -153 0
-100 -157 0
-100 -159 0
-101 -106 0
-101 -107 0
-101 -108 0
-101 -110 0
-101 -112 0
-101 -114 0
-102 -121 0
-102 -125 0
-102 -127 0
-103 -106 0
-103 -108 0
-103 -110 0
-103 -133 0
-103 -138 0
-103 -140 0
-103 -142 0
-104 -106 0
-104 -125 0
-104 -129 0
-104 -131 0
-104 -134 0
-104 -157 0
-105 -110 0
-105 -111 0
-105 -112 0
-105 -114 0
-105 -116 0
-105 -118 0
-106 -125 0
-107 -110 0
-107 -112 0
-107 -114 0
-107 -137 0
-107 -142 0
-107 -144 0
-107 -146 0
-108 -110 0
-108 -129 0
-108 -133 0
-108 -135 0
-108 -138 0
-109 -114 0
-109 -115 0
-109 -116 0
-109 -118 0
-109 -120 0
-109 -122 0
-111 -114 0
-111 -116 0
-111 -118 0
-111 -141 0
-111 -146 0
-111 -148 0
-111 -150 0
-112 -114 0
-112 -133 0
-112 -137 0
-112 -139 0
-112 -142 0
-113 -118 0
-113 -119 0
-113 -120 0
-113 -122 0
-113 -124 0
-113 -126 0
-115 -118 0
-115 -120 0
-115 -122 0
-115 -145 0
-115 -150 0
-115 -152 0
-115 -154 0
-116 -118 0
-116 -137 0
-116 -141 0
-116 -143 0
-116 -146 0
-117 -122 0
-117 -123 0
-117 -124 0
-117 -126 0
-117 -128 0
-119 -122 0
-119 -124 0
-119 -126 0
-119 -149 0
-119 -154 0
-119 -156 0
-119 -158 0
-120 -122 0
-120 -141 0
-120 -145 0
-120 -147 0
-120 -150 0
-121 -126 0
-121 -127 0
-121 -128 0
-123 -126 0
-123 -128 0
-123 -130 0
-123 -153 0
-123 -158 0
-123 -160 0
-124 -126 0
-124 -145 0
-124 -149 0
-124 -151 0
-124 -154 0
-127 -130 0
-127 -132 0
-127 -134 0
-127 -157 0
-128 -149 0
-128 -153 0
-128 -155 0
-128 -158 0
-129 -134 0
-129 -135 0
-129 -136 0
-129 -138 0
-129 -140 0
-129 -142 0
-130 -149 0
-130 -153 0
-130 -155 0
-130 -157 0
-130 -159 0
-130 -160 0
-131 -134 0
-131 -136 0
-131 -138 0
-131 -157 0
-131 -161 0
-131 -166 0
-131 -168 0
-131 -170 0
-132 -134 0
-132 -153 0
-132 -157 0
-132 -159 0
-132 -162 0
-132 -185 0
-132 -189 0
-132 -191 0
-133 -138 0
-133 -139 0
-133 -140 0
-133 -142 0
-133 -144 0
-133 -146 0
-134 -153 0
-134 -157 0
-134 -159 0
-135 -138 0
-135 -140 0
-135 -142 0
-135 -165 0
-135 -170 0
-135 -172 0
-135 -174 0
-136 -138 0
-136 -157 0
-136 -161 0
-136 -163 0
-136 -166 0
-136 -189 0
-137 -142 0
-137 -143 0
-137 -144 0
-137 -146 0
-137 -148 0
-137 -150 0
-138 -157 0
-139 -142 0
-139 -144 0
-139 -146 0
-139 -169 0
-139 -174 0
-139 -176 0
-139 -178 0
-140 -142 0
-140 -161 0
-140 -165 0
-140 -167 0
-140 -170 0
-141 -146 0
-141 -147 0
-141 -148 0
-141 -150 0
-141 -152 0
-141 -154 0
-143 -146 0
-143 -148 0
-143 -150 0
-143 -173 0
-143 -178 0
-143 -180 0
-143 -182 0
-144 -146 0
-144 -165 0
-144 -169 0
-144 -171 0
-144 -174 0
-145 -150 0
-145 -151 0
-145 -152 0
-145 -154 0
-145 -156 0
-145 -158 0
-147 -150 0
-147 -152 0
-147 -154 0
-147 -177 0
-147 -182 0
-147 -184 0
-147 -186 0
-148 -150 0
-148 -169 0
-148 -173 0
-148 -175 0
-148 -178 0
-149 -154 0
-149 -155 0
-149 -156 0
-149 -158 0
-149 -160 0
-151 -154 0
-151 -156 0
-151 -158 0
-151 -181 0
-151 -186 0
-151 -188 0
-151 -190 0
-152 -154 0
-152 -173 0
-152 -177 0
-152 -179 0
-152 -182 0
-153 -158 0
-153 -159 0
-153 -160 0
-155 -158 0
-155 -160 0
-155 -162 0
-155 -185 0
-155 -190 0
-155 -192 0
-156 -158 0
-156 -177 0
-156 -181 0
-156 -183 0
-156 -186 0
-159 -162 0
-159 -164 0
-159 -166 0
-159 -189 0
-160 -181 0
-160 -185 0
-160 -187 0
-160 -190 0
-161 -166 0
-161 -167 0
-161 -168 0
-161 -170 0
-161 -172 0
-161 -174 0
-162 -181 0
-162 -185 0
-162 -187 0
-162 -189 0
-162 -191 0
-162 -192 0
-163 -166 0
-163 -168 0
-163 -170 0
-163 -189 0
-163 -193 0
-163 -198 0
-163 -200 0
-163 -202 0
-164 -166 0
-164 -185 0
-164 -189 0
-164 -191 0
-164 -194 0
-164 -217 0
-164 -221 0
-164 -223 0
-165 -170 0
-165 -171 0
-165 -172 0
-165 -174 0
-165 -176 0
-165 -178 0
-166 -185 0
-166 -189 0
-166 -191 0
-167 -170 0
-167 -172 0
-167 -174 0
-167 -197 0
-167 -202 0
-167 -204 0
-167 -206 0
-168 -170 0
-168 -189 0
-168 -193 0
-168 -195 0
-168 -198 0
-168 -221 0
-169 -174 0
-169 -175 0
-169 -176 0
-169 -178 0
-169 -180 0
-169 -182 0
-170 -189 0
-171 -174 0
-171 -176 0
-171 -178 0
-171 -201 0
-171 -206 0
-171 -208 0
-171 -210 0
-172 -174 0
-172 -193 0
-172 -197 0
-172 -199 0
-172 -202 0
-173 -178 0
-173 -179 0
-173 -180 0
-173 -182 0
-173 -184 0
-173 -186 0
-175 -178 0
-175 -180 0
-175 -182 0
-175 -205 0
-175 -210 0
-175 -212 0
-175 -214 0
-176 -178 0
-176 -197 0
-176 -201 0
-176 -203 0
-176 -206 0
-177 -182 0
-177 -183 0
-177 -184 0
-177 -186 0
-177 -188 0
-177 -190 0
-179 -182 0
-179 -184 0
-179 -186 0
-179 -209 0
-179 -214 0
-179 -216 0
-179 -218 0
-180 -182 0
-180 -201 0
-180 -205 0
-180 -207 0
-180 -210 0
-181 -186 0
-181 -187 0
-181 -188 0
-181 -190 0
-181 -192 0
-183 -186 0
-183 -188 0
-183 -190 0
-183 -213 0
-183 -218 0
-183 -220 0
-183 -222 0
-184 -186 0
-184 -205 0
-184 -209 0
-184 -211 0
-184 -214 0
-185 -190 0
-185 -191 0
-185 -192 0
-187 -190 0
-187 -192 0
-187 -194 0
-187 -217 0
-187 -222 0
-187 -224 0
-188 -190 0
-188 -209 0
-188 -213 0
-188 -215 0
-188 -218 0
-191 -194 0
-191 -196 0
-191 -198 0
-191 -221 0
-192 -213 0
-192 -217 0
-192 -219 0
-192 -222 0
-193 -198 0
-193 -199 0
-193 -200 0
-193 -202 0
-193 -204 0
-193 -206 0
-194 -213 0
-194 -217 0
-194 -219 0
-194 -221 0
-194 -223 0
-194 -224 0
-195 -198 0
-195 -200 0
-195 -202 0
-195 -221 0
-195 -225 0
-195 -230 0
-195 -232 0
-195 -234 0
-196 -198 0
-196 -217 0
-196 -221 0
-196 -223 0
-196 -226 0
-196 -249 0
-196 -253 0
-196 -255 0
-197 -202 0
-197 -203 0
-197 -204 0
-197 -206 0
-197 -208 0
-197 -210 0
-198 -217 0
-198 -221 0
-198 -223 0
-199 -202 0
-199 -204 0
-199 -206 0
-199 -229 0
-199 -234 0
-199 -236 0
-199 -238 0
-200 -202 0
-200 -221 0
-200 -225 0
-200 -227 0
-200 -230 0
-200 -253 0
-201 -206 0
-201 -207 0
-201 -208 0
-201 -210 0
-201 -212 0
-201 -214 0
-202 -221 0
-203 -206 0
-203 -208 0
-203 -210 0
-203 -233 0
-203 -238 0
-203 -240 0
-203 -242 0
-204 -206 0
-204 -225 0
-204 -229 0
-204 -231 0
-204 -234 0
-205 -210 0
-205 -211 0
-205 -212 0
-205 -214 0
-205 -216 0
-205 -218 0
-207 -210 0
-207 -212 0
-207 -214 0
-207 -237 0
-207 -242 0
-207 -244 0
-207 -246 0
-208 -210 0
-208 -229 0
-208 -233 0
-208 -235 0
-208 -238 0
-209 -214 0
-209 -215 0
-209 -216 0
-209 -218 0
-209 -220 0
-209 -222 0
-211 -214 0
-211 -216 0
-211 -218 0
-211 -241 0
-211 -246 0
-211 -248 0
-211 -250 0
-212 -214 0
-212 -233 0
-212 -237 0
-212 -239 0
-212 -242 0
-213 -218 0
-213 -219 0
-213 -220 0
-213 -222 0
-213 -224 0
-215 -218 0
-215 -220 0
-215 -222 0
-215 -245 0
-215 -250 0
-215 -252 0
-215 -254 0
-216 -218 0
-216 -237 0
-216 -241 0
-216 -243 0
-216 -246 0
-217 -222 0
-217 -223 0
-217 -224 0
-219 -222 0
-219 -224 0
-219 -226 0
-219 -249 0
-219 -254 0
-219 -256 0
-220 -222 0
-220 -241 0
-220 -245 0
-220 -247 0
-220 -250 0
-223 -226 0
-223 -228 0
-223 -230 0
-223 -253 0
-224 -245 0
-224 -249 0
-224 -251 0
-224 -254 0
-225 -230 0
-225 -231 0
-225 -232 0
-225 -234 0
-225 -236 0
-225 -238 0
-226 -245 0
-226 -249 0
-226 -251 0
-226 -253 0
-226 -255 0
-226 -256 0
-227 -230 0
-227 -232 0
-227 -234 0
-227 -253 0
-227 -257 0
-227 -262 0
-227 -264 0
-227 -266 0
-228 -230 0
-228 -249 0
-228 -253 0
-228 -255 0
-228 -258 0
-228 -281 0
-228 -285 0
-228 -287 0
-229 -234 0
-229 -235 0
-229 -236 0
-229 -238 0
-229 -240 0
-229 -242 0
-230 -249 0
-230 -253 0
-230 -255 0
-231 -234 0
-231 -236 0
-231 -238 0
-231 -261 0
-231 -266 0
-231 -268 0
-231 -270 0
-232 -234 0
-232 -253 0
-232 -257 0
-232 -259 0
-232 -262 0
-232 -285 0
-233 -238 0
-233 -239 0
-233 -240 0
-233 -242 0
-233 -244 0
-233 -246 0
-234 -253 0
-235 -238 0
-235 -240 0
-235 -242 0
-235 -265 0
-235 -270 0
-235 -272 0
-235 -274 0
-236 -238 0
-236 -257 0
-236 -261 0
-236 -263 0
-236 -266 0
-237 -242 0
-237 -243 0
-237 -244 0
-237 -246 0
-237 -248 0
-237 -250 0
-239 -242 0
-239 -244 0
-239 -246 0
-239 -269 0
-239 -274 0
-239 -276 0
-239 -278 0
-240 -242 0
-240 -261 0
-240 -265 0
-240 -267 0
-240 -270 0
-241 -246 0
-241 -247 0
-241 -248 0
-241 -250 0
-241 -252 0
-241 -254 0
-243 -246 0
-243 -248 0
-243 -250 0
-243 -273 0
-243 -278 0
-243 -280 0
-243 -282 0
-244 -246 0
-244 -265 0
-244 -269 0
-244 -271 0
-244 -274 0
-245 -250 0
-245 -251 0
-245 -252 0
-245 -254 0
-245 -256 0
-247 -250 0
-247 -252 0
-247 -254 0
-247 -277 0
-247 -282 0
-247 -284 0
-247 -286 0
-248 -250 0
-248 -269 0
-248 -273 0
-248 -275 0
-248 -278 0
-249 -254 0
-249 -255 0
-249 -256 0
-251 -254 0
-251 -256 0
-251 -258 0
-251 -281 0
-251 -286 0
-251 -288 0
-252 -254 0
-252 -273 0
-252 -277 0
-252 -279 0
-252 -282 0
-255 -258 0
-255 -260 0
-255 -262 0
-255 -285 0
-256 -277 0
-256 -281 0
-256 -283 0
-256 -286 0
-257 -262 0
-257 -263 0
-257 -264 0
-257 -266 0
-257 -268 0
-257 -270 0
-258 -277 0
-258 -281 0
-258 -283 0
-258 -285 0
-258 -287 0
-258 -288 0
-259 -262 0
-259 -264 0
-259 -266 0
-259 -285 0
-260 -262 0
-260 -281 0
-260 -285 0
-260 -287 0
-261 -266 0
-261 -267 0
-261 -268 0
-261 -270 0
-261 -272 0
-261 -274 0
-262 -281 0
-262 -285 0
-262 -287 0
-263 -266 0
-263 -268 0
-263 -270 0
-264 -266 0
-264 -285 0
-265 -270 0
-265 -271 0
-265 -272 0
-265 -274 0
-265 -276 0
-265 -278 0
-266 -285 0
-267 -270 0
-267 -272 0
-267 -274 0
-268 -270 0
-269 -274 0
-269 -275 0
-269 -276 0
-269 -278 0
-269 -280 0
-269 -282 0
-271 -274 0
-271 -276 0
-271 -278 0
-272 -274 0
-273 -278 0
-273 -279 0
-273 -280 0
-273 -282 0
-273 -284 0
-273 -286 0
-275 -278 0
-275 -280 0
-275 -282 0
-276 -278 0
-277 -282 0
-277 -283 0
-277 -284 0
-277 -286 0
-277 -288 0
-279 -282 0
-279 -284 0
-279 -286 0
-280 -282 0
-281 -286 0
-281 -287 0
-281 -288 0
-283 -286 0
-283 -288 0
-284 -286 0
104 131 134 157 0
-104 -131 0
-104 -134 0
-104 -157 0
-131 -134 0
-131 -157 0
-134 -157 0
131 136 138 157 0
-131 -136 0
-131 -138 0
-131 -157 0
-136 -138 0
-136 -157 0
-138 -157 0
99 129 136 138 0
-99 -129 0
-99 -136 0
-99 -138 0
-129 -136 0
-129 -138 0
-136 -138 0
99 104 129 134 0
-99 -104 0
-99 -129 0
-99 -134 0
-104 -129 0
-104 -134 0
-129 -134 0
108 129 135 138 0
-108 -129 0
-108 -135 0
-108 -138 0
-129 -135 0
-129 -138 0
-135 -138 0
129 135 140 142 0
-129 -135 0
-129 -140 0
-129 -142 0
-135 -140 0
-135 -142 0
-140 -142 0
103 133 140 142 0
-103 -133 0
-103 -140 0
-103 -142 0
-133 -140 0
-133 -142 0
-140 -142 0
103 108 133 138 0
-103 -108 0
-103 -133 0
-103 -138 0
-108 -133 0
-108 -138 0
-133 -138 0
112 133 139 142 0
-112 -133 0
-112 -139 0
-112 -142 0
-133 -139 0
-133 -142 0
-139 -142 0
133 139 144 146 0
-133 -139 0
-133 -144 0
-133 -146 0
-139 -144 0
-139 -146 0
-144 -146 0
107 137 144 146 0
-107 -137 0
-107 -144 0
-107 -146 0
-137 -144 0
-137 -146 0
-144 -146 0
107 112 137 142 0
-107 -112 0
-107 -137 0
-107 -142 0
-112 -137 0
-112 -142 0
-137 -142 0
116 137 143 146 0
-116 -137 0
-116 -143 0
-116 -146 0
-137 -143 0
-137 -146 0
-143 -146 0
137 143 148 150 0
-137 -143 0
-137 -148 0
-137 -150 0
-143 -148 0
-143 -150 0
-148 -150 0
111 141 148 150 0
-111 -141 0
-111 -148 0
-111 -150 0
-141 -148 0
-141 -150 0
-148 -150 0
111 116 141 146 0
-111 -116 0
-111 -141 0
-111 -146 0
-116 -141 0
-116 -146 0
-141 -146 0
120 141 147 150 0
-120 -141 0
-120 -147 0
-120 -150 0
-141 -147 0
-141 -150 0
-147 -150 0
141 147 152 154 0
-141 -147 0
-141 -152 0
-141 -154 0
-147 -152 0
-147 -154 0
-152 -154 0
115 145 152 154 0
-115 -145 0
-115 -152 0
-115 -154 0
-145 -152 0
-145 -154 0
-152 -154 0
115 120 145 150 0
-115 -120 0
-115 -145 0
-115 -150 0
-120 -145 0
-120 -150 0
-145 -150 0
124 145 151 154 0
-124 -145 0
-124 -151 0
-124 -154 0
-145 -151 0
-145 -154 0
-151 -154 0
145 151 156 158 0
-145 -151 0
-145 -156 0
-145 -158 0
-151 -156 0
-151 -158 0
-156 -158 0
119 149 156 158 0
-119 -149 0
-119 -156 0
-119 -158 0
-149 -156 0
-149 -158 0
-156 -158 0
119 124 149 154 0
-119 -124 0
-119 -149 0
-119 -154 0
-124 -149 0
-124 -154 0
-149 -154 0
128 149 155 158 0
-128 -149 0
-128 -155 0
-128 -158 0
-149 -155 0
-149 -158 0
-155 -158 0
130 149 155 160 0
-130 -149 0
-130 -155 0
-130 -160 0
-149 -155 0
-149 -160 0
-155 -160 0
123 130 153 160 0
-123 -130 0
-123 -153 0
-123 -160 0
-130 -153 0
-130 -160 0
-153 -160 0
123 128 153 158 0
-123 -128 0
-123 -153 0
-123 -158 0
-128 -153 0
-128 -158 0
-153 -158 0
100 130 153 159 0
-100 -130 0
-100 -153 0
-100 -159 0
-130 -153 0
-130 -159 0
-153 -159 0
132 134 153 159 0
-132 -134 0
-132 -153 0
-132 -159 0
-134 -153 0
-134 -159 0
-153 -159 0
127 132 134 157 0
-127 -132 0
-127 -134 0
-127 -157 0
-132 -134 0
-132 -157 0
-134 -157 0
100 127 130 157 0
-100 -127 0
-100 -130 0
-100 -157 0
-127 -130 0
-127 -157 0
-130 -157 0
136 163 166 189 0
-136 -163 0
-136 -166 0
-136 -189 0
-163 -166 0
-163 -189 0
-166 -189 0
163 168 170 189 0
-163 -168 0
-163 -170 0
-163 -189 0
-168 -170 0
-168 -189 0
-170 -189 0
131 161 168 170 0
-131 -161 0
-131 -168 0
-131 -170 0
-161 -168 0
-161 -170 0
-168 -170 0
131 136 161 166 0
-131 -136 0
-131 -161 0
-131 -166 0
-136 -161 0
-136 -166 0
-161 -166 0
140 161 167 170 0
-140 -161 0
-140 -167 0
-140 -170 0
-161 -167 0
-161 -170 0
-167 -170 0
161 167 172 174 0
-161 -167 0
-161 -172 0
-161 -174 0
-167 -172 0
-167 -174 0
-172 -174 0
135 165 172 174 0
-135 -165 0
-135 -172 0
-135 -174 0
-165 -172 0
-165 -174 0
-172 -174 0
135 140 165 170 0
-135 -140 0
-135 -165 0
-135 -170 0
-140 -165 0
-140 -170 0
-165 -170 0
144 165 171 174 0
-144 -165 0
-144 -171 0
-144 -174 0
-165 -171 0
-165 -174 0
-171 -174 0
165 171 176 178 0
-165 -171 0
-165 -176 0
-165 -178 0
-171 -176 0
-171 -178 0
-176 -178 0
139 169 176 178 0
-139 -169 0
-139 -176 0
-139 -178 0
-169 -176 0
-169 -178 0
-176 -178 0
139 144 169 174 0
-139 -144 0
-139 -169 0
-139 -174 0
-144 -169 0
-144 -174 0
-169 -174 0
148 169 175 178 0
-148 -169 0
-148 -175 0
-148 -178 0
-169 -175 0
-169 -178 0
-175 -178 0
169 175 180 182 0
-169 -175 0
-169 -180 0
-169 -182 0
-175 -180 0
-175 -182 0
-180 -182 0
143 173 180 182 0
-143 -173 0
-143 -180 0
-143 -182 0
-173 -180 0
-173 -182 0
-180 -182 0
143 148 173 178 0
-143 -148 0
-143 -173 0
-143 -178 0
-148 -173 0
-148 -178 0
-173 -178 0
152 173 179 182 0
-152 -173 0
-152 -179 0
-152 -182 0
-173 -179 0
-173 -182 0
-179 -182 0
173 179 184 186 0
-173 -179 0
-173 -184 0
-173 -186 0
-179 -184 0
-179 -186 0
-184 -186 0
147 177 184 186 0
-147 -177 0
-147 -184 0
-147 -186 0
-177 -184 0
-177 -186 0
-184 -186 0
147 152 177 182 0
-147 -152 0
-147 -177 0
-147 -182 0
-152 -177 0
-152 -182 0
-177 -182 0
156 177 183 186 0
-156 -177 0
-156 -183 0
-156 -186 0
-177 -183 0
-177 -186 0
-183 -186 0
177 183 188 190 0
-177 -183 0
-177 -188 0
-177 -190 0
-183 -188 0
-183 -190 0
-188 -190 0
151 181 188 190 0
-151 -181 0
-151 -188 0
-151 -190 0
-181 -188 0
-181 -190 0
-188 -190 0
151 156 181 186 0
-151 -156 0
-151 -181 0
-151 -186 0
-156 -181 0
-156 -186 0
-181 -186 0
160 181 187 190 0
-160 -181 0
-160 -187 0
-160 -190 0
-181 -187 0
-181 -190 0
-187 -190 0
162 181 187 192 0
-162 -181 0
-162 -187 0
-162 -192 0
-181 -187 0
-181 -192 0
-187 -192 0
155 162 185 192 0
-155 -162 0
-155 -185 0
-155 -192 0
-162 -185 0
-162 -192 0
-185 -192 0
155 160 185 190 0
-155 -160 0
-155 -185 0
-155 -190 0
-160 -185 0
-160 -190 0
-185 -190 0
132 162 185 191 0
-132 -162 0
-132 -185 0
-132 -191 0
-162 -185 0
-162 -191 0
-185 -191 0
164 166 185 191 0
-164 -166 0
-164 -185 0
-164 -191 0
-166 -185 0
-166 -191 0
-185 -191 0
159 164 166 189 0
-159 -164 0
-159 -166 0
-159 -189 0
-164 -166 0
-164 -189 0
-166 -189 0
132 159 162 189 0
-132 -159 0
-132 -162 0
-132 -189 0
-159 -162 0
-159 -189 0
-162 -189 0
168 195 198 221 0
-168 -195 0
-168 -198 0
-168 -221 0
-195 -198 0
-195 -221 0
-198 -221 0
195 200 202 221 0
-195 -200 0
-195 -202 0
-195 -221 0
-200 -202 0
-200 -221 0
-202 -221 0
163 193 200 202 0
-163 -193 0
-163 -200 0
-163 -202 0
-193 -200 0
-193 -202 0
-200 -202 0
163 168 193 198 0
-163 -168 0
-163 -193 0
-163 -198 0
-168 -193 0
-168 -198 0
-193 -198 0
172 193 199 202 0
-172 -193 0
-172 -199 0
-172 -202 0
-193 -199 0
-193 -202 0
-199 -202 0
193 199 204 206 0
-193 -199 0
-193 -204 0
-193 -206 0
-199 -204 0
-199 -206 0
-204 -206 0
167 197 204 206 0
-167 -197 0
-167 -204 0
-167 -206 0
-197 -204 0
-197 -206 0
-204 -206 0
167 172 197 202 0
-167 -172 0
-167 -197 0
-167 -202 0
-172 -197 0
-172 -202 0
-197 -202 0
176 197 203 206 0
-176 -197 0
-176 -203 0
-176 -206 0
-197 -203 0
-197 -206 0
-203 -206 0
197 203 208 210 0
-197 -203 0
-197 -208 0
-197 -210 0
-203 -208 0
-203 -210 0
-208 -210 0
171 201 208 210 0
-171 -201 0
-171 -208 0
-171 -210 0
-201 -208 0
-201 -210 0
-208 -210 0
171 176 201 206 0
-171 -176 0
-171 -201 0
-171 -206 0
-176 -201 0
-176 -206 0
-201 -206 0
180 201 207 210 0
-180 -201 0
-180 -207 0
-180 -210 0
-201 -207 0
-201 -210 0
-207 -210 0
201 207 212 214 0
-201 -207 0
-201 -212 0
-201 -214 0
-207 -212 0
-207 -214 0
-212 -214 0
175 205 212 214 0
-175 -205 0
-175 -212 0
-175 -214 0
-205 -212 0
-205 -214 0
-212 -214 0
175 180 205 210 0
-175 -180 0
-175 -205 0
-175 -210 0
-180 -205 0
-180 -210 0
-205 -210 0
184 205 211 214 0
-184 -205 0
-184 -211 0
-184 -214 0
-205 -211 0
-205 -214 0
-211 -214 0
205 211 216 218 0
-205 -211 0
-205 -216 0
-205 -218 0
-211 -216 0
-211 -218 0
-216 -218 0
179 209 216 218 0
-179 -209 0
-179 -216 0
-179 -218 0
-209 -216 0
-209 -218 0
-216 -218 0
179 184 209 214 0
-179 -184 0
-179 -209 0
-179 -214 0
-184 -209 0
-184 -214 0
-209 -214 0
188 209 215 218 0
-188 -209 0
-188 -215 0
-188 -218 0
-209 -215 0
-209 -218 0
-215 -218 0
209 215 220 222 0
-209 -215 0
-209 -220 0
-209 -222 0
-215 -220 0
-215 -222 0
-220 -222 0
183 213 220 222 0
-183 -213 0
-183 -220 0
-183 -222 0
-213 -220 0
-213 -222 0
-220 -222 0
183 188 213 218 0
-183 -188 0
-183 -213 0
-183 -218 0
-188 -213 0
-188 -218 0
-213 -218 0
192 213 219 222 0
-192 -213 0
-192 -219 0
-192 -222 0
-213 -219 0
-213 -222 0
-219 -222 0
194 213 219 224 0
-194 -213 0
-194 -219 0
-194 -224 0
-213 -219 0
-213 -224 0
-219 -224 0
187 194 217 224 0
-187 -194 0
-187 -217 0
-187 -224 0
-194 -217 0
-194 -224 0
-217 -224 0
187 192 217 222 0
-187 -192 0
-187 -217 0
-187 -222 0
-192 -217 0
-192 -222 0
-217 -222 0
164 194 217 223 0
-164 -194 0
-164 -217 0
-164 -223 0
-194 -217 0
-194 -223 0
-217 -223 0
196 198 217 223 0
-196 -198 0
-196 -217 0
-196 -223 0
-198 -217 0
-198 -223 0
-217 -223 0
191 196 198 221 0
-191 -196 0
-191 -198 0
-191 -221 0
-196 -198 0
-196 -221 0
-198 -221 0
164 191 194 221 0
-164 -191 0
-164 -194 0
-164 -221 0
-191 -194 0
-191 -221 0
-194 -221 0
200 227 230 253 0
-200 -227 0
-200 -230 0
-200 -253 0
-227 -230 0
-227 -253 0
-230 -253 0
227 232 234 253 0
-227 -232 0
-227 -234 0
-227 -253 0
-232 -234 0
-232 -253 0
-234 -253 0
195 225 232 234 0
-195 -225 0
-195 -232 0
-195 -234 0
-225 -232 0
-225 -234 0
-232 -234 0
195 200 225 230 0
-195 -200 0
-195 -225 0
-195 -230 0
-200 -225 0
-200 -230 0
-225 -230 0
204 225 231 234 0
-204 -225 0
-204 -231 0
-204 -234 0
-225 -231 0
-225 -234 0
-231 -234 0
225 231 236 238 0
-225 -231 0
-225 -236 0
-225 -238 0
-231 -236 0
-231 -238 0
-236 -238 0
199 229 236 238 0
-199 -229 0
-199 -236 0
-199 -238 0
-229 -236 0
-229 -238 0
-236 -238 0
199 204 229 234 0
-199 -204 0
-199 -229 0
-199 -234 0
-204 -229 0
-204 -234 0
-229 -234 0
208 229 235 238 0
-208 -229 0
-208 -235 0
-208 -238 0
-229 -235 0
-229 -238 0
-235 -238 0
229 235 240 242 0
-229 -235 0
-229 -240 0
-229 -242 0
-235 -240 0
-235 -242 0
-240 -242 0
203 233 240 242 0
-203 -233 0
-203 -240 0
-203 -242 0
-233 -240 0
-233 -242 0
-240 -242 0
203 208 233 238 0
-203 -208 0
-203 -233 0
-203 -238 0
-208 -233 0
-208 -238 0
-233 -238 0
212 233 239 242 0
-212 -233 0
-212 -239 0
-212 -242 0
-233 -239 0
-233 -242 0
-239 -242 0
233 239 244 246 0
-233 -239 0
-233 -244 0
-233 -246 0
-239 -244 0
-239 -246 0
-244 -246 0
207 237 244 246 0
-207 -237 0
-207 -244 0
-207 -246 0
-237 -244 0
-237 -246 0
-244 -246 0
207 212 237 242 0
-207 -212 0
-207 -237 0
-207 -242 0
-212 -237 0
-212 -242 0
-237 -242 0
216 237 243 246 0
-216 -237 0
-216 -243 0
-216 -246 0
-237 -243 0
-237 -246 0
-243 -246 0
237 243 248 250 0
-237 -243 0
-237 -248 0
-237 -250 0
-243 -248 0
-243 -250 0
-248 -250 0
211 241 248 250 0
-211 -241 0
-211 -248 0
-211 -250 0
-241 -248 0
-241 -250 0
-248 -250 0
211 216 241 246 0
-211 -216 0
-211 -241 0
-211 -246 0
-216 -241 0
-216 -246 0
-241 -246 0
220 241 247 250 0
-220 -241 0
-220 -247 0
-220 -250 0
-241 -247 0
-241 -250 0
-247 -250 0
241 247 252 254 0
-241 -247 0
-241 -252 0
-241 -254 0
-247 -252 0
-247 -254 0
-252 -254 0
215 245 252 254 0
-215 -245 0
-215 -252 0
-215 -254 0
-245 -252 0
-245 -254 0
-252 -254 0
215 220 245 250 0
-215 -220 0
-215 -245 0
-215 -250 0
-220 -245 0
-220 -250 0
-245 -250 0
224 245 251 254 0
-224 -245 0
-224 -251 0
-224 -254 0
-245 -251 0
-245 -254 0
-251 -254 0
226 245 251 256 0
-226 -245 0
-226 -251 0
-226 -256 0
-245 -251 0
-245 -256 0
-251 -256 0
219 226 249 256 0
-219 -226 0
-219 -249 0
-219 -256 0
-226 -249 0
-226 -256 0
-249 -256 0
219 224 249 254 0
-219 -224 0
-219 -249 0
-219 -254 0
-224 -249 0
-224 -254 0
-249 -254 0
196 226 249 255 0
-196 -226 0
-196 -249 0
-196 -255 0
-226 -249 0
-226 -255 0
-249 -255 0
228 230 249 255 0
-228 -230 0
-228 -249 0
-228 -255 0
-230 -249 0
-230 -255 0
-249 -255 0
223 228 230 253 0
-223 -228 0
-223 -230 0
-223 -253 0
-228 -230 0
-228 -253 0
-230 -253 0
196 223 226 253 0
-196 -223 0
-196 -226 0
-196 -253 0
-223 -226 0
-223 -253 0
-226 -253 0
232 259 262 285 0
-232 -259 0
-232 -262 0
-232 -285 0
-259 -262 0
-259 -285 0
-262 -285 0
259 264 266 285 0
-259 -264 0
-259 -266 0
-259 -285 0
-264 -266 0
-264 -285 0
-266 -285 0
227 257 264 266 0
-227 -257 0
-227 -264 0
-227 -266 0
-257 -264 0
-257 -266 0
-264 -266 0
227 232 257 262 0
-227 -232 0
-227 -257 0
-227 -262 0
-232 -257 0
-232 -262 0
-257 -262 0
236 257 263 266 0
-236 -257 0
-236 -263 0
-236 -266 0
-257 -263 0
-257 -266 0
-263 -266 0
257 263 268 270 0
-257 -263 0
-257 -268 0
-257 -270 0
-263 -268 0
-263 -270 0
-268 -270 0
231 261 268 270 0
-231 -261 0
-231 -268 0
-231 -270 0
-261 -268 0
-261 -270 0
-268 -270 0
231 236 261 266 0
-231 -236 0
-231 -261 0
-231 -266 0
-236 -261 0
-236 -266 0
-261 -266 0
240 261 267 270 0
-240 -261 0
-240 -267 0
-240 -270 0
-261 -267 0
-261 -270 0
-267 -270 0
261 267 272 274 0
-261 -267 0
-261 -272 0
-261 -274 0
-267 -272 0
-267 -274 0
-272 -274 0
235 265 272 274 0
-235 -265 0
-235 -272 0
-235 -274 0
-265 -272 0
-265 -274 0
-272 -274 0
235 240 265 270 0
-235 -240 0
-235 -265 0
-235 -270 0
-240 -265 0
-240 -270 0
-265 -270 0
244 265 271 274 0
-244 -265 0
-244 -271 0
-244 -274 0
-265 -271 0
-265 -274 0
-271 -274 0
265 271 276 278 0
-265 -271 0
-265 -276 0
-265 -278 0
-271 -276 0
-271 -278 0
-276 -278 0
239 269 276 278 0
-239 -269 0
-239 -276 0
-239 -278 0
-269 -276 0
-269 -278 0
-276 -278 0
239 244 269 274 0
-239 -244 0
-239 -269 0
-239 -274 0
-244 -269 0
-244 -274 0
-269 -274 0
248 269 275 278 0
-248 -269 0
-248 -275 0
-248 -278 0
-269 -275 0
-269 -278 0
-275 -278 0
269 275 280 282 0
-269 -275 0
-269 -280 0
-269 -282 0
-275 -280 0
-275 -282 0
-280 -282 0
243 273 280 282 0
-243 -273 0
-243 -280 0
-243 -282 0
-273 -280 0
-273 -282 0
-280 -282 0
243 248 273 278 0
-243 -248 0
-243 -273 0
-243 -278 0
-248 -273 0
-248 -278 0
-273 -278 0
252 273 279 282 0
-252 -273 0
-252 -279 0
-252 -282 0
-273 -279 0
-273 -282 0
-279 -282 0
273 279 284 286 0
-273 -279 0
-273 -284 0
-273 -286 0
-279 -284 0
-279 -286 0
-284 -286 0
247 277 284 286 0
-247 -277 0
-247 -284 0
-247 -286 0
-277 -284 0
-277 -286 0
-284 -286 0
247 252 277 282 0
-247 -252 0
-247 -277 0
-247 -282 0
-252 -277 0
-252 -282 0
-277 -282 0
256 277 283 286 0
-256 -277 0
-256 -283 0
-256 -286 0
-277 -283 0
-277 -286 0
-283 -286 0
258 277 283 288 0
-258 -277 0
-258 -283 0
-258 -288 0
-277 -283 0
-277 -288 0
-283 -288 0
251 258 281 288 0
-251 -258 0
-251 -281 0
-251 -288 0
-258 -281 0
-258 -288 0
-281 -288 0
251 256 281 286 0
-251 -256 0
-251 -281 0
-251 -286 0
-256 -281 0
-256 -286 0
-281 -286 0
228 258 281 287 0
-228 -258 0
-228 -281 0
-228 -287 0
-258 -281 0
-258 -287 0
-281 -287 0
260 262 281 287 0
-260 -262 0
-260 -281 0
-260 -287 0
-262 -281 0
-262 -287 0
-281 -287 0
255 260 262 285 0
-255 -260 0
-255 -262 0
-255 -285 0
-260 -262 0
-260 -285 0
-262 -285 0
228 255 258 285 0
-228 -255 0
-228 -258 0
-228 -285 0
-255 -258 0
-255 -285 0
-258 -285 0
515 0
-513 0
-514 0
-513 35 516 0
-513 -35 517 0
-514 35 517 0
-514 -35 518 0
-515 35 518 0
-515 -35 516 0
-516 -517 0
-516 -518 0
-517 -518 0
-516 40 519 0
-516 -40 520 0
-517 40 520 0
-517 -40 521 0
-518 40 521 0
-518 -40 519 0
-519 -520 0
-519 -521 0
-520 -521 0
-519 42 522 0
-519 -42 524 0
-520 42 523 0
-520 -42 522 0
-521 42 524 0
-521 -42 523 0
-522 -523 0
-522 -524 0
-523 -524 0
-522 61 525 0
-522 -61 527 0
-523 61 526 0
-523 -61 525 0
-524 61 527 0
-524 -61 526 0
-525 -526 0
-525 -527 0
-526 -527 0
-525 65 528 0
-525 -65 530 0
-526 65 529 0
-526 -65 528 0
-527 65 530 0
-527 -65 529 0
-528 -529 0
-528 -530 0
-529 -530 0
-528 70 531 0
-528 -70 533 0
-529 70 532 0
-529 -70 531 0
-530 70 533 0
-530 -70 532 0
-531 -532 0
-531 -533 0
-532 -533 0
-531 67 534 0
-531 -67 536 0
-532 67 535 0
-532 -67 534 0
-533 67 536 0
-533 -67 535 0
-534 -535 0
-534 -536 0
-535 -536 0
-534 72 537 0
-534 -72 539 0
-535 72 538 0
-535 -72 537 0
-536 72 539 0
-536 -72 538 0
-537 -538 0
-537 -539 0
-538 -539 0
-537 74 540 0
-537 -74 541 0
-538 74 541 0
-538 -74 542 0
-539 74 542 0
-539 -74 540 0
-540 -541 0
-540 -542 0
-541 -542 0
-540 93 543 0
-540 -93 544 0
-541 93 544 0
-541 -93 545 0
-542 93 545 0
-542 -93 543 0
-543 -544 0
-543 -545 0
-544 -545 0
-543 97 546 0
-543 -97 547 0
-544 97 547 0
-544 -97 548 0
-545 97 548 0
-545 -97 546 0
-546 -547 0
-546 -548 0
-547 -548 0
-546 102 549 0
-546 -102 550 0
-547 102 550 0
-547 -102 551 0
-548 102 551 0
-548 -102 549 0
-549 -550 0
-549 -551 0
-550 -551 0
-549 99 552 0
-549 -99 553 0
-550 99 553 0
-550 -99 554 0
-551 99 554 0
-551 -99 552 0
-552 -553 0
-552 -554 0
-553 -554 0
-552 104 555 0
-552 -104 556 0
-553 104 556 0
-553 -104 557 0
-554 104 557 0
-554 -104 555 0
-555 -556 0
-555 -557 0
-556 -557 0
-555 106 558 0
-555 -106 560 0
-556 106 559 0
-556 -106 558 0
-557 106 560 0
-557 -106 559 0
-558 -559 0
-558 -560 0
-559 -560 0
-558 125 561 0
-558 -125 563 0
-559 125 562 0
-559 -125 561 0
-560 125 563 0
-560 -125 562 0
-561 -562 0
-561 -563 0
-562 -563 0
-561 129 564 0
-561 -129 566 0
-562 129 565 0
-562 -129 564 0
-563 129 566 0
-563 -129 565 0
-564 -565 0
-564 -566 0
-565 -566 0
-564 134 567 0
-564 -134 569 0
-565 134 568 0
-565 -134 567 0
-566 134 569 0
-566 -134 568 0
-567 -568 0
-567 -569 0
-568 -569 0
-567 131 570 0
-567 -131 572 0
-568 131 571 0
-568 -131 570 0
-569 131 572 0
-569 -131 571 0
-570 -571 0
-570 -572 0
-571 -572 0
-570 136 573 0
-570 -136 575 0
-571 136 574 0
-571 -136 573 0
-572 136 575 0
-572 -136 574 0
-573 -574 0
-573 -575 0
-574 -575 0
-573 138 576 0
-573 -138 577 0
-574 138 577 0
-574 -138 578 0
-575 138 578 0
-575 -138 576 0
-576 -577 0
-576 -578 0
-577 -578 0
-576 157 579 0
-576 -157 580 0
-577 157 580 0
-577 -157 581 0
-578 157 581 0
-578 -157 579 0
-579 -580 0
-579 -581 0
-580 -581 0
-579 161 582 0
-579 -161 583 0
-580 161 583 0
-580 -161 584 0
-581 161 584 0
-581 -161 582 0
-582 -583 0
-582 -584 0
-583 -584 0
-582 166 585 0
-582 -166 586 0
-583 166 586 0
-583 -166 587 0
-584 166 587 0
-584 -166 585 0
-585 -586 0
-585 -587 0
-586 -587 0
-585 163 588 0
-585 -163 589 0
-586 163 589 0
-586 -163 590 0
-587 163 590 0
-587 -163 588 0
-588 -589 0
-588 -590 0
-589 -590 0
-588 168 591 0
-588 -168 592 0
-589 168 592 0
-589 -168 593 0
-590 168 593 0
-590 -168 591 0
-591 -592 0
-591 -593 0
-592 -593 0
-591 170 594 0
-591 -170 596 0
-592 170 595 0
-592 -170 594 0
-593 170 596 0
-593 -170 595 0
-594 -595 0
-594 -596 0
-595 -596 0
-594 189 597 0
-594 -189 599 0
-595 189 598 0
-595 -189 597 0
-596 189 599 0
-596 -189 598 0
-597 -598 0
-597 -599 0
-598 -599 0
-597 193 600 0
-597 -193 602 0
-598 193 601 0
-598 -193 600 0
-599 193 602 0
-599 -193 601 0
-600 -601 0
-600 -602 0
-601 -602 0
-600 198 603 0
-600 -198 605 0
-601 198 604 0
-601 -198 603 0
-602 198 605 0
-602 -198 604 0
-603 -604 0
-603 -605 0
-604 -605 0
-603 195 606 0
-603 -195 608 0
-604 195 607 0
-604 -195 606 0
-605 195 608 0
-605 -195 607 0
-606 -607 0
-606 -608 0
-607 -608 0
-606 200 609 0
-606 -200 611 0
-607 200 610 0
-607 -200 609 0
-608 200 611 0
-608 -200 610 0
-609 -610 0
-609 -611 0
-610 -611 0
-609 202 612 0
-609 -202 613 0
-610 202 613 0
-610 -202 614 0
-611 202 614 0
-611 -202 612 0
-612 -613 0
-612 -614 0
-613 -614 0
-612 221 615 0
-612 -221 616 0
-613 221 616 0
-613 -221 617 0
-614 221 617 0
-614 -221 615 0
-615 -616 0
-615 -617 0
-616 -617 0
-615 225 618 0
-615 -225 619 0
-616 225 619 0
-616 -225 620 0
-617 225 620 0
-617 -225 618 0
-618 -619 0
-618 -620 0
-619 -620 0
-618 230 621 0
-618 -230 622 0
-619 230 622 0
-619 -230 623 0
-620 230 623 0
-620 -230 621 0
-621 -622 0
-621 -623 0
-622 -623 0
-621 227 624 0
-621 -227 625 0
-622 227 625 0
-622 -227 626 0
-623 227 626 0
-623 -227 624 0
-624 -625 0
-624 -626 0
-625 -626 0
-624 232 627 0
-624 -232 628 0
-625 232 628 0
-625 -232 629 0
-626 232 629 0
-626 -232 627 0
-627 -628 0
-627 -629 0
-628 -629 0
-627 234 630 0
-627 -234 632 0
-628 234 631 0
-628 -234 630 0
-629 234 632 0
-629 -234 631 0
-630 -631 0
-630 -632 0
-631 -632 0
-630 253 633 0
-630 -253 635 0
-631 253 634 0
-631 -253 633 0
-632 253 635 0
-632 -253 634 0
-633 -634 0
-633 -635 0
-634 -635 0
-633 257 636 0
-633 -257 638 0
-634 257 637 0
-634 -257 636 0
-635 257 638 0
-635 -257 637 0
-636 -637 0
-636 -638 0
-637 -638 0
-636 262 639 0
-636 -262 641 0
-637 262 640 0
-637 -262 639 0
-638 262 641 0
-638 -262 640 0
-639 -640 0
-639 -641 0
-640 -641 0
642 0
-643 0
-644 0
-642 29 645 0
-642 -29 647 0
-643 29 646 0
-643 -29 645 0
-644 29 647 0
-644 -29 646 0
-645 -646 0
-645 -647 0
-646 -647 0
-645 2 648 0
-645 -2 650 0
-646 2 649 0
-646 -2 648 0
-647 2 650 0
-647 -2 649 0
-648 -649 0
-648 -650 0
-649 -650 0
-648 4 651 0
-648 -4 653 0
-649 4 652 0
-649 -4 651 0
-650 4 653 0
-650 -4 652 0
-651 -652 0
-651 -653 0
-652 -653 0
-651 6 654 0
-651 -6 655 0
-652 6 655 0
-652 -6 656 0
-653 6 656 0
-653 -6 654 0
-654 -655 0
-654 -656 0
-655 -656 0
-654 8 657 0
-654 -8 658 0
-655 8 658 0
-655 -8 659 0
-656 8 659 0
-656 -8 657 0
-657 -658 0
-657 -659 0
-658 -659 0
-657 10 660 0
-657 -10 662 0
-658 10 661 0
-658 -10 660 0
-659 10 662 0
-659 -10 661 0
-660 -661 0
-660 -662 0
-661 -662 0
-660 33 663 0
-660 -33 665 0
-661 33 664 0
-661 -33 663 0
-662 33 665 0
-662 -33 664 0
-663 -664 0
-663 -665 0
-664 -665 0
-663 38 666 0
-663 -38 668 0
-664 38 667 0
-664 -38 666 0
-665 38 668 0
-665 -38 667 0
-666 -667 0
-666 -668 0
-667 -668 0
-669 3 0
-669 8 0
-670 640 641 666 667 669 0
672 0
-671 0
-673 0
-671 33 674 0
-671 -33 675 0
-672 33 675 0
-672 -33 676 0
-673 33 676 0
-673 -33 674 0
-674 -675 0
-674 -676 0
-675 -676 0
-674 39 677 0
-674 -39 679 0
-675 39 678 0
-675 -39 677 0
-676 39 679 0
-676 -39 678 0
-677 -678 0
-677 -679 0
-678 -679 0
-677 44 680 0
-677 -44 682 0
-678 44 681 0
-678 -44 680 0
-679 44 682 0
-679 -44 681 0
-680 -681 0
-680 -682 0
-681 -682 0
-680 46 683 0
-680 -46 684 0
-681 46 684 0
-681 -46 685 0
-682 46 685 0
-682 -46 683 0
-683 -684 0
-683 -685 0
-684 -685 0
-683 69 686 0
-683 -69 687 0
-684 69 687 0
-684 -69 688 0
-685 69 688 0
-685 -69 686 0
-686 -687 0
-686 -688 0
-687 -688 0
-686 74 689 0
-686 -74 690 0
-687 74 690 0
-687 -74 691 0
-688 74 691 0
-688 -74 689 0
-689 -690 0
-689 -691 0
-690 -691 0
-689 65 692 0
-689 -65 694 0
-690 65 693 0
-690 -65 692 0
-691 65 694 0
-691 -65 693 0
-692 -693 0
-692 -694 0
-693 -694 0
-692 71 695 0
-692 -71 696 0
-693 71 696 0
-693 -71 697 0
-694 71 697 0
-694 -71 695 0
-695 -696 0
-695 -697 0
-696 -697 0
-695 76 698 0
-695 -76 699 0
-696 76 699 0
-696 -76 700 0
-697 76 700 0
-697 -76 698 0
-698 -699 0
-698 -700 0
-699 -700 0
-698 78 701 0
-698 -78 703 0
-699 78 702 0
-699 -78 701 0
-700 78 703 0
-700 -78 702 0
-701 -702 0
-701 -703 0
-702 -703 0
-701 101 704 0
-701 -101 706 0
-702 101 705 0
-702 -101 704 0
-703 101 706 0
-703 -101 705 0
-704 -705 0
-704 -706 0
-705 -706 0
-704 106 707 0
-704 -106 709 0
-705 106 708 0
-705 -106 707 0
-706 106 709 0
-706 -106 708 0
-707 -708 0
-707 -709 0
-708 -709 0
-707 97 710 0
-707 -97 711 0
-708 97 711 0
-708 -97 712 0
-709 97 712 0
-709 -97 710 0
-710 -711 0
-710 -712 0
-711 -712 0
-710 103 713 0
-710 -103 715 0
-711 103 714 0
-711 -103 713 0
-712 103 715 0
-712 -103 714 0
-713 -714 0
-713 -715 0
-714 -715 0
-713 108 716 0
-713 -108 718 0
-714 108 717 0
-714 -108 716 0
-715 108 718 0
-715 -108 717 0
-716 -717 0
-716 -718 0
-717 -718 0
-716 110 719 0
-716 -110 720 0
-717 110 720 0
-717 -110 721 0
-718 110 721 0
-718 -110 719 0
-719 -720 0
-719 -721 0
-720 -721 0
-719 133 722 0
-719 -133 723 0
-720 133 723 0
-720 -133 724 0
-721 133 724 0
-721 -133 722 0
-722 -723 0
-722 -724 0
-723 -724 0
-722 138 725 0
-722 -138 726 0
-723 138 726 0
-723 -138 727 0
-724 138 727 0
-724 -138 725 0
-725 -726 0
-725 -727 0
-726 -727 0
-725 129 728 0
-725 -129 730 0
-726 129 729 0
-726 -129 728 0
-727 129 730 0
-727 -129 729 0
-728 -729 0
-728 -730 0
-729 -730 0
-728 135 731 0
-728 -135 732 0
-729 135 732 0
-729 -135 733 0
-730 135 733 0
-730 -135 731 0
-731 -732 0
-731 -733 0
-732 -733 0
-731 140 734 0
-731 -140 735 0
-732 140 735 0
-732 -140 736 0
-733 140 736 0
-733 -140 734 0
-734 -735 0
-734 -736 0
-735 -736 0
-734 142 737 0
-734 -142 739 0
-735 142 738 0
-735 -142 737 0
-736 142 739 0
-736 -142 738 0
-737 -738 0
-737 -739 0
-738 -739 0
-737 165 740 0
-737 -165 742 0
-738 165 741 0
-738 -165 740 0
-739 165 742 0
-739 -165 741 0
-740 -741 0
-740 -742 0
-741 -742 0
-740 170 743 0
-740 -170 745 0
-741 170 744 0
-741 -170 743 0
-742 170 745 0
-742 -170 744 0
-743 -744 0
-743 -745 0
-744 -745 0
-743 161 746 0
-743 -161 747 0
-744 161 747 0
-744 -161 748 0
-745 161 748 0
-745 -161 746 0
-746 -747 0
-746 -748 0
-747 -748 0
-746 167 749 0
-746 -167 751 0
-747 167 750 0
-747 -167 749 0
-748 167 751 0
-748 -167 750 0
-749 -750 0
-749 -751 0
-750 -751 0
-749 172 752 0
-749 -172 754 0
-750 172 753 0
-750 -172 752 0
-751 172 754 0
-751 -172 753 0
-752 -753 0
-752 -754 0
-753 -754 0
-752 174 755 0
-752 -174 756 0
-753 174 756 0
-753 -174 757 0
-754 174 757 0
-754 -174 755 0
-755 -756 0
-755 -757 0
-756 -757 0
-755 197 758 0
-755 -197 759 0
-756 197 759 0
-756 -197 760 0
-757 197 760 0
-757 -197 758 0
-758 -759 0
-758 -760 0
-759 -760 0
-758 202 761 0
-758 -202 762 0
-759 202 762 0
-759 -202 763 0
-760 202 763 0
-760 -202 761 0
-761 -762 0
-761 -763 0
-762 -763 0
-761 193 764 0
-761 -193 766 0
-762 193 765 0
-762 -193 764 0
-763 193 766 0
-763 -193 765 0
-764 -765 0
-764 -766 0
-765 -766 0
-764 199 767 0
-764 -199 768 0
-765 199 768 0
-765 -199 769 0
-766 199 769 0
-766 -199 767 0
-767 -768 0
-767 -769 0
-768 -769 0
-767 204 770 0
-767 -204 771 0
-768 204 771 0
-768 -204 772 0
-769 204 772 0
-769 -204 770 0
-770 -771 0
-770 -772 0
-771 -772 0
-770 206 773 0
-770 -206 775 0
-771 206 774 0
-771 -206 773 0
-772 206 775 0
-772 -206 774 0
-773 -774 0
-773 -775 0
-774 -775 0
-773 229 776 0
-773 -229 778 0
-774 229 777 0
-774 -229 776 0
-775 229 778 0
-775 -229 777 0
-776 -777 0
-776 -778 0
-777 -778 0
-776 234 779 0
-776 -234 781 0
-777 234 780 0
-777 -234 779 0
-778 234 781 0
-778 -234 780 0
-779 -780 0
-779 -781 0
-780 -781 0
-779 225 782 0
-779 -225 783 0
-780 225 783 0
-780 -225 784 0
-781 225 784 0
-781 -225 782 0
-782 -783 0
-782 -784 0
-783 -784 0
-782 231 785 0
-782 -231 787 0
-783 231 786 0
-783 -231 785 0
-784 231 787 0
-784 -231 786 0
-785 -786 0
-785 -787 0
-786 -787 0
-785 236 788 0
-785 -236 790 0
-786 236 789 0
-786 -236 788 0
-787 236 790 0
-787 -236 789 0
-788 -789 0
-788 -790 0
-789 -790 0
-788 238 791 0
-788 -238 792 0
-789 238 792 0
-789 -238 793 0
-790 238 793 0
-790 -238 791 0
-791 -792 0
-791 -793 0
-792 -793 0
-791 261 794 0
-791 -261 795 0
-792 261 795 0
-792 -261 796 0
-793 261 796 0
-793 -261 794 0
-794 -795 0
-794 -796 0
-795 -796 0
-794 266 797 0
-794 -266 798 0
-795 266 798 0
-795 -266 799 0
-796 266 799 0
-796 -266 797 0
-797 -798 0
-797 -799 0
-798 -799 0
800 0
-801 0
-802 0
-800 1 803 0
-800 -1 805 0
-801 1 804 0
-801 -1 803 0
-802 1 805 0
-802 -1 804 0
-803 -804 0
-803 -805 0
-804 -805 0
-803 6 806 0
-803 -6 808 0
-804 6 807 0
-804 -6 806 0
-805 6 808 0
-805 -6 807 0
-806 -807 0
-806 -808 0
-807 -808 0
-806 8 809 0
-806 -8 811 0
-807 8 810 0
-807 -8 809 0
-808 8 811 0
-808 -8 810 0
-809 -810 0
-809 -811 0
-810 -811 0
-809 10 812 0
-809 -10 813 0
-810 10 813 0
-810 -10 814 0
-811 10 814 0
-811 -10 812 0
-812 -813 0
-812 -814 0
-813 -814 0
-812 12 815 0
-812 -12 816 0
-813 12 816 0
-813 -12 817 0
-814 12 817 0
-814 -12 815 0
-815 -816 0
-815 -817 0
-816 -817 0
-815 14 818 0
-815 -14 820 0
-816 14 819 0
-816 -14 818 0
-817 14 820 0
-817 -14 819 0
-818 -819 0
-818 -820 0
-819 -820 0
-818 37 821 0
-818 -37 823 0
-819 37 822 0
-819 -37 821 0
-820 37 823 0
-820 -37 822 0
-821 -822 0
-821 -823 0
-822 -823 0
-821 42 824 0
-821 -42 826 0
-822 42 825 0
-822 -42 824 0
-823 42 826 0
-823 -42 825 0
-824 -825 0
-824 -826 0
-825 -826 0
-827 7 0
-827 12 0
-828 798 799 824 825 827 0
831 0
-829 0
-830 0
-829 37 832 0
-829 -37 834 0
-830 37 833 0
-830 -37 832 0
-831 37 834 0
-831 -37 833 0
-832 -833 0
-832 -834 0
-833 -834 0
-832 43 835 0
-832 -43 836 0
-833 43 836 0
-833 -43 837 0
-834 43 837 0
-834 -43 835 0
-835 -836 0
-835 -837 0
-836 -837 0
-835 48 838 0
-835 -48 839 0
-836 48 839 0
-836 -48 840 0
-837 48 840 0
-837 -48 838 0
-838 -839 0
-838 -840 0
-839 -840 0
-838 50 841 0
-838 -50 843 0
-839 50 842 0
-839 -50 841 0
-840 50 843 0
-840 -50 842 0
-841 -842 0
-841 -843 0
-842 -843 0
-841 73 844 0
-841 -73 846 0
-842 73 845 0
-842 -73 844 0
-843 73 846 0
-843 -73 845 0
-844 -845 0
-844 -846 0
-845 -846 0
-844 78 847 0
-844 -78 849 0
-845 78 848 0
-845 -78 847 0
-846 78 849 0
-846 -78 848 0
-847 -848 0
-847 -849 0
-848 -849 0
-847 69 850 0
-847 -69 851 0
-848 69 851 0
-848 -69 852 0
-849 69 852 0
-849 -69 850 0
-850 -851 0
-850 -852 0
-851 -852 0
-850 75 853 0
-850 -75 855 0
-851 75 854 0
-851 -75 853 0
-852 75 855 0
-852 -75 854 0
-853 -854 0
-853 -855 0
-854 -855 0
-853 80 856 0
-853 -80 858 0
-854 80 857 0
-854 -80 856 0
-855 80 858 0
-855 -80 857 0
-856 -857 0
-856 -858 0
-857 -858 0
-856 82 859 0
-856 -82 860 0
-857 82 860 0
-857 -82 861 0
-858 82 861 0
-858 -82 859 0
-859 -860 0
-859 -861 0
-860 -861 0
-859 105 862 0
-859 -105 863 0
-860 105 863 0
-860 -105 864 0
-861 105 864 0
-861 -105 862 0
-862 -863 0
-862 -864 0
-863 -864 0
-862 110 865 0
-862 -110 866 0
-863 110 866 0
-863 -110 867 0
-864 110 867 0
-864 -110 865 0
-865 -866 0
-865 -867 0
-866 -867 0
-865 101 868 0
-865 -101 870 0
-866 101 869 0
-866 -101 868 0
-867 101 870 0
-867 -101 869 0
-868 -869 0
-868 -870 0
-869 -870 0
-868 107 871 0
-868 -107 872 0
-869 107 872 0
-869 -107 873 0
-870 107 873 0
-870 -107 871 0
-871 -872 0
-871 -873 0
-872 -873 0
-871 112 874 0
-871 -112 875 0
-872 112 875 0
-872 -112 876 0
-873 112 876 0
-873 -112 874 0
-874 -875 0
-874 -876 0
-875 -876 0
-874 114 877 0
-874 -114 879 0
-875 114 878 0
-875 -114 877 0
-876 114 879 0
-876 -114 878 0
-877 -878 0
-877 -879 0
-878 -879 0
-877 137 880 0
-877 -137 882 0
-878 137 881 0
-878 -137 880 0
-879 137 882 0
-879 -137 881 0
-880 -881 0
-880 -882 0
-881 -882 0
-880 142 883 0
-880 -142 885 0
-881 142 884 0
-881 -142 883 0
-882 142 885 0
-882 -142 884 0
-883 -884 0
-883 -885 0
-884 -885 0
-883 133 886 0
-883 -133 887 0
-884 133 887 0
-884 -133 888 0
-885 133 888 0
-885 -133 886 0
-886 -887 0
-886 -888 0
-887 -888 0
-886 139 889 0
-886 -139 891 0
-887 139 890 0
-887 -139 889 0
-888 139 891 0
-888 -139 890 0
-889 -890 0
-889 -891 0
-890 -891 0
-889 144 892 0
-889 -144 894 0
-890 144 893 0
-890 -144 892 0
-891 144 894 0
-891 -144 893 0
-892 -893 0
-892 -894 0
-893 -894 0
-892 146 895 0
-892 -146 896 0
-893 146 896 0
-893 -146 897 0
-894 146 897 0
-894 -146 895 0
-895 -896 0
-895 -897 0
-896 -897 0
-895 169 898 0
-895 -169 899 0
-896 169 899 0
-896 -169 900 0
-897 169 900 0
-897 -169 898 0
-898 -899 0
-898 -900 0
-899 -900 0
-898 174 901 0
-898 -174 902 0
-899 174 902 0
-899 -174 903 0
-900 174 903 0
-900 -174 901 0
-901 -902 0
-901 -903 0
-902 -903 0
-901 165 904 0
-901 -165 906 0
-902 165 905 0
-902 -165 904 0
-903 165 906 0
-903 -165 905 0
-904 -905 0
-904 -906 0
-905 -906 0
-904 171 907 0
-904 -171 908 0
-905 171 908 0
-905 -171 909 0
-906 171 909 0
-906 -171 907 0
-907 -908 0
-907 -909 0
-908 -909 0
-907 176 910 0
-907 -176 911 0
-908 176 911 0
-908 -176 912 0
-909 176 912 0
-909 -176 910 0
-910 -911 0
-910 -912 0
-911 -912 0
-910 178 913 0
-910 -178 915 0
-911 178 914 0
-911 -178 913 0
-912 178 915 0
-912 -178 914 0
-913 -914 0
-913 -915 0
-914 -915 0
-913 201 916 0
-913 -201 918 0
-914 201 917 0
-914 -201 916 0
-915 201 918 0
-915 -201 917 0
-916 -917 0
-916 -918 0
-917 -918 0
-916 206 919 0
-916 -206 921 0
-917 206 920 0
-917 -206 919 0
-918 206 921 0
-918 -206 920 0
-919 -920 0
-919 -921 0
-920 -921 0
-919 197 922 0
-919 -197 923 0
-920 197 923 0
-920 -197 924 0
-921 197 924 0
-921 -197 922 0
-922 -923 0
-922 -924 0
-923 -924 0
-922 203 925 0
-922 -203 927 0
-923 203 926 0
-923 -203 925 0
-924 203 927 0
-924 -203 926 0
-925 -926 0
-925 -927 0
-926 -927 0
-925 208 928 0
-925 -208 930 0
-926 208 929 0
-926 -208 928 0
-927 208 930 0
-927 -208 929 0
-928 -929 0
-928 -930 0
-929 -930 0
-928 210 931 0
-928 -210 932 0
-929 210 932 0
-929 -210 933 0
-930 210 933 0
-930 -210 931 0
-931 -932 0
-931 -933 0
-932 -933 0
-931 233 934 0
-931 -233 935 0
-932 233 935 0
-932 -233 936 0
-933 233 936 0
-933 -233 934 0
-934 -935 0
-934 -936 0
-935 -936 0
-934 238 937 0
-934 -238 938 0
-935 238 938 0
-935 -238 939 0
-936 238 939 0
-936 -238 937 0
-937 -938 0
-937 -939 0
-938 -939 0
-937 229 940 0
-937 -229 942 0
-938 229 941 0
-938 -229 940 0
-939 229 942 0
-939 -229 941 0
-940 -941 0
-940 -942 0
-941 -942 0
-940 235 943 0
-940 -235 944 0
-941 235 944 0
-941 -235 945 0
-942 235 945 0
-942 -235 943 0
-943 -944 0
-943 -945 0
-944 -945 0
-943 240 946 0
-943 -240 947 0
-944 240 947 0
-944 -240 948 0
-945 240 948 0
-945 -240 946 0
-946 -947 0
-946 -948 0
-947 -948 0
-946 242 949 0
-946 -242 951 0
-947 242 950 0
-947 -242 949 0
-948 242 951 0
-948 -242 950 0
-949 -950 0
-949 -951 0
-950 -951 0
-949 265 952 0
-949 -265 954 0
-950 265 953 0
-950 -265 952 0
-951 265 954 0
-951 -265 953 0
-952 -953 0
-952 -954 0
-953 -954 0
-952 270 955 0
-952 -270 957 0
-953 270 956 0
-953 -270 955 0
-954 270 957 0
-954 -270 956 0
-955 -956 0
-955 -957 0
-956 -957 0
958 0
-959 0
-960 0
-958 5 961 0
-958 -5 963 0
-959 5 962 0
-959 -5 961 0
-960 5 963 0
-960 -5 962 0
-961 -962 0
-961 -963 0
-962 -963 0
-961 10 964 0
-961 -10 966 0
-962 10 965 0
-962 -10 964 0
-963 10 966 0
-963 -10 965 0
-964 -965 0
-964 -966 0
-965 -966 0
-964 12 967 0
-964 -12 969 0
-965 12 968 0
-965 -12 967 0
-966 12 969 0
-966 -12 968 0
-967 -968 0
-967 -969 0
-968 -969 0
-967 14 970 0
-967 -14 971 0
-968 14 971 0
-968 -14 972 0
-969 14 972 0
-969 -14 970 0
-970 -971 0
-970 -972 0
-971 -972 0
-970 16 973 0
-970 -16 974 0
-971 16 974 0
-971 -16 975 0
-972 16 975 0
-972 -16 973 0
-973 -974 0
-973 -975 0
-974 -975 0
-973 18 976 0
-973 -18 978 0
-974 18 977 0
-974 -18 976 0
-975 18 978 0
-975 -18 977 0
-976 -977 0
-976 -978 0
-977 -978 0
-976 41 979 0
-976 -41 981 0
-977 41 980 0
-977 -41 979 0
-978 41 981 0
-978 -41 980 0
-979 -980 0
-979 -981 0
-980 -981 0
-979 46 982 0
-979 -46 984 0
-980 46 983 0
-980 -46 982 0
-981 46 984 0
-981 -46 983 0
-982 -983 0
-982 -984 0
-983 -984 0
-985 11 0
-985 16 0
-986 956 957 982 983 985 0
988 0
-987 0
-989 0
-987 41 990 0
-987 -41 991 0
-988 41 991 0
-988 -41 992 0
-989 41 992 0
-989 -41 990 0
-990 -991 0
-990 -992 0
-991 -992 0
-990 47 993 0
-990 -47 995 0
-991 47 994 0
-991 -47 993 0
-992 47 995 0
-992 -47 994 0
-993 -994 0
-993 -995 0
-994 -995 0
-993 52 996 0
-993 -52 998 0
-994 52 997 0
-994 -52 996 0
-995 52 998 0
-995 -52 997 0
-996 -997 0
-996 -998 0
-997 -998 0
-996 54 999 0
-996 -54 1000 0
-997 54 1000 0
-997 -54 1001 0
-998 54 1001 0
-998 -54 999 0
-999 -1000 0
-999 -1001 0
-1000 -1001 0
-999 77 1002 0
-999 -77 1003 0
-1000 77 1003 0
-1000 -77 1004 0
-1001 77 1004 0
-1001 -77 1002 0
-1002 -1003 0
-1002 -1004 0
-1003 -1004 0
-1002 82 1005 0
-1002 -82 1006 0
-1003 82 1006 0
-1003 -82 1007 0
-1004 82 1007 0
-1004 -82 1005 0
-1005 -1006 0
-1005 -1007 0
-1006 -1007 0
-1005 73 1008 0
-1005 -73 1010 0
-1006 73 1009 0
-1006 -73 1008 0
-1007 73 1010 0
-1007 -73 1009 0
-1008 -1009 0
-1008 -1010 0
-1009 -1010 0
-1008 79 1011 0
-1008 -79 1012 0
-1009 79 1012 0
-1009 -79 1013 0
-1010 79 1013 0
-1010 -79 1011 0
-1011 -1012 0
-1011 -1013 0
-1012 -1013 0
-1011 84 1014 0
-1011 -84 1015 0
-1012 84 1015 0
-1012 -84 1016 0
-1013 84 1016 0
-1013 -84 1014 0
-1014 -1015 0
-1014 -1016 0
-1015 -1016 0
-1014 86 1017 0
-1014 -86 1019 0
-1015 86 1018 0
-1015 -86 1017 0
-1016 86 1019 0
-1016 -86 1018 0
-1017 -1018 0
-1017 -1019 0
-1018 -1019 0
-1017 109 1020 0
-1017 -109 1022 0
-1018 109 1021 0
-1018 -109 1020 0
-1019 109 1022 0
-1019 -109 1021 0
-1020 -1021 0
-1020 -1022 0
-1021 -1022 0
-1020 114 1023 0
-1020 -114 1025 0
-1021 114 1024 0
-1021 -114 1023 0
-1022 114 1025 0
-1022 -114 1024 0
-1023 -1024 0
-1023 -1025 0
-1024 -1025 0
-1023 105 1026 0
-1023 -105 1027 0
-1024 105 1027 0
-1024 -105 1028 0
-1025 105 1028 0
-1025 -105 1026 0
-1026 -1027 0
-1026 -1028 0
-1027 -1028 0
-1026 111 1029 0
-1026 -111 1031 0
-1027 111 1030 0
-1027 -111 1029 0
-1028 111 1031 0
-1028 -111 1030 0
-1029 -1030 0
-1029 -1031 0
-1030 -1031 0
-1029 116 1032 0
-1029 -116 1034 0
-1030 116 1033 0
-1030 -116 1032 0
-1031 116 1034 0
-1031 -116 1033 0
-1032 -1033 0
-1032 -1034 0
-1033 -1034 0
-1032 118 1035 0
-1032 -118 1036 0
-1033 118 1036 0
-1033 -118 1037 0
-1034 118 1037 0
-1034 -118 1035 0
-1035 -1036 0
-1035 -1037 0
-1036 -1037 0
-1035 141 1038 0
-1035 -141 1039 0
-1036 141 1039 0
-1036 -141 1040 0
-1037 141 1040 0
-1037 -141 1038 0
-1038 -1039 0
-1038 -1040 0
-1039 -1040 0
-1038 146 1041 0
-1038 -146 1042 0
-1039 146 1042 0
-1039 -146 1043 0
-1040 146 1043 0
-1040 -146 1041 0
-1041 -1042 0
-1041 -1043 0
-1042 -1043 0
-1041 137 1044 0
-1041 -137 1046 0
-1042 137 1045 0
-1042 -137 1044 0
-1043 137 1046 0
-1043 -137 1045 0
-1044 -1045 0
-1044 -1046 0
-1045 -1046 0
-1044 143 1047 0
-1044 -143 1048 0
-1045 143 1048 0
-1045 -143 1049 0
-1046 143 1049 0
-1046 -143 1047 0
-1047 -1048 0
-1047 -1049 0
-1048 -1049 0
-1047 148 1050 0
-1047 -148 1051 0
-1048 148 1051 0
-1048 -148 1052 0
-1049 148 1052 0
-1049 -148 1050 0
-1050 -1051 0
-1050 -1052 0
-1051 -1052 0
-1050 150 1053 0
-1050 -150 1055 0
-1051 150 1054 0
-1051 -150 1053 0
-1052 150 1055 0
-1052 -150 1054 0
-1053 -1054 0
-1053 -1055 0
-1054 -1055 0
-1053 173 1056 0
-1053 -173 1058 0
-1054 173 1057 0
-1054 -173 1056 0
-1055 173 1058 0
-1055 -173 1057 0
-1056 -1057 0
-1056 -1058 0
-1057 -1058 0
-1056 178 1059 0
-1056 -178 1061 0
-1057 178 1060 0
-1057 -178 1059 0
-1058 178 1061 0
-1058 -178 1060 0
-1059 -1060 0
-1059 -1061 0
-1060 -1061 0
-1059 169 1062 0
-1059 -169 1063 0
-1060 169 1063 0
-1060 -169 1064 0
-1061 169 1064 0
-1061 -169 1062 0
-1062 -1063 0
-1062 -1064 0
-1063 -1064 0
-1062 175 1065 0
-1062 -175 1067 0
-1063 175 1066 0
-1063 -175 1065 0
-1064 175 1067 0
-1064 -175 1066 0
-1065 -1066 0
-1065 -1067 0
-1066 -1067 0
-1065 180 1068 0
-1065 -180 1070 0
-1066 180 1069 0
-1066 -180 1068 0
-1067 180 1070 0
-1067 -180 1069 0
-1068 -1069 0
-1068 -1070 0
-1069 -1070 0
-1068 182 1071 0
-1068 -182 1072 0
-1069 182 1072 0
-1069 -182 1073 0
-1070 182 1073 0
-1070 -182 1071 0
-1071 -1072 0
-1071 -1073 0
-1072 -1073 0
-1071 205 1074 0
-1071 -205 1075 0
-1072 205 1075 0
-1072 -205 1076 0
-1073 205 1076 0
-1073 -205 1074 0
-1074 -1075 0
-1074 -1076 0
-1075 -1076 0
-1074 210 1077 0
-1074 -210 1078 0
-1075 210 1078 0
-1075 -210 1079 0
-1076 210 1079 0
-1076 -210 1077 0
-1077 -1078 0
-1077 -1079 0
-1078 -1079 0
-1077 201 1080 0
-1077 -201 1082 0
-1078 201 1081 0
-1078 -201 1080 0
-1079 201 1082 0
-1079 -201 1081 0
-1080 -1081 0
-1080 -1082 0
-1081 -1082 0
-1080 207 1083 0
-1080 -207 1084 0
-1081 207 1084 0
-1081 -207 1085 0
-1082 207 1085 0
-1082 -207 1083 0
-1083 -1084 0
-1083 -1085 0
-1084 -1085 0
-1083 212 1086 0
-1083 -212 1087 0
-1084 212 1087 0
-1084 -212 1088 0
-1085 212 1088 0
-1085 -212 1086 0
-1086 -1087 0
-1086 -1088 0
-1087 -1088 0
-1086 214 1089 0
-1086 -214 1091 0
-1087 214 1090 0
-1087 -214 1089 0
-1088 214 1091 0
-1088 -214 1090 0
-1089 -1090 0
-1089 -1091 0
-1090 -1091 0
-1089 237 1092 0
-1089 -237 1094 0
-1090 237 1093 0
-1090 -237 1092 0
-1091 237 1094 0
-1091 -237 1093 0
-1092 -1093 0
-1092 -1094 0
-1093 -1094 0
-1092 242 1095 0
-1092 -242 1097 0
-1093 242 1096 0
-1093 -242 1095 0
-1094 242 1097 0
-1094 -242 1096 0
-1095 -1096 0
-1095 -1097 0
-1096 -1097 0
-1095 233 1098 0
-1095 -233 1099 0
-1096 233 1099 0
-1096 -233 1100 0
-1097 233 1100 0
-1097 -233 1098 0
-1098 -1099 0
-1098 -1100 0
-1099 -1100 0
-1098 239 1101 0
-1098 -239 1103 0
-1099 239 1102 0
-1099 -239 1101 0
-1100 239 1103 0
-1100 -239 1102 0
-1101 -1102 0
-1101 -1103 0
-1102 -1103 0
-1101 244 1104 0
-1101 -244 1106 0
-1102 244 1105 0
-1102 -244 1104 0
-1103 244 1106 0
-1103 -244 1105 0
-1104 -1105 0
-1104 -1106 0
-1105 -1106 0
-1104 246 1107 0
-1104 -246 1108 0
-1105 246 1108 0
-1105 -246 1109 0
-1106 246 1109 0
-1106 -246 1107 0
-1107 -1108 0
-1107 -1109 0
-1108 -1109 0
-1107 269 1110 0
-1107 -269 1111 0
-1108 269 1111 0
-1108 -269 1112 0
-1109 269 1112 0
-1109 -269 1110 0
-1110 -1111 0
-1110 -1112 0
-1111 -1112 0
-1110 274 1113 0
-1110 -274 1114 0
-1111 274 1114 0
-1111 -274 1115 0
-1112 274 1115 0
-1112 -274 1113 0
-1113 -1114 0
-1113 -1115 0
-1114 -1115 0
1116 0
-1117 0
-1118 0
-1116 9 1119 0
-1116 -9 1121 0
-1117 9 1120 0
-1117 -9 1119 0
-1118 9 1121 0
-1118 -9 1120 0
-1119 -1120 0
-1119 -1121 0
-1120 -1121 0
-1119 14 1122 0
-1119 -14 1124 0
-1120 14 1123 0
-1120 -14 1122 0
-1121 14 1124 0
-1121 -14 1123 0
-1122 -1123 0
-1122 -1124 0
-1123 -1124 0
-1122 16 1125 0
-1122 -16 1127 0
-1123 16 1126 0
-1123 -16 1125 0
-1124 16 1127 0
-1124 -16 1126 0
-1125 -1126 0
-1125 -1127 0
-1126 -1127 0
-1125 18 1128 0
-1125 -18 1129 0
-1126 18 1129 0
-1126 -18 1130 0
-1127 18 1130 0
-1127 -18 1128 0
-1128 -1129 0
-1128 -1130 0
-1129 -1130 0
-1128 20 1131 0
-1128 -20 1132 0
-1129 20 1132 0
-1129 -20 1133 0
-1130 20 1133 0
-1130 -20 1131 0
-1131 -1132 0
-1131 -1133 0
-1132 -1133 0
-1131 22 1134 0
-1131 -22 1136 0
-1132 22 1135 0
-1132 -22 1134 0
-1133 22 1136 0
-1133 -22 1135 0
-1134 -1135 0
-1134 -1136 0
-1135 -1136 0
-1134 45 1137 0
-1134 -45 1139 0
-1135 45 1138 0
-1135 -45 1137 0
-1136 45 1139 0
-1136 -45 1138 0
-1137 -1138 0
-1137 -1139 0
-1138 -1139 0
-1137 50 1140 0
-1137 -50 1142 0
-1138 50 1141 0
-1138 -50 1140 0
-1139 50 1142 0
-1139 -50 1141 0
-1140 -1141 0
-1140 -1142 0
-1141 -1142 0
-1143 15 0
-1143 20 0
-1144 1114 1115 1140 1141 1143 0
1147 0
-1145 0
-1146 0
-1145 45 1148 0
-1145 -45 1150 0
-1146 45 1149 0
-1146 -45 1148 0
-1147 45 1150 0
-1147 -45 1149 0
-1148 -1149 0
-1148 -1150 0
-1149 -1150 0
-1148 51 1151 0
-1148 -51 1152 0
-1149 51 1152 0
-1149 -51 1153 0
-1150 51 1153 0
-1150 -51 1151 0
-1151 -1152 0
-1151 -1153 0
-1152 -1153 0
-1151 56 1154 0
-1151 -56 1155 0
-1152 56 1155 0
-1152 -56 1156 0
-1153 56 1156 0
-1153 -56 1154 0
-1154 -1155 0
-1154 -1156 0
-1155 -1156 0
-1154 58 1157 0
-1154 -58 1159 0
-1155 58 1158 0
-1155 -58 1157 0
-1156 58 1159 0
-1156 -58 1158 0
-1157 -1158 0
-1157 -1159 0
-1158 -1159 0
-1157 81 1160 0
-1157 -81 1162 0
-1158 81 1161 0
-1158 -81 1160 0
-1159 81 1162 0
-1159 -81 1161 0
-1160 -1161 0
-1160 -1162 0
-1161 -1162 0
-1160 86 1163 0
-1160 -86 1165 0
-1161 86 1164 0
-1161 -86 1163 0
-1162 86 1165 0
-1162 -86 1164 0
-1163 -1164 0
-1163 -1165 0
-1164 -1165 0
-1163 77 1166 0
-1163 -77 1167 0
-1164 77 1167 0
-1164 -77 1168 0
-1165 77 1168 0
-1165 -77 1166 0
-1166 -1167 0
-1166 -1168 0
-1167 -1168 0
-1166 83 1169 0
-1166 -83 1171 0
-1167 83 1170 0
-1167 -83 1169 0
-1168 83 1171 0
-1168 -83 1170 0
-1169 -1170 0
-1169 -1171 0
-1170 -1171 0
-1169 88 1172 0
-1169 -88 1174 0
-1170 88 1173 0
-1170 -88 1172 0
-1171 88 1174 0
-1171 -88 1173 0
-1172 -1173 0
-1172 -1174 0
-1173 -1174 0
-1172 90 1175 0
-1172 -90 1176 0
-1173 90 1176 0
-1173 -90 1177 0
-1174 90 1177 0
-1174 -90 1175 0
-1175 -1176 0
-1175 -1177 0
-1176 -1177 0
-1175 113 1178 0
-1175 -113 1179 0
-1176 113 1179 0
-1176 -113 1180 0
-1177 113 1180 0
-1177 -113 1178 0
-1178 -1179 0
-1178 -1180 0
-1179 -1180 0
-1178 118 1181 0
-1178 -118 1182 0
-1179 118 1182 0
-1179 -118 1183 0
-1180 118 1183 0
-1180 -118 1181 0
-1181 -1182 0
-1181 -1183 0
-1182 -1183 0
-1181 109 1184 0
-1181 -109 1186 0
-1182 109 1185 0
-1182 -109 1184 0
-1183 109 1186 0
-1183 -109 1185 0
-1184 -1185 0
-1184 -1186 0
-1185 -1186 0
-1184 115 1187 0
-1184 -115 1188 0
-1185 115 1188 0
-1185 -115 1189 0
-1186 115 1189 0
-1186 -115 1187 0
-1187 -1188 0
-1187 -1189 0
-1188 -1189 0
-1187 120 1190 0
-1187 -120 1191 0
-1188 120 1191 0
-1188 -120 1192 0
-1189 120 1192 0
-1189 -120 1190 0
-1190 -1191 0
-1190 -1192 0
-1191 -1192 0
-1190 122 1193 0
-1190 -122 1195 0
-1191 122 1194 0
-1191 -122 1193 0
-1192 122 1195 0
-1192 -122 1194 0
-1193 -1194 0
-1193 -1195 0
-1194 -1195 0
-1193 145 1196 0
-1193 -145 1198 0
-1194 145 1197 0
-1194 -145 1196 0
-1195 145 1198 0
-1195 -145 1197 0
-1196 -1197 0
-1196 -1198 0
-1197 -1198 0
-1196 150 1199 0
-1196 -150 1201 0
-1197 150 1200 0
-1197 -150 1199 0
-1198 150 1201 0
-1198 -150 1200 0
-1199 -1200 0
-1199 -1201 0
-1200 -1201 0
-1199 141 1202 0
-1199 -141 1203 0
-1200 141 1203 0
-1200 -141 1204 0
-1201 141 1204 0
-1201 -141 1202 0
-1202 -1203 0
-1202 -1204 0
-1203 -1204 0
-1202 147 1205 0
-1202 -147 1207 0
-1203 147 1206 0
-1203 -147 1205 0
-1204 147 1207 0
-1204 -147 1206 0
-1205 -1206 0
-1205 -1207 0
-1206 -1207 0
-1205 152 1208 0
-1205 -152 1210 0
-1206 152 1209 0
-1206 -152 1208 0
-1207 152 1210 0
-1207 -152 1209 0
-1208 -1209 0
-1208 -1210 0
-1209 -1210 0
-1208 154 1211 0
-1208 -154 1212 0
-1209 154 1212 0
-1209 -154 1213 0
-1210 154 1213 0
-1210 -154 1211 0
-1211 -1212 0
-1211 -1213 0
-1212 -1213 0
-1211 177 1214 0
-1211 -177 1215 0
-1212 177 1215 0
-1212 -177 1216 0
-1213 177 1216 0
-1213 -177 1214 0
-1214 -1215 0
-1214 -1216 0
-1215 -1216 0
-1214 182 1217 0
-1214 -182 1218 0
-1215 182 1218 0
-1215 -182 1219 0
-1216 182 1219 0
-1216 -182 1217 0
-1217 -1218 0
-1217 -1219 0
-1218 -1219 0
-1217 173 1220 0
-1217 -173 1222 0
-1218 173 1221 0
-1218 -173 1220 0
-1219 173 1222 0
-1219 -173 1221 0
-1220 -1221 0
-1220 -1222 0
-1221 -1222 0
-1220 179 1223 0
-1220 -179 1224 0
-1221 179 1224 0
-1221 -179 1225 0
-1222 179 1225 0
-1222 -179 1223 0
-1223 -1224 0
-1223 -1225 0
-1224 -1225 0
-1223 184 1226 0
-1223 -184 1227 0
-1224 184 1227 0
-1224 -184 1228 0
-1225 184 1228 0
-1225 -184 1226 0
-1226 -1227 0
-1226 -1228 0
-1227 -1228 0
-1226 186 1229 0
-1226 -186 1231 0
-1227 186 1230 0
-1227 -186 1229 0
-1228 186 1231 0
-1228 -186 1230 0
-1229 -1230 0
-1229 -1231 0
-1230 -1231 0
-1229 209 1232 0
-1229 -209 1234 0
-1230 209 1233 0
-1230 -209 1232 0
-1231 209 1234 0
-1231 -209 1233 0
-1232 -1233 0
-1232 -1234 0
-1233 -1234 0
-1232 214 1235 0
-1232 -214 1237 0
-1233 214 1236 0
-1233 -214 1235 0
-1234 214 1237 0
-1234 -214 1236 0
-1235 -1236 0
-1235 -1237 0
-1236 -1237 0
-1235 205 1238 0
-1235 -205 1239 0
-1236 205 1239 0
-1236 -205 1240 0
-1237 205 1240 0
-1237 -205 1238 0
-1238 -1239 0
-1238 -1240 0
-1239 -1240 0
-1238 211 1241 0
-1238 -211 1243 0
-1239 211 1242 0
-1239 -211 1241 0
-1240 211 1243 0
-1240 -211 1242 0
-1241 -1242 0
-1241 -1243 0
-1242 -1243 0
-1241 216 1244 0
-1241 -216 1246 0
-1242 216 1245 0
-1242 -216 1244 0
-1243 216 1246 0
-1243 -216 1245 0
-1244 -1245 0
-1244 -1246 0
-1245 -1246 0
-1244 218 1247 0
-1244 -218 1248 0
-1245 218 1248 0
-1245 -218 1249 0
-1246 218 1249 0
-1246 -218 1247 0
-1247 -1248 0
-1247 -1249 0
-1248 -1249 0
-1247 241 1250 0
-1247 -241 1251 0
-1248 241 1251 0
-1248 -241 1252 0
-1249 241 1252 0
-1249 -241 1250 0
-1250 -1251 0
-1250 -1252 0
-1251 -1252 0
-1250 246 1253 0
-1250 -246 1254 0
-1251 246 1254 0
-1251 -246 1255 0
-1252 246 1255 0
-1252 -246 1253 0
-1253 -1254 0
-1253 -1255 0
-1254 -1255 0
-1253 237 1256 0
-1253 -237 1258 0
-1254 237 1257 0
-1254 -237 1256 0
-1255 237 1258 0
-1255 -237 1257 0
-1256 -1257 0
-1256 -1258 0
-1257 -1258 0
-1256 243 1259 0
-1256 -243 1260 0
-1257 243 1260 0
-1257 -243 1261 0
-1258 243 1261 0
-1258 -243 1259 0
-1259 -1260 0
-1259 -1261 0
-1260 -1261 0
-1259 248 1262 0
-1259 -248 1263 0
-1260 248 1263 0
-1260 -248 1264 0
-1261 248 1264 0
-1261 -248 1262 0
-1262 -1263 0
-1262 -1264 0
-1263 -1264 0
-1262 250 1265 0
-1262 -250 1267 0
-1263 250 1266 0
-1263 -250 1265 0
-1264 250 1267 0
-1264 -250 1266 0
-1265 -1266 0
-1265 -1267 0
-1266 -1267 0
-1265 273 1268 0
-1265 -273 1270 0
-1266 273 1269 0
-1266 -273 1268 0
-1267 273 1270 0
-1267 -273 1269 0
-1268 -1269 0
-1268 -1270 0
-1269 -1270 0
-1268 278 1271 0
-1268 -278 1273 0
-1269 278 1272 0
-1269 -278 1271 0
-1270 278 1273 0
-1270 -278 1272 0
-1271 -1272 0
-1271 -1273 0
-1272 -1273 0
1274 0
-1275 0
-1276 0
-1274 13 1277 0
-1274 -13 1279 0
-1275 13 1278 0
-1275 -13 1277 0
-1276 13 1279 0
-1276 -13 1278 0
-1277 -1278 0
-1277 -1279 0
-1278 -1279 0
-1277 18 1280 0
-1277 -18 1282 0
-1278 18 1281 0
-1278 -18 1280 0
-1279 18 1282 0
-1279 -18 1281 0
-1280 -1281 0
-1280 -1282 0
-1281 -1282 0
-1280 20 1283 0
-1280 -20 1285 0
-1281 20 1284 0
-1281 -20 1283 0
-1282 20 1285 0
-1282 -20 1284 0
-1283 -1284 0
-1283 -1285 0
-1284 -1285 0
-1283 22 1286 0
-1283 -22 1287 0
-1284 22 1287 0
-1284 -22 1288 0
-1285 22 1288 0
-1285 -22 1286 0
-1286 -1287 0
-1286 -1288 0
-1287 -1288 0
-1286 24 1289 0
-1286 -24 1290 0
-1287 24 1290 0
-1287 -24 1291 0
-1288 24 1291 0
-1288 -24 1289 0
-1289 -1290 0
-1289 -1291 0
-1290 -1291 0
-1289 26 1292 0
-1289 -26 1294 0
-1290 26 1293 0
-1290 -26 1292 0
-1291 26 1294 0
-1291 -26 1293 0
-1292 -1293 0
-1292 -1294 0
-1293 -1294 0
-1292 49 1295 0
-1292 -49 1297 0
-1293 49 1296 0
-1293 -49 1295 0
-1294 49 1297 0
-1294 -49 1296 0
-1295 -1296 0
-1295 -1297 0
-1296 -1297 0
-1295 54 1298 0
-1295 -54 1300 0
-1296 54 1299 0
-1296 -54 1298 0
-1297 54 1300 0
-1297 -54 1299 0
-1298 -1299 0
-1298 -1300 0
-1299 -1300 0
-1301 19 0
-1301 24 0
-1302 1272 1273 1298 1299 1301 0
1304 0
-1303 0
-1305 0
-1303 49 1306 0
-1303 -49 1307 0
-1304 49 1307 0
-1304 -49 1308 0
-1305 49 1308 0
-1305 -49 1306 0
-1306 -1307 0
-1306 -1308 0
-1307 -1308 0
-1306 55 1309 0
-1306 -55 1311 0
-1307 55 1310 0
-1307 -55 1309 0
-1308 55 1311 0
-1308 -55 1310 0
-1309 -1310 0
-1309 -1311 0
-1310 -1311 0
-1309 60 1312 0
-1309 -60 1314 0
-1310 60 1313 0
-1310 -60 1312 0
-1311 60 1314 0
-1311 -60 1313 0
-1312 -1313 0
-1312 -1314 0
-1313 -1314 0
-1312 62 1315 0
-1312 -62 1316 0
-1313 62 1316 0
-1313 -62 1317 0
-1314 62 1317 0
-1314 -62 1315 0
-1315 -1316 0
-1315 -1317 0
-1316 -1317 0
-1315 85 1318 0
-1315 -85 1319 0
-1316 85 1319 0
-1316 -85 1320 0
-1317 85 1320 0
-1317 -85 1318 0
-1318 -1319 0
-1318 -1320 0
-1319 -1320 0
-1318 90 1321 0
-1318 -90 1322 0
-1319 90 1322 0
-1319 -90 1323 0
-1320 90 1323 0
-1320 -90 1321 0
-1321 -1322 0
-1321 -1323 0
-1322 -1323 0
-1321 81 1324 0
-1321 -81 1326 0
-1322 81 1325 0
-1322 -81 1324 0
-1323 81 1326 0
-1323 -81 1325 0
-1324 -1325 0
-1324 -1326 0
-1325 -1326 0
-1324 87 1327 0
-1324 -87 1328 0
-1325 87 1328 0
-1325 -87 1329 0
-1326 87 1329 0
-1326 -87 1327 0
-1327 -1328 0
-1327 -1329 0
-1328 -1329 0
-1327 92 1330 0
-1327 -92 1331 0
-1328 92 1331 0
-1328 -92 1332 0
-1329 92 1332 0
-1329 -92 1330 0
-1330 -1331 0
-1330 -1332 0
-1331 -1332 0
-1330 94 1333 0
-1330 -94 1335 0
-1331 94 1334 0
-1331 -94 1333 0
-1332 94 1335 0
-1332 -94 1334 0
-1333 -1334 0
-1333 -1335 0
-1334 -1335 0
-1333 117 1336 0
-1333 -117 1338 0
-1334 117 1337 0
-1334 -117 1336 0
-1335 117 1338 0
-1335 -117 1337 0
-1336 -1337 0
-1336 -1338 0
-1337 -1338 0
-1336 122 1339 0
-1336 -122 1341 0
-1337 122 1340 0
-1337 -122 1339 0
-1338 122 1341 0
-1338 -122 1340 0
-1339 -1340 0
-1339 -1341 0
-1340 -1341 0
-1339 113 1342 0
-1339 -113 1343 0
-1340 113 1343 0
-1340 -113 1344 0
-1341 113 1344 0
-1341 -113 1342 0
-1342 -1343 0
-1342 -1344 0
-1343 -1344 0
-1342 119 1345 0
-1342 -119 1347 0
-1343 119 1346 0
-1343 -119 1345 0
-1344 119 1347 0
-1344 -119 1346 0
-1345 -1346 0
-1345 -1347 0
-1346 -1347 0
-1345 124 1348 0
-1345 -124 1350 0
-1346 124 1349 0
-1346 -124 1348 0
-1347 124 1350 0
-1347 -124 1349 0
-1348 -1349 0
-1348 -1350 0
-1349 -1350 0
-1348 126 1351 0
-1348 -126 1352 0
-1349 126 1352 0
-1349 -126 1353 0
-1350 126 1353 0
-1350 -126 1351 0
-1351 -1352 0
-1351 -1353 0
-1352 -1353 0
-1351 149 1354 0
-1351 -149 1355 0
-1352 149 1355 0
-1352 -149 1356 0
-1353 149 1356 0
-1353 -149 1354 0
-1354 -1355 0
-1354 -1356 0
-1355 -1356 0
-1354 154 1357 0
-1354 -154 1358 0
-1355 154 1358 0
-1355 -154 1359 0
-1356 154 1359 0
-1356 -154 1357 0
-1357 -1358 0
-1357 -1359 0
-1358 -1359 0
-1357 145 1360 0
-1357 -145 1362 0
-1358 145 1361 0
-1358 -145 1360 0
-1359 145 1362 0
-1359 -145 1361 0
-1360 -1361 0
-1360 -1362 0
-1361 -1362 0
-1360 151 1363 0
-1360 -151 1364 0
-1361 151 1364 0
-1361 -151 1365 0
-1362 151 1365 0
-1362 -151 1363 0
-1363 -1364 0
-1363 -1365 0
-1364 -1365 0
-1363 156 1366 0
-1363 -156 1367 0
-1364 156 1367 0
-1364 -156 1368 0
-1365 156 1368 0
-1365 -156 1366 0
-1366 -1367 0
-1366 -1368 0
-1367 -1368 0
-1366 158 1369 0
-1366 -158 1371 0
-1367 158 1370 0
-1367 -158 1369 0
-1368 158 1371 0
-1368 -158 1370 0
-1369 -1370 0
-1369 -1371 0
-1370 -1371 0
-1369 181 1372 0
-1369 -181 1374 0
-1370 181 1373 0
-1370 -181 1372 0
-1371 181 1374 0
-1371 -181 1373 0
-1372 -1373 0
-1372 -1374 0
-1373 -1374 0
-1372 186 1375 0
-1372 -186 1377 0
-1373 186 1376 0
-1373 -186 1375 0
-1374 186 1377 0
-1374 -186 1376 0
-1375 -1376 0
-1375 -1377 0
-1376 -1377 0
-1375 177 1378 0
-1375 -177 1379 0
-1376 177 1379 0
-1376 -177 1380 0
-1377 177 1380 0
-1377 -177 1378 0
-1378 -1379 0
-1378 -1380 0
-1379 -1380 0
-1378 183 1381 0
-1378 -183 1383 0
-1379 183 1382 0
-1379 -183 1381 0
-1380 183 1383 0
-1380 -183 1382 0
-1381 -1382 0
-1381 -1383 0
-1382 -1383 0
-1381 188 1384 0
-1381 -188 1386 0
-1382 188 1385 0
-1382 -188 1384 0
-1383 188 1386 0
-1383 -188 1385 0
-1384 -1385 0
-1384 -1386 0
-1385 -1386 0
-1384 190 1387 0
-1384 -190 1388 0
-1385 190 1388 0
-1385 -190 1389 0
-1386 190 1389 0
-1386 -190 1387 0
-1387 -1388 0
-1387 -1389 0
-1388 -1389 0
-1387 213 1390 0
-1387 -213 1391 0
-1388 213 1391 0
-1388 -213 1392 0
-1389 213 1392 0
-1389 -213 1390 0
-1390 -1391 0
-1390 -1392 0
-1391 -1392 0
-1390 218 1393 0
-1390 -218 1394 0
-1391 218 1394 0
-1391 -218 1395 0
-1392 218 1395 0
-1392 -218 1393 0
-1393 -1394 0
-1393 -1395 0
-1394 -1395 0
-1393 209 1396 0
-1393 -209 1398 0
-1394 209 1397 0
-1394 -209 1396 0
-1395 209 1398 0
-1395 -209 1397 0
-1396 -1397 0
-1396 -1398 0
-1397 -1398 0
-1396 215 1399 0
-1396 -215 1400 0
-1397 215 1400 0
-1397 -215 1401 0
-1398 215 1401 0
-1398 -215 1399 0
-1399 -1400 0
-1399 -1401 0
-1400 -1401 0
-1399 220 1402 0
-1399 -220 1403 0
-1400 220 1403 0
-1400 -220 1404 0
-1401 220 1404 0
-1401 -220 1402 0
-1402 -1403 0
-1402 -1404 0
-1403 -1404 0
-1402 222 1405 0
-1402 -222 1407 0
-1403 222 1406 0
-1403 -222 1405 0
-1404 222 1407 0
-1404 -222 1406 0
-1405 -1406 0
-1405 -1407 0
-1406 -1407 0
-1405 245 1408 0
-1405 -245 1410 0
-1406 245 1409 0
-1406 -245 1408 0
-1407 245 1410 0
-1407 -245 1409 0
-1408 -1409 0
-1408 -1410 0
-1409 -1410 0
-1408 250 1411 0
-1408 -250 1413 0
-1409 250 1412 0
-1409 -250 1411 0
-1410 250 1413 0
-1410 -250 1412 0
-1411 -1412 0
-1411 -1413 0
-1412 -1413 0
-1411 241 1414 0
-1411 -241 1415 0
-1412 241 1415 0
-1412 -241 1416 0
-1413 241 1416 0
-1413 -241 1414 0
-1414 -1415 0
-1414 -1416 0
-1415 -1416 0
-1414 247 1417 0
-1414 -247 1419 0
-1415 247 1418 0
-1415 -247 1417 0
-1416 247 1419 0
-1416 -247 1418 0
-1417 -1418 0
-1417 -1419 0
-1418 -1419 0
-1417 252 1420 0
-1417 -252 1422 0
-1418 252 1421 0
-1418 -252 1420 0
-1419 252 1422 0
-1419 -252 1421 0
-1420 -1421 0
-1420 -1422 0
-1421 -1422 0
-1420 254 1423 0
-1420 -254 1424 0
-1421 254 1424 0
-1421 -254 1425 0
-1422 254 1425 0
-1422 -254 1423 0
-1423 -1424 0
-1423 -1425 0
-1424 -1425 0
-1423 277 1426 0
-1423 -277 1427 0
-1424 277 1427 0
-1424 -277 1428 0
-1425 277 1428 0
-1425 -277 1426 0
-1426 -1427 0
-1426 -1428 0
-1427 -1428 0
-1426 282 1429 0
-1426 -282 1430 0
-1427 282 1430 0
-1427 -282 1431 0
-1428 282 1431 0
-1428 -282 1429 0
-1429 -1430 0
-1429 -1431 0
-1430 -1431 0
1432 0
-1433 0
-1434 0
-1432 17 1435 0
-1432 -17 1437 0
-1433 17 1436 0
-1433 -17 1435 0
-1434 17 1437 0
-1434 -17 1436 0
-1435 -1436 0
-1435 -1437 0
-1436 -1437 0
-1435 22 1438 0
-1435 -22 1440 0
-1436 22 1439 0
-1436 -22 1438 0
-1437 22 1440 0
-1437 -22 1439 0
-1438 -1439 0
-1438 -1440 0
-1439 -1440 0
-1438 24 1441 0
-1438 -24 1443 0
-1439 24 1442 0
-1439 -24 1441 0
-1440 24 1443 0
-1440 -24 1442 0
-1441 -1442 0
-1441 -1443 0
-1442 -1443 0
-1441 26 1444 0
-1441 -26 1445 0
-1442 26 1445 0
-1442 -26 1446 0
-1443 26 1446 0
-1443 -26 1444 0
-1444 -1445 0
-1444 -1446 0
-1445 -1446 0
-1444 28 1447 0
-1444 -28 1448 0
-1445 28 1448 0
-1445 -28 1449 0
-1446 28 1449 0
-1446 -28 1447 0
-1447 -1448 0
-1447 -1449 0
-1448 -1449 0
-1447 30 1450 0
-1447 -30 1452 0
-1448 30 1451 0
-1448 -30 1450 0
-1449 30 1452 0
-1449 -30 1451 0
-1450 -1451 0
-1450 -1452 0
-1451 -1452 0
-1450 53 1453 0
-1450 -53 1455 0
-1451 53 1454 0
-1451 -53 1453 0
-1452 53 1455 0
-1452 -53 1454 0
-1453 -1454 0
-1453 -1455 0
-1454 -1455 0
-1453 58 1456 0
-1453 -58 1458 0
-1454 58 1457 0
-1454 -58 1456 0
-1455 58 1458 0
-1455 -58 1457 0
-1456 -1457 0
-1456 -1458 0
-1457 -1458 0
-1459 23 0
-1459 28 0
-1460 1430 1431 1456 1457 1459 0
1463 0
-1461 0
-1462 0
-1461 34 1464 0
-1461 -34 1466 0
-1462 34 1465 0
-1462 -34 1464 0
-1463 34 1466 0
-1463 -34 1465 0
-1464 -1465 0
-1464 -1466 0
-1465 -1466 0
-1464 53 1467 0
-1464 -53 1469 0
-1465 53 1468 0
-1465 -53 1467 0
-1466 53 1469 0
-1466 -53 1468 0
-1467 -1468 0
-1467 -1469 0
-1468 -1469 0
-1467 59 1470 0
-1467 -59 1471 0
-1468 59 1471 0
-1468 -59 1472 0
-1469 59 1472 0
-1469 -59 1470 0
-1470 -1471 0
-1470 -1472 0
-1471 -1472 0
-1470 64 1473 0
-1470 -64 1474 0
-1471 64 1474 0
-1471 -64 1475 0
-1472 64 1475 0
-1472 -64 1473 0
-1473 -1474 0
-1473 -1475 0
-1474 -1475 0
-1473 89 1476 0
-1473 -89 1478 0
-1474 89 1477 0
-1474 -89 1476 0
-1475 89 1478 0
-1475 -89 1477 0
-1476 -1477 0
-1476 -1478 0
-1477 -1478 0
-1476 94 1479 0
-1476 -94 1481 0
-1477 94 1480 0
-1477 -94 1479 0
-1478 94 1481 0
-1478 -94 1480 0
-1479 -1480 0
-1479 -1481 0
-1480 -1481 0
-1479 66 1482 0
-1479 -66 1483 0
-1480 66 1483 0
-1480 -66 1484 0
-1481 66 1484 0
-1481 -66 1482 0
-1482 -1483 0
-1482 -1484 0
-1483 -1484 0
-1482 85 1485 0
-1482 -85 1486 0
-1483 85 1486 0
-1483 -85 1487 0
-1484 85 1487 0
-1484 -85 1485 0
-1485 -1486 0
-1485 -1487 0
-1486 -1487 0
-1485 91 1488 0
-1485 -91 1490 0
-1486 91 1489 0
-1486 -91 1488 0
-1487 91 1490 0
-1487 -91 1489 0
-1488 -1489 0
-1488 -1490 0
-1489 -1490 0
-1488 96 1491 0
-1488 -96 1493 0
-1489 96 1492 0
-1489 -96 1491 0
-1490 96 1493 0
-1490 -96 1492 0
-1491 -1492 0
-1491 -1493 0
-1492 -1493 0
-1491 121 1494 0
-1491 -121 1495 0
-1492 121 1495 0
-1492 -121 1496 0
-1493 121 1496 0
-1493 -121 1494 0
-1494 -1495 0
-1494 -1496 0
-1495 -1496 0
-1494 126 1497 0
-1494 -126 1498 0
-1495 126 1498 0
-1495 -126 1499 0
-1496 126 1499 0
-1496 -126 1497 0
-1497 -1498 0
-1497 -1499 0
-1498 -1499 0
-1497 98 1500 0
-1497 -98 1502 0
-1498 98 1501 0
-1498 -98 1500 0
-1499 98 1502 0
-1499 -98 1501 0
-1500 -1501 0
-1500 -1502 0
-1501 -1502 0
-1500 117 1503 0
-1500 -117 1505 0
-1501 117 1504 0
-1501 -117 1503 0
-1502 117 1505 0
-1502 -117 1504 0
-1503 -1504 0
-1503 -1505 0
-1504 -1505 0
-1503 123 1506 0
-1503 -123 1507 0
-1504 123 1507 0
-1504 -123 1508 0
-1505 123 1508 0
-1505 -123 1506 0
-1506 -1507 0
-1506 -1508 0
-1507 -1508 0
-1506 128 1509 0
-1506 -128 1510 0
-1507 128 1510 0
-1507 -128 1511 0
-1508 128 1511 0
-1508 -128 1509 0
-1509 -1510 0
-1509 -1511 0
-1510 -1511 0
-1509 153 1512 0
-1509 -153 1514 0
-1510 153 1513 0
-1510 -153 1512 0
-1511 153 1514 0
-1511 -153 1513 0
-1512 -1513 0
-1512 -1514 0
-1513 -1514 0
-1512 158 1515 0
-1512 -158 1517 0
-1513 158 1516 0
-1513 -158 1515 0
-1514 158 1517 0
-1514 -158 1516 0
-1515 -1516 0
-1515 -1517 0
-1516 -1517 0
-1515 130 1518 0
-1515 -130 1519 0
-1516 130 1519 0
-1516 -130 1520 0
-1517 130 1520 0
-1517 -130 1518 0
-1518 -1519 0
-1518 -1520 0
-1519 -1520 0
-1518 149 1521 0
-1518 -149 1522 0
-1519 149 1522 0
-1519 -149 1523 0
-1520 149 1523 0
-1520 -149 1521 0
-1521 -1522 0
-1521 -1523 0
-1522 -1523 0
-1521 155 1524 0
-1521 -155 1526 0
-1522 155 1525 0
-1522 -155 1524 0
-1523 155 1526 0
-1523 -155 1525 0
-1524 -1525 0
-1524 -1526 0
-1525 -1526 0
-1524 160 1527 0
-1524 -160 1529 0
-1525 160 1528 0
-1525 -160 1527 0
-1526 160 1529 0
-1526 -160 1528 0
-1527 -1528 0
-1527 -1529 0
-1528 -1529 0
-1527 185 1530 0
-1527 -185 1531 0
-1528 185 1531 0
-1528 -185 1532 0
-1529 185 1532 0
-1529 -185 1530 0
-1530 -1531 0
-1530 -1532 0
-1531 -1532 0
-1530 190 1533 0
-1530 -190 1534 0
-1531 190 1534 0
-1531 -190 1535 0
-1532 190 1535 0
-1532 -190 1533 0
-1533 -1534 0
-1533 -1535 0
-1534 -1535 0
-1533 162 1536 0
-1533 -162 1538 0
-1534 162 1537 0
-1534 -162 1536 0
-1535 162 1538 0
-1535 -162 1537 0
-1536 -1537 0
-1536 -1538 0
-1537 -1538 0
-1536 181 1539 0
-1536 -181 1541 0
-1537 181 1540 0
-1537 -181 1539 0
-1538 181 1541 0
-1538 -181 1540 0
-1539 -1540 0
-1539 -1541 0
-1540 -1541 0
-1539 187 1542 0
-1539 -187 1543 0
-1540 187 1543 0
-1540 -187 1544 0
-1541 187 1544 0
-1541 -187 1542 0
-1542 -1543 0
-1542 -1544 0
-1543 -1544 0
-1542 192 1545 0
-1542 -192 1546 0
-1543 192 1546 0
-1543 -192 1547 0
-1544 192 1547 0
-1544 -192 1545 0
-1545 -1546 0
-1545 -1547 0
-1546 -1547 0
-1545 217 1548 0
-1545 -217 1550 0
-1546 217 1549 0
-1546 -217 1548 0
-1547 217 1550 0
-1547 -217 1549 0
-1548 -1549 0
-1548 -1550 0
-1549 -1550 0
-1548 222 1551 0
-1548 -222 1553 0
-1549 222 1552 0
-1549 -222 1551 0
-1550 222 1553 0
-1550 -222 1552 0
-1551 -1552 0
-1551 -1553 0
-1552 -1553 0
-1551 194 1554 0
-1551 -194 1555 0
-1552 194 1555 0
-1552 -194 1556 0
-1553 194 1556 0
-1553 -194 1554 0
-1554 -1555 0
-1554 -1556 0
-1555 -1556 0
-1554 213 1557 0
-1554 -213 1558 0
-1555 213 1558 0
-1555 -213 1559 0
-1556 213 1559 0
-1556 -213 1557 0
-1557 -1558 0
-1557 -1559 0
-1558 -1559 0
-1557 219 1560 0
-1557 -219 1562 0
-1558 219 1561 0
-1558 -219 1560 0
-1559 219 1562 0
-1559 -219 1561 0
-1560 -1561 0
-1560 -1562 0
-1561 -1562 0
-1560 224 1563 0
-1560 -224 1565 0
-1561 224 1564 0
-1561 -224 1563 0
-1562 224 1565 0
-1562 -224 1564 0
-1563 -1564 0
-1563 -1565 0
-1564 -1565 0
-1563 249 1566 0
-1563 -249 1567 0
-1564 249 1567 0
-1564 -249 1568 0
-1565 249 1568 0
-1565 -249 1566 0
-1566 -1567 0
-1566 -1568 0
-1567 -1568 0
-1566 254 1569 0
-1566 -254 1570 0
-1567 254 1570 0
-1567 -254 1571 0
-1568 254 1571 0
-1568 -254 1569 0
-1569 -1570 0
-1569 -1571 0
-1570 -1571 0
-1569 226 1572 0
-1569 -226 1574 0
-1570 226 1573 0
-1570 -226 1572 0
-1571 226 1574 0
-1571 -226 1573 0
-1572 -1573 0
-1572 -1574 0
-1573 -1574 0
-1572 245 1575 0
-1572 -245 1577 0
-1573 245 1576 0
-1573 -245 1575 0
-1574 245 1577 0
-1574 -245 1576 0
-1575 -1576 0
-1575 -1577 0
-1576 -1577 0
-1575 251 1578 0
-1575 -251 1579 0
-1576 251 1579 0
-1576 -251 1580 0
-1577 251 1580 0
-1577 -251 1578 0
-1578 -1579 0
-1578 -1580 0
-1579 -1580 0
-1578 256 1581 0
-1578 -256 1582 0
-1579 256 1582 0
-1579 -256 1583 0
-1580 256 1583 0
-1580 -256 1581 0
-1581 -1582 0
-1581 -1583 0
-1582 -1583 0
-1581 281 1584 0
-1581 -281 1586 0
-1582 281 1585 0
-1582 -281 1584 0
-1583 281 1586 0
-1583 -281 1585 0
-1584 -1585 0
-1584 -1586 0
-1585 -1586 0
-1584 286 1587 0
-1584 -286 1589 0
-1585 286 1588 0
-1585 -286 1587 0
-1586 286 1589 0
-1586 -286 1588 0
-1587 -1588 0
-1587 -1589 0
-1588 -1589 0
1590 0
-1591 0
-1592 0
-1590 21 1593 0
-1590 -21 1595 0
-1591 21 1594 0
-1591 -21 1593 0
-1592 21 1595 0
-1592 -21 1594 0
-1593 -1594 0
-1593 -1595 0
-1594 -1595 0
-1593 26 1596 0
-1593 -26 1598 0
-1594 26 1597 0
-1594 -26 1596 0
-1595 26 1598 0
-1595 -26 1597 0
-1596 -1597 0
-1596 -1598 0
-1597 -1598 0
-1596 28 1599 0
-1596 -28 1601 0
-1597 28 1600 0
-1597 -28 1599 0
-1598 28 1601 0
-1598 -28 1600 0
-1599 -1600 0
-1599 -1601 0
-1600 -1601 0
-1599 30 1602 0
-1599 -30 1603 0
-1600 30 1603 0
-1600 -30 1604 0
-1601 30 1604 0
-1601 -30 1602 0
-1602 -1603 0
-1602 -1604 0
-1603 -1604 0
-1602 32 1605 0
-1602 -32 1606 0
-1603 32 1606 0
-1603 -32 1607 0
-1604 32 1607 0
-1604 -32 1605 0
-1605 -1606 0
-1605 -1607 0
-1606 -1607 0
-1605 2 1608 0
-1605 -2 1610 0
-1606 2 1609 0
-1606 -2 1608 0
-1607 2 1610 0
-1607 -2 1609 0
-1608 -1609 0
-1608 -1610 0
-1609 -1610 0
-1608 57 1611 0
-1608 -57 1613 0
-1609 57 1612 0
-1609 -57 1611 0
-1610 57 1613 0
-1610 -57 1612 0
-1611 -1612 0
-1611 -1613 0
-1612 -1613 0
-1611 62 1614 0
-1611 -62 1616 0
-1612 62 1615 0
-1612 -62 1614 0
-1613 62 1616 0
-1613 -62 1615 0
-1614 -1615 0
-1614 -1616 0
-1615 -1616 0
-1617 27 0
-1617 32 0
-1618 1588 1589 1614 1615 1617 0
1620 0
-1619 0
-1621 0
-1619 36 1622 0
-1619 -36 1624 0
-1620 36 1623 0
-1620 -36 1622 0
-1621 36 1624 0
-1621 -36 1623 0
-1622 -1623 0
-1622 -1624 0
-1623 -1624 0
-1622 38 1625 0
-1622 -38 1626 0
-1623 38 1626 0
-1623 -38 1627 0
-1624 38 1627 0
-1624 -38 1625 0
-1625 -1626 0
-1625 -1627 0
-1626 -1627 0
-1625 57 1628 0
-1625 -57 1629 0
-1626 57 1629 0
-1626 -57 1630 0
-1627 57 1630 0
-1627 -57 1628 0
-1628 -1629 0
-1628 -1630 0
-1629 -1630 0
-1628 63 1631 0
-1628 -63 1633 0
-1629 63 1632 0
-1629 -63 1631 0
-1630 63 1633 0
-1630 -63 1632 0
-1631 -1632 0
-1631 -1633 0
-1632 -1633 0
-1631 66 1634 0
-1631 -66 1635 0
-1632 66 1635 0
-1632 -66 1636 0
-1633 66 1636 0
-1633 -66 1634 0
-1634 -1635 0
-1634 -1636 0
-1635 -1636 0
-1634 93 1637 0
-1634 -93 1638 0
-1635 93 1638 0
-1635 -93 1639 0
-1636 93 1639 0
-1636 -93 1637 0
-1637 -1638 0
-1637 -1639 0
-1638 -1639 0
-1637 68 1640 0
-1637 -68 1641 0
-1638 68 1641 0
-1638 -68 1642 0
-1639 68 1642 0
-1639 -68 1640 0
-1640 -1641 0
-1640 -1642 0
-1641 -1642 0
-1640 70 1643 0
-1640 -70 1645 0
-1641 70 1644 0
-1641 -70 1643 0
-1642 70 1645 0
-1642 -70 1644 0
-1643 -1644 0
-1643 -1645 0
-1644 -1645 0
-1643 89 1646 0
-1643 -89 1648 0
-1644 89 1647 0
-1644 -89 1646 0
-1645 89 1648 0
-1645 -89 1647 0
-1646 -1647 0
-1646 -1648 0
-1647 -1648 0
-1646 95 1649 0
-1646 -95 1650 0
-1647 95 1650 0
-1647 -95 1651 0
-1648 95 1651 0
-1648 -95 1649 0
-1649 -1650 0
-1649 -1651 0
-1650 -1651 0
-1649 98 1652 0
-1649 -98 1654 0
-1650 98 1653 0
-1650 -98 1652 0
-1651 98 1654 0
-1651 -98 1653 0
-1652 -1653 0
-1652 -1654 0
-1653 -1654 0
-1652 125 1655 0
-1652 -125 1657 0
-1653 125 1656 0
-1653 -125 1655 0
-1654 125 1657 0
-1654 -125 1656 0
-1655 -1656 0
-1655 -1657 0
-1656 -1657 0
-1655 100 1658 0
-1655 -100 1660 0
-1656 100 1659 0
-1656 -100 1658 0
-1657 100 1660 0
-1657 -100 1659 0
-1658 -1659 0
-1658 -1660 0
-1659 -1660 0
-1658 102 1661 0
-1658 -102 1662 0
-1659 102 1662 0
-1659 -102 1663 0
-1660 102 1663 0
-1660 -102 1661 0
-1661 -1662 0
-1661 -1663 0
-1662 -1663 0
-1661 121 1664 0
-1661 -121 1665 0
-1662 121 1665 0
-1662 -121 1666 0
-1663 121 1666 0
-1663 -121 1664 0
-1664 -1665 0
-1664 -1666 0
-1665 -1666 0
-1664 127 1667 0
-1664 -127 1669 0
-1665 127 1668 0
-1665 -127 1667 0
-1666 127 1669 0
-1666 -127 1668 0
-1667 -1668 0
-1667 -1669 0
-1668 -1669 0
-1667 130 1670 0
-1667 -130 1671 0
-1668 130 1671 0
-1668 -130 1672 0
-1669 130 1672 0
-1669 -130 1670 0
-1670 -1671 0
-1670 -1672 0
-1671 -1672 0
-1670 157 1673 0
-1670 -157 1674 0
-1671 157 1674 0
-1671 -157 1675 0
-1672 157 1675 0
-1672 -157 1673 0
-1673 -1674 0
-1673 -1675 0
-1674 -1675 0
-1673 132 1676 0
-1673 -132 1677 0
-1674 132 1677 0
-1674 -132 1678 0
-1675 132 1678 0
-1675 -132 1676 0
-1676 -1677 0
-1676 -1678 0
-1677 -1678 0
-1676 134 1679 0
-1676 -134 1681 0
-1677 134 1680 0
-1677 -134 1679 0
-1678 134 1681 0
-1678 -134 1680 0
-1679 -1680 0
-1679 -1681 0
-1680 -1681 0
-1679 153 1682 0
-1679 -153 1684 0
-1680 153 1683 0
-1680 -153 1682 0
-1681 153 1684 0
-1681 -153 1683 0
-1682 -1683 0
-1682 -1684 0
-1683 -1684 0
-1682 159 1685 0
-1682 -159 1686 0
-1683 159 1686 0
-1683 -159 1687 0
-1684 159 1687 0
-1684 -159 1685 0
-1685 -1686 0
-1685 -1687 0
-1686 -1687 0
-1685 162 1688 0
-1685 -162 1690 0
-1686 162 1689 0
-1686 -162 1688 0
-1687 162 1690 0
-1687 -162 1689 0
-1688 -1689 0
-1688 -1690 0
-1689 -1690 0
-1688 189 1691 0
-1688 -189 1693 0
-1689 189 1692 0
-1689 -189 1691 0
-1690 189 1693 0
-1690 -189 1692 0
-1691 -1692 0
-1691 -1693 0
-1692 -1693 0
-1691 164 1694 0
-1691 -164 1696 0
-1692 164 1695 0
-1692 -164 1694 0
-1693 164 1696 0
-1693 -164 1695 0
-1694 -1695 0
-1694 -1696 0
-1695 -1696 0
-1694 166 1697 0
-1694 -166 1698 0
-1695 166 1698 0
-1695 -166 1699 0
-1696 166 1699 0
-1696 -166 1697 0
-1697 -1698 0
-1697 -1699 0
-1698 -1699 0
-1697 185 1700 0
-1697 -185 1701 0
-1698 185 1701 0
-1698 -185 1702 0
-1699 185 1702 0
-1699 -185 1700 0
-1700 -1701 0
-1700 -1702 0
-1701 -1702 0
-1700 191 1703 0
-1700 -191 1705 0
-1701 191 1704 0
-1701 -191 1703 0
-1702 191 1705 0
-1702 -191 1704 0
-1703 -1704 0
-1703 -1705 0
-1704 -1705 0
-1703 194 1706 0
-1703 -194 1707 0
-1704 194 1707 0
-1704 -194 1708 0
-1705 194 1708 0
-1705 -194 1706 0
-1706 -1707 0
-1706 -1708 0
-1707 -1708 0
-1706 221 1709 0
-1706 -221 1710 0
-1707 221 1710 0
-1707 -221 1711 0
-1708 221 1711 0
-1708 -221 1709 0
-1709 -1710 0
-1709 -1711 0
-1710 -1711 0
-1709 196 1712 0
-1709 -196 1713 0
-1710 196 1713 0
-1710 -196 1714 0
-1711 196 1714 0
-1711 -196 1712 0
-1712 -1713 0
-1712 -1714 0
-1713 -1714 0
-1712 198 1715 0
-1712 -198 1717 0
-1713 198 1716 0
-1713 -198 1715 0
-1714 198 1717 0
-1714 -198 1716 0
-1715 -1716 0
-1715 -1717 0
-1716 -1717 0
-1715 217 1718 0
-1715 -217 1720 0
-1716 217 1719 0
-1716 -217 1718 0
-1717 217 1720 0
-1717 -217 1719 0
-1718 -1719 0
-1718 -1720 0
-1719 -1720 0
-1718 223 1721 0
-1718 -223 1722 0
-1719 223 1722 0
-1719 -223 1723 0
-1720 223 1723 0
-1720 -223 1721 0
-1721 -1722 0
-1721 -1723 0
-1722 -1723 0
-1721 226 1724 0
-1721 -226 1726 0
-1722 226 1725 0
-1722 -226 1724 0
-1723 226 1726 0
-1723 -226 1725 0
-1724 -1725 0
-1724 -1726 0
-1725 -1726 0
-1724 253 1727 0
-1724 -253 1729 0
-1725 253 1728 0
-1725 -253 1727 0
-1726 253 1729 0
-1726 -253 1728 0
-1727 -1728 0
-1727 -1729 0
-1728 -1729 0
-1727 228 1730 0
-1727 -228 1732 0
-1728 228 1731 0
-1728 -228 1730 0
-1729 228 1732 0
-1729 -228 1731 0
-1730 -1731 0
-1730 -1732 0
-1731 -1732 0
-1730 230 1733 0
-1730 -230 1734 0
-1731 230 1734 0
-1731 -230 1735 0
-1732 230 1735 0
-1732 -230 1733 0
-1733 -1734 0
-1733 -1735 0
-1734 -1735 0
-1733 249 1736 0
-1733 -249 1737 0
-1734 249 1737 0
-1734 -249 1738 0
-1735 249 1738 0
-1735 -249 1736 0
-1736 -1737 0
-1736 -1738 0
-1737 -1738 0
-1736 255 1739 0
-1736 -255 1741 0
-1737 255 1740 0
-1737 -255 1739 0
-1738 255 1741 0
-1738 -255 1740 0
-1739 -1740 0
-1739 -1741 0
-1740 -1741 0
-1739 258 1742 0
-1739 -258 1743 0
-1740 258 1743 0
-1740 -258 1744 0
-1741 258 1744 0
-1741 -258 1742 0
-1742 -1743 0
-1742 -1744 0
-1743 -1744 0
-1742 285 1745 0
-1742 -285 1746 0
-1743 285 1746 0
-1743 -285 1747 0
-1744 285 1747 0
-1744 -285 1745 0
-1745 -1746 0
-1745 -1747 0
-1746 -1747 0
1748 0
-1749 0
-1750 0
-1748 25 1751 0
-1748 -25 1753 0
-1749 25 1752 0
-1749 -25 1751 0
-1750 25 1753 0
-1750 -25 1752 0
-1751 -1752 0
-1751 -1753 0
-1752 -1753 0
-1751 30 1754 0
-1751 -30 1756 0
-1752 30 1755 0
-1752 -30 1754 0
-1753 30 1756 0
-1753 -30 1755 0
-1754 -1755 0
-1754 -1756 0
-1755 -1756 0
-1754 32 1757 0
-1754 -32 1759 0
-1755 32 1758 0
-1755 -32 1757 0
-1756 32 1759 0
-1756 -32 1758 0
-1757 -1758 0
-1757 -1759 0
-1758 -1759 0
-1757 2 1760 0
-1757 -2 1761 0
-1758 2 1761 0
-1758 -2 1762 0
-1759 2 1762 0
-1759 -2 1760 0
-1760 -1761 0
-1760 -1762 0
-1761 -1762 0
-1760 4 1763 0
-1760 -4 1764 0
-1761 4 1764 0
-1761 -4 1765 0
-1762 4 1765 0
-1762 -4 1763 0
-1763 -1764 0
-1763 -1765 0
-1764 -1765 0
-1763 6 1766 0
-1763 -6 1768 0
-1764 6 1767 0
-1764 -6 1766 0
-1765 6 1768 0
-1765 -6 1767 0
-1766 -1767 0
-1766 -1768 0
-1767 -1768 0
-1766 61 1769 0
-1766 -61 1771 0
-1767 61 1770 0
-1767 -61 1769 0
-1768 61 1771 0
-1768 -61 1770 0
-1769 -1770 0
-1769 -1771 0
-1770 -1771 0
-1769 34 1772 0
-1769 -34 1774 0
-1770 34 1773 0
-1770 -34 1772 0
-1771 34 1774 0
-1771 -34 1773 0
-1772 -1773 0
-1772 -1774 0
-1773 -1774 0
-1775 31 0
-1775 4 0
-1776 1746 1747 1772 1773 1775 0
-2125 1777 0
-2126 1778 0
-2127 1779 0
-2128 1780 0
-2129 1781 0
-2130 1782 0
-2131 1783 0
-2132 1784 0
-2133 1785 0
-2134 1786 0
-2135 1787 0
-2136 1788 0
-2137 1789 0
-2138 1790 0
-2139 1791 0
-2140 1792 0
-2141 1793 0
-2142 1794 0
-2143 1795 0
-2144 1796 0
-2145 1797 0
-2146 1798 0
-2147 1799 0
-2148 1800 0
-2149 1801 0
-2150 1802 0
-2151 1803 0
-2152 1804 0
-2153 1805 0
-2154 1806 0
-2155 1807 0
-2156 1808 0
-2157 1809 0
-2158 1810 0
-2159 1811 0
-2160 1812 0
-2161 1813 0
-2162 1814 0
-2163 1815 0
-2164 1816 0
-2165 1817 0
-2166 1818 0
-2167 1819 0
-2168 1820 0
-2169 1821 0
-2170 1822 0
-2171 1823 0
-2172 1824 0
-2173 1825 0
-2174 1826 0
-2175 1827 0
-2176 1828 0
-2177 1829 0
-2178 1830 0
-2179 1831 0
-2180 1832 0
-2181 1833 0
-2182 1834 0
-2183 1835 0
-2184 1836 0
-2185 1837 0
-2186 1838 0
-2187 1839 0
-2188 1840 0
-2189 1841 0
-2190 1842 0
-2191 1843 0
-2192 1844 0
-2193 1845 0
-2194 1846 0
-2195 1847 0
-2196 1848 0
-2197 1849 0
-2198 1850 0
-2199 1851 0
-2200 1852 0
-2201 1853 0
-2202 1854 0
-2203 1855 0
-2204 1856 0
-2205 1857 0
-2206 1858 0
-2207 1859 0
-2208 1860 0
-2209 1861 0
-2210 1862 0
-2211 1863 0
-2212 1864 0
-2213 1865 0
-2214 1866 0
-2215 1867 0
-2216 1868 0
-2217 1869 0
-2218 1870 0
-2219 1871 0
-2220 1872 0
-2221 1873 0
-2222 1874 0
-2223 1875 0
-2224 1876 0
-2225 1877 0
-2226 1878 0
-2227 1879 0
-2228 1880 0
-2229 1881 0
-2230 1882 0
-2231 1883 0
-2232 1884 0
-2233 1885 0
-2234 1886 0
-2235 1887 0
-2236 1888 0
-2237 1889 0
-2238 1890 0
-2239 1891 0
-2240 1892 0
-2009 1777 0
-2010 1778 0
-2011 1779 0
-2012 1780 0
-2013 1781 0
-2014 1782 0
-2015 1783 0
-2016 1784 0
-2017 1785 0
-2018 1786 0
-2019 1787 0
-2020 1788 0
-2021 1789 0
-2022 1790 0
-2023 1791 0
-2024 1792 0
-2025 1793 0
-2026 1794 0
-2027 1795 0
-2028 1796 0
-2029 1797 0
-2030 1798 0
-2031 1799 0
-2032 1800 0
-2033 1801 0
-2034 1802 0
-2035 1803 0
-2036 1804 0
-2037 1805 0
-2038 1806 0
-2039 1807 0
-2040 1808 0
-2041 1809 0
-2042 1810 0
-2043 1811 0
-2044 1812 0
-2045 1813 0
-2046 1814 0
-2047 1815 0
-2048 1816 0
-2049 1817 0
-2050 1818 0
-2051 1819 0
-2052 1820 0
-2053 1821 0
-2054 1822 0
-2055 1823 0
-2056 1824 0
-2057 1825 0
-2058 1826 0
-2059 1827 0
-2060 1828 0
-2061 1829 0
-2062 1830 0
-2063 1831 0
-2064 1832 0
-2065 1833 0
-2066 1834 0
-2067 1835 0
-2068 1836 0
-2069 1837 0
-2070 1838 0
-2071 1839 0
-2072 1840 0
-2073 1841 0
-2074 1842 0
-2075 1843 0
-2076 1844 0
-2077 1845 0
-2078 1846 0
-2079 1847 0
-2080 1848 0
-2081 1849 0
-2082 1850 0
-2083 1851 0
-2084 1852 0
-2085 1853 0
-2086 1854 0
-2087 1855 0
-2088 1856 0
-2089 1857 0
-2090 1858 0
-2091 1859 0
-2092 1860 0
-2093 1861 0
-2094 1862 0
-2095 1863 0
-2096 1864 0
-2097 1865 0
-2098 1866 0
-2099 1867 0
-2100 1868 0
-2101 1869 0
-2102 1870 0
-2103 1871 0
-2104 1872 0
-2105 1873 0
-2106 1874 0
-2107 1875 0
-2108 1876 0
-2109 1877 0
-2110 1878 0
-2111 1879 0
-2112 1880 0
-2113 1881 0
-2114 1882 0
-2115 1883 0
-2116 1884 0
-2117 1885 0
-2118 1886 0
-2119 1887 0
-2120 1888 0
-2121 1889 0
-2122 1890 0
-2123 1891 0
-2124 1892 0
-2009 -2125 1778 0
-2009 -2126 1779 0
-2009 -2127 1780 0
-2009 -2128 1781 0
-2009 -2129 1782 0
-2009 -2130 1783 0
-2009 -2131 1784 0
-2009 -2132 1785 0
-2009 -2133 1786 0
-2009 -2134 1787 0
-2009 -2135 1788 0
-2009 -2136 1789 0
-2009 -2137 1790 0
-2009 -2138 1791 0
-2009 -2139 1792 0
-2009 -2140 1793 0
-2009 -2141 1794 0
-2009 -2142 1795 0
-2009 -2143 1796 0
-2009 -2144 1797 0
-2009 -2145 1798 0
-2009 -2146 1799 0
-2009 -2147 1800 0
-2009 -2148 1801 0
-2009 -2149 1802 0
-2009 -2150 1803 0
-2009 -2151 1804 0
-2009 -2152 1805 0
-2009 -2153 1806 0
-2009 -2154 1807 0
-2009 -2155 1808 0
-2009 -2156 1809 0
-2009 -2157 1810 0
-2009 -2158 1811 0
-2009 -2159 1812 0
-2009 -2160 1813 0
-2009 -2161 1814 0
-2009 -2162 1815 0
-2009 -2163 1816 0
-2009 -2164 1817 0
-2009 -2165 1818 0
-2009 -2166 1819 0
-2009 -2167 1820 0
-2009 -2168 1821 0
-2009 -2169 1822 0
-2009 -2170 1823 0
-2009 -2171 1824 0
-2009 -2172 1825 0
-2009 -2173 1826 0
-2009 -2174 1827 0
-2009 -2175 1828 0
-2009 -2176 1829 0
-2009 -2177 1830 0
-2009 -2178 1831 0
-2009 -2179 1832 0
-2009 -2180 1833 0
-2009 -2181 1834 0
-2009 -2182 1835 0
-2009 -2183 1836 0
-2009 -2184 1837 0
-2009 -2185 1838 0
-2009 -2186 1839 0
-2009 -2187 1840 0
-2009 -2188 1841 0
-2009 -2189 1842 0
-2009 -2190 1843 0
-2009 -2191 1844 0
-2009 -2192 1845 0
-2009 -2193 1846 0
-2009 -2194 1847 0
-2009 -2195 1848 0
-2009 -2196 1849 0
-2009 -2197 1850 0
-2009 -2198 1851 0
-2009 -2199 1852 0
-2009 -2200 1853 0
-2009 -2201 1854 0
-2009 -2202 1855 0
-2009 -2203 1856 0
-2009 -2204 1857 0
-2009 -2205 1858 0
-2009 -2206 1859 0
-2009 -2207 1860 0
-2009 -2208 1861 0
-2009 -2209 1862 0
-2009 -2210 1863 0
-2009 -2211 1864 0
-2009 -2212 1865 0
-2009 -2213 1866 0
-2009 -2214 1867 0
-2009 -2215 1868 0
-2009 -2216 1869 0
-2009 -2217 1870 0
-2009 -2218 1871 0
-2009 -2219 1872 0
-2009 -2220 1873 0
-2009 -2221 1874 0
-2009 -2222 1875 0
-2009 -2223 1876 0
-2009 -2224 1877 0
-2009 -2225 1878 0
-2009 -2226 1879 0
-2009 -2227 1880 0
-2009 -2228 1881 0
-2009 -2229 1882 0
-2009 -2230 1883 0
-2009 -2231 1884 0
-2009 -2232 1885 0
-2009 -2233 1886 0
-2009 -2234 1887 0
-2009 -2235 1888 0
-2009 -2236 1889 0
-2009 -2237 1890 0
-2009 -2238 1891 0
-2009 -2239 1892 0
-2009 -2240 1893 0
-2010 -2125 1779 0
-2010 -2126 1780 0
-2010 -2127 1781 0
-2010 -2128 1782 0
-2010 -2129 1783 0
-2010 -2130 1784 0
-2010 -2131 1785 0
-2010 -2132 1786 0
-2010 -2133 1787 0
-2010 -2134 1788 0
-2010 -2135 1789 0
-2010 -2136 1790 0
-2010 -2137 1791 0
-2010 -2138 1792 0
-2010 -2139 1793 0
-2010 -2140 1794 0
-2010 -2141 1795 0
-2010 -2142 1796 0
-2010 -2143 1797 0
-2010 -2144 1798 0
-2010 -2145 1799 0
-2010 -2146 1800 0
-2010 -2147 1801 0
-2010 -2148 1802 0
-2010 -2149 1803 0
-2010 -2150 1804 0
-2010 -2151 1805 0
-2010 -2152 1806 0
-2010 -2153 1807 0
-2010 -2154 1808 0
-2010 -2155 1809 0
-2010 -2156 1810 0
-2010 -2157 1811 0
-2010 -2158 1812 0
-2010 -2159 1813 0
-2010 -2160 1814 0
-2010 -2161 1815 0
-2010 -2162 1816 0
-2010 -2163 1817 0
-2010 -2164 1818 0
-2010 -2165 1819 0
-2010 -2166 1820 0
-2010 -2167 1821 0
-2010 -2168 1822 0
-2010 -2169 1823 0
-2010 -2170 1824 0
-2010 -2171 1825 0
-2010 -2172 1826 0
-2010 -2173 1827 0
-2010 -2174 1828 0
-2010 -2175 1829 0
-2010 -2176 1830 0
-2010 -2177 1831 0
-2010 -2178 1832 0
-2010 -2179 1833 0
-2010 -2180 1834 0
-2010 -2181 1835 0
-2010 -2182 1836 0
-2010 -2183 1837 0
-2010 -2184 1838 0
-2010 -2185 1839 0
-2010 -2186 1840 0
-2010 -2187 1841 0
-2010 -2188 1842 0
-2010 -2189 1843 0
-2010 -2190 1844 0
-2010 -2191 1845 0
-2010 -2192 1846 0
-2010 -2193 1847 0
-2010 -2194 1848 0
-2010 -2195 1849 0
-2010 -2196 1850 0
-2010 -2197 1851 0
-2010 -2198 1852 0
-2010 -2199 1853 0
-2010 -2200 1854 0
-2010 -2201 1855 0
-2010 -2202 1856 0
-2010 -2203 1857 0
-2010 -2204 1858 0
-2010 -2205 1859 0
-2010 -2206 1860 0
-2010 -2207 1861 0
-2010 -2208 1862 0
-2010 -2209 1863 0
-2010 -2210 1864 0
-2010 -2211 1865 0
-2010 -2212 1866 0
-2010 -2213 1867 0
-2010 -2214 1868 0
-2010 -2215 1869 0
-2010 -2216 1870 0
-2010 -2217 1871 0
-2010 -2218 1872 0
-2010 -2219 1873 0
-2010 -2220 1874 0
-2010 -2221 1875 0
-2010 -2222 1876 0
-2010 -2223 1877 0
-2010 -2224 1878 0
-2010 -2225 1879 0
-2010 -2226 1880 0
-2010 -2227 1881 0
-2010 -2228 1882 0
-2010 -2229 1883 0
-2010 -2230 1884 0
-2010 -2231 1885 0
-2010 -2232 1886 0
-2010 -2233 1887 0
-2010 -2234 1888 0
-2010 -2235 1889 0
-2010 -2236 1890 0
-2010 -2237 1891 0
-2010 -2238 1892 0
-2010 -2239 1893 0
-2010 -2240 1894 0
-2011 -2125 1780 0
-2011 -2126 1781 0
-2011 -2127 1782 0
-2011 -2128 1783 0
-2011 -2129 1784 0
-2011 -2130 1785 0
-2011 -2131 1786 0
-2011 -2132 1787 0
-2011 -2133 1788 0
-2011 -2134 1789 0
-2011 -2135 1790 0
-2011 -2136 1791 0
-2011 -2137 1792 0
-2011 -2138 1793 0
-2011 -2139 1794 0
-2011 -2140 1795 0
-2011 -2141 1796 0
-2011 -2142 1797 0
-2011 -2143 1798 0
-2011 -2144 1799 0
-2011 -2145 1800 0
-2011 -2146 1801 0
-2011 -2147 1802 0
-2011 -2148 1803 0
-2011 -2149 1804 0
-2011 -2150 1805 0
-2011 -2151 1806 0
-2011 -2152 1807 0
-2011 -2153 1808 0
-2011 -2154 1809 0
-2011 -2155 1810 0
-2011 -2156 1811 0
-2011 -2157 1812 0
-2011 -2158 1813 0
-2011 -2159 1814 0
-2011 -2160 1815 0
-2011 -2161 1816 0
-2011 -2162 1817 0
-2011 -2163 1818 0
-2011 -2164 1819 0
-2011 -2165 1820 0
-2011 -2166 1821 0
-2011 -2167 1822 0
-2011 -2168 1823 0
-2011 -2169 1824 0
-2011 -2170 1825 0
-2011 -2171 1826 0
-2011 -2172 1827 0
-2011 -2173 1828 0
-2011 -2174 1829 0
-2011 -2175 1830 0
-2011 -2176 1831 0
-2011 -2177 1832 0
-2011 -2178 1833 0
-2011 -2179 1834 0
-2011 -2180 1835 0
-2011 -2181 1836 0
-2011 -2182 1837 0
-2011 -2183 1838 0
-2011 -2184 1839 0
-2011 -2185 1840 0
-2011 -2186 1841 0
-2011 -2187 1842 0
-2011 -2188 1843 0
-2011 -2189 1844 0
-2011 -2190 1845 0
-2011 -2191 1846 0
-2011 -2192 1847 0
-2011 -2193 1848 0
-2011 -2194 1849 0
-2011 -2195 1850 0
-2011 -2196 1851 0
-2011 -2197 1852 0
-2011 -2198 1853 0
-2011 -2199 1854 0
-2011 -2200 1855 0
-2011 -2201 1856 0
-2011 -2202 1857 0
-2011 -2203 1858 0
-2011 -2204 1859 0
-2011 -2205 1860 0
-2011 -2206 1861 0
-2011 -2207 1862 0
-2011 -2208 1863 0
-2011 -2209 1864 0
-2011 -2210 1865 0
-2011 -2211 1866 0
-2011 -2212 1867 0
-2011 -2213 1868 0
-2011 -2214 1869 0
-2011 -2215 1870 0
-2011 -2216 1871 0
-2011 -2217 1872 0
-2011 -2218 1873 0
-2011 -2219 1874 0
-2011 -2220 1875 0
-2011 -2221 1876 0
-2011 -2222 1877 0
-2011 -2223 1878 0
-2011 -2224 1879 0
-2011 -2225 1880 0
-2011 -2226 1881 0
-2011 -2227 1882 0
-2011 -2228 1883 0
-2011 -2229 1884 0
-2011 -2230 1885 0
-2011 -2231 1886 0
-2011 -2232 1887 0
-2011 -2233 1888 0
-2011 -2234 1889 0
-2011 -2235 1890 0
-2011 -2236 1891 0
-2011 -2237 1892 0
-2011 -2238 1893 0
-2011 -2239 1894 0
-2011 -2240 1895 0
-2012 -2125 1781 0
-2012 -2126 1782 0
-2012 -2127 1783 0
-2012 -2128 1784 0
-2012 -2129 1785 0
-2012 -2130 1786 0
-2012 -2131 1787 0
-2012 -2132 1788 0
-2012 -2133 1789 0
-2012 -2134 1790 0
-2012 -2135 1791 0
-2012 -2136 1792 0
-2012 -2137 1793 0
-2012 -2138 1794 0
-2012 -2139 1795 0
-2012 -2140 1796 0
-2012 -2141 1797 0
-2012 -2142 1798 0
-2012 -2143 1799 0
-2012 -2144 1800 0
-2012 -2145 1801 0
-2012 -2146 1802 0
-2012 -2147 1803 0
-2012 -2148 1804 0
-2012 -2149 1805 0
-2012 -2150 1806 0
-2012 -2151 1807 0
-2012 -2152 1808 0
-2012 -2153 1809 0
-2012 -2154 1810 0
-2012 -2155 1811 0
-2012 -2156 1812 0
-2012 -2157 1813 0
-2012 -2158 1814 0
-2012 -2159 1815 0
-2012 -2160 1816 0
-2012 -2161 1817 0
-2012 -2162 1818 0
-2012 -2163 1819 0
-2012 -2164 1820 0
-2012 -2165 1821 0
-2012 -2166 1822 0
-2012 -2167 1823 0
-2012 -2168 1824 0
-2012 -2169 1825 0
-2012 -2170 1826 0
-2012 -2171 1827 0
-2012 -2172 1828 0
-2012 -2173 1829 0
-2012 -2174 1830 0
-2012 -2175 1831 0
-2012 -2176 1832 0
-2012 -2177 1833 0
-2012 -2178 1834 0
-2012 -2179 1835 0
-2012 -2180 1836 0
-2012 -2181 1837 0
-2012 -2182 1838 0
-2012 -2183 1839 0
-2012 -2184 1840 0
-2012 -2185 1841 0
-2012 -2186 1842 0
-2012 -2187 1843 0
-2012 -2188 1844 0
-2012 -2189 1845 0
-2012 -2190 1846 0
-2012 -2191 1847 0
-2012 -2192 1848 0
-2012 -2193 1849 0
-2012 -2194 1850 0
-2012 -2195 1851 0
-2012 -2196 1852 0
-2012 -2197 1853 0
-2012 -2198 1854 0
-2012 -2199 1855 0
-2012 -2200 1856 0
-2012 -2201 1857 0
-2012 -2202 1858 0
-2012 -2203 1859 0
-2012 -2204 1860 0
-2012 -2205 1861 0
-2012 -2206 1862 0
-2012 -2207 1863 0
-2012 -2208 1864 0
-2012 -2209 1865 0
-2012 -2210 1866 0
-2012 -2211 1867 0
-2012 -2212 1868 0
-2012 -2213 1869 0
-2012 -2214 1870 0
-2012 -2215 1871 0
-2012 -2216 1872 0
-2012 -2217 1873 0
-2012 -2218 1874 0
-2012 -2219 1875 0
-2012 -2220 1876 0
-2012 -2221 1877 0
-2012 -2222 1878 0
-2012 -2223 1879 0
-2012 -2224 1880 0
-2012 -2225 1881 0
-2012 -2226 1882 0
-2012 -2227 1883 0
-2012 -2228 1884 0
-2012 -2229 1885 0
-2012 -2230 1886 0
-2012 -2231 1887 0
-2012 -2232 1888 0
-2012 -2233 1889 0
-2012 -2234 1890 0
-2012 -2235 1891 0
-2012 -2236 1892 0
-2012 -2237 1893 0
-2012 -2238 1894 0
-2012 -2239 1895 0
-2012 -2240 1896 0
-2013 -2125 1782 0
-2013 -2126 1783 0
-2013 -2127 1784 0
-2013 -2128 1785 0
-2013 -2129 1786 0
-2013 -2130 1787 0
-2013 -2131 1788 0
-2013 -2132 1789 0
-2013 -2133 1790 0
-2013 -2134 1791 0
-2013 -2135 1792 0
-2013 -2136 1793 0
-2013 -2137 1794 0
-2013 -2138 1795 0
-2013 -2139 1796 0
-2013 -2140 1797 0
-2013 -2141 1798 0
-2013 -2142 1799 0
-2013 -2143 1800 0
-2013 -2144 1801 0
-2013 -2145 1802 0
-2013 -2146 1803 0
-2013 -2147 1804 0
-2013 -2148 1805 0
-2013 -2149 1806 0
-2013 -2150 1807 0
-2013 -2151 1808 0
-2013 -2152 1809 0
-2013 -2153 1810 0
-2013 -2154 1811 0
-2013 -2155 1812 0
-2013 -2156 1813 0
-2013 -2157 1814 0
-2013 -2158 1815 0
-2013 -2159 1816 0
-2013 -2160 1817 0
-2013 -2161 1818 0
-2013 -2162 1819 0
-2013 -2163 1820 0
-2013 -2164 1821 0
-2013 -2165 1822 0
-2013 -2166 1823 0
-2013 -2167 1824 0
-2013 -2168 1825 0
-2013 -2169 1826 0
-2013 -2170 1827 0
-2013 -2171 1828 0
-2013 -2172 1829 0
-2013 -2173 1830 0
-2013 -2174 1831 0
-2013 -2175 1832 0
-2013 -2176 1833 0
-2013 -2177 1834 0
-2013 -2178 1835 0
-2013 -2179 1836 0
-2013 -2180 1837 0
-2013 -2181 1838 0
-2013 -2182 1839 0
-2013 -2183 1840 0
-2013 -2184 1841 0
-2013 -2185 1842 0
-2013 -2186 1843 0
-2013 -2187 1844 0
-2013 -2188 1845 0
-2013 -2189 1846 0
-2013 -2190 1847 0
-2013 -2191 1848 0
-2013 -2192 1849 0
-2013 -2193 1850 0
-2013 -2194 1851 0
-2013 -2195 1852 0
-2013 -2196 1853 0
-2013 -2197 1854 0
-2013 -2198 1855 0
-2013 -2199 1856 0
-2013 -2200 1857 0
-2013 -2201 1858 0
-2013 -2202 1859 0
-2013 -2203 1860 0
-2013 -2204 1861 0
-2013 -2205 1862 0
-2013 -2206 1863 0
-2013 -2207 1864 0
-2013 -2208 1865 0
-2013 -2209 1866 0
-2013 -2210 1867 0
-2013 -2211 1868 0
-2013 -2212 1869 0
-2013 -2213 1870 0
-2013 -2214 1871 0
-2013 -2215 1872 0
-2013 -2216 1873 0
-2013 -2217 1874 0
-2013 -2218 1875 0
-2013 -2219 1876 0
-2013 -2220 1877 0
-2013 -2221 1878 0
-2013 -2222 1879 0
-2013 -2223 1880 0
-2013 -2224 1881 0
-2013 -2225 1882 0
-2013 -2226 1883 0
-2013 -2227 1884 0
-2013 -2228 1885 0
-2013 -2229 1886 0
-2013 -2230 1887 0
-2013 -2231 1888 0
-2013 -2232 1889 0
-2013 -2233 1890 0
-2013 -2234 1891 0
-2013 -2235 1892 0
-2013 -2236 1893 0
-2013 -2237 1894 0
-2013 -2238 1895 0
-2013 -2239 1896 0
-2013 -2240 1897 0
-2014 -2125 1783 0
-2014 -2126 1784 0
-2014 -2127 1785 0
-2014 -2128 1786 0
-2014 -2129 1787 0
-2014 -2130 1788 0
-2014 -2131 1789 0
-2014 -2132 1790 0
-2014 -2133 1791 0
-2014 -2134 1792 0
-2014 -2135 1793 0
-2014 -2136 1794 0
-2014 -2137 1795 0
-2014 -2138 1796 0
-2014 -2139 1797 0
-2014 -2140 1798 0
-2014 -2141 1799 0
-2014 -2142 1800 0
-2014 -2143 1801 0
-2014 -2144 1802 0
-2014 -2145 1803 0
-2014 -2146 1804 0
-2014 -2147 1805 0
-2014 -2148 1806 0
-2014 -2149 1807 0
-2014 -2150 1808 0
-2014 -2151 1809 0
-2014 -2152 1810 0
-2014 -2153 1811 0
-2014 -2154 1812 0
-2014 -2155 1813 0
-2014 -2156 1814 0
-2014 -2157 1815 0
-2014 -2158 1816 0
-2014 -2159 1817 0
-2014 -2160 1818 0
-2014 -2161 1819 0
-2014 -2162 1820 0
-2014 -2163 1821 0
-2014 -2164 1822 0
-2014 -2165 1823 0
-2014 -2166 1824 0
-2014 -2167 1825 0
-2014 -2168 1826 0
-2014 -2169 1827 0
-2014 -2170 1828 0
-2014 -2171 1829 0
-2014 -2172 1830 0
-2014 -2173 1831 0
-2014 -2174 1832 0
-2014 -2175 1833 0
-2014 -2176 1834 0
-2014 -2177 1835 0
-2014 -2178 1836 0
-2014 -2179 1837 0
-2014 -2180 1838 0
-2014 -2181 1839 0
-2014 -2182 1840 0
-2014 -2183 1841 0
-2014 -2184 1842 0
-2014 -2185 1843 0
-2014 -2186 1844 0
-2014 -2187 1845 0
-2014 -2188 1846 0
-2014 -2189 1847 0
-2014 -2190 1848 0
-2014 -2191 1849 0
-2014 -2192 1850 0
-2014 -2193 1851 0
-2014 -2194 1852 0
-2014 -2195 1853 0
-2014 -2196 1854 0
-2014 -2197 1855 0
-2014 -2198 1856 0
-2014 -2199 1857 0
-2014 -2200 1858 0
-2014 -2201 1859 0
-2014 -2202 1860 0
-2014 -2203 1861 0
-2014 -2204 1862 0
-2014 -2205 1863 0
-2014 -2206 1864 0
-2014 -2207 1865 0
-2014 -2208 1866 0
-2014 -2209 1867 0
-2014 -2210 1868 0
-2014 -2211 1869 0
-2014 -2212 1870 0
-2014 -2213 1871 0
-2014 -2214 1872 0
-2014 -2215 1873 0
-2014 -2216 1874 0
-2014 -2217 1875 0
-2014 -2218 1876 0
-2014 -2219 1877 0
-2014 -2220 1878 0
-2014 -2221 1879 0
-2014 -2222 1880 0
-2014 -2223 1881 0
-2014 -2224 1882 0
-2014 -2225 1883 0
-2014 -2226 1884 0
-2014 -2227 1885 0
-2014 -2228 1886 0
-2014 -2229 1887 0
-2014 -2230 1888 0
-2014 -2231 1889 0
-2014 -2232 1890 0
-2014 -2233 1891 0
-2014 -2234 1892 0
-2014 -2235 1893 0
-2014 -2236 1894 0
-2014 -2237 1895 0
-2014 -2238 1896 0
-2014 -2239 1897 0
-2014 -2240 1898 0
-2015 -2125 1784 0
-2015 -2126 1785 0
-2015 -2127 1786 0
-2015 -2128 1787 0
-2015 -2129 1788 0
-2015 -2130 1789 0
-2015 -2131 1790 0
-2015 -2132 1791 0
-2015 -2133 1792 0
-2015 -2134 1793 0
-2015 -2135 1794 0
-2015 -2136 1795 0
-2015 -2137 1796 0
-2015 -2138 1797 0
-2015 -2139 1798 0
-2015 -2140 1799 0
-2015 -2141 1800 0
-2015 -2142 1801 0
-2015 -2143 1802 0
-2015 -2144 1803 0
-2015 -2145 1804 0
-2015 -2146 1805 0
-2015 -2147 1806 0
-2015 -2148 1807 0
-2015 -2149 1808 0
-2015 -2150 1809 0
-2015 -2151 1810 0
-2015 -2152 1811 0
-2015 -2153 1812 0
-2015 -2154 1813 0
-2015 -2155 1814 0
-2015 -2156 1815 0
-2015 -2157 1816 0
-2015 -2158 1817 0
-2015 -2159 1818 0
-2015 -2160 1819 0
-2015 -2161 1820 0
-2015 -2162 1821 0
-2015 -2163 1822 0
-2015 -2164 1823 0
-2015 -2165 1824 0
-2015 -2166 1825 0
-2015 -2167 1826 0
-2015 -2168 1827 0
-2015 -2169 1828 0
-2015 -2170 1829 0
-2015 -2171 1830 0
-2015 -2172 1831 0
-2015 -2173 1832 0
-2015 -2174 1833 0
-2015 -2175 1834 0
-2015 -2176 1835 0
-2015 -2177 1836 0
-2015 -2178 1837 0
-2015 -2179 1838 0
-2015 -2180 1839 0
-2015 -2181 1840 0
-2015 -2182 1841 0
-2015 -2183 1842 0
-2015 -2184 1843 0
-2015 -2185 1844 0
-2015 -2186 1845 0
-2015 -2187 1846 0
-2015 -2188 1847 0
-2015 -2189 1848 0
-2015 -2190 1849 0
-2015 -2191 1850 0
-2015 -2192 1851 0
-2015 -2193 1852 0
-2015 -2194 1853 0
-2015 -2195 1854 0
-2015 -2196 1855 0
-2015 -2197 1856 0
-2015 -2198 1857 0
-2015 -2199 1858 0
-2015 -2200 1859 0
-2015 -2201 1860 0
-2015 -2202 1861 0
-2015 -2203 1862 0
-2015 -2204 1863 0
-2015 -2205 1864 0
-2015 -2206 1865 0
-2015 -2207 1866 0
-2015 -2208 1867 0
-2015 -2209 1868 0
-2015 -2210 1869 0
-2015 -2211 1870 0
-2015 -2212 1871 0
-2015 -2213 1872 0
-2015 -2214 1873 0
-2015 -2215 1874 0
-2015 -2216 1875 0
-2015 -2217 1876 0
-2015 -2218 1877 0
-2015 -2219 1878 0
-2015 -2220 1879 0
-2015 -2221 1880 0
-2015 -2222 1881 0
-2015 -2223 1882 0
-2015 -2224 1883 0
-2015 -2225 1884 0
-2015 -2226 1885 0
-2015 -2227 1886 0
-2015 -2228 1887 0
-2015 -2229 1888 0
-2015 -2230 1889 0
-2015 -2231 1890 0
-2015 -2232 1891 0
-2015 -2233 1892 0
-2015 -2234 1893 0
-2015 -2235 1894 0
-2015 -2236 1895 0
-2015 -2237 1896 0
-2015 -2238 1897 0
-2015 -2239 1898 0
-2015 -2240 1899 0
-2016 -2125 1785 0
-2016 -2126 1786 0
-2016 -2127 1787 0
-2016 -2128 1788 0
-2016 -2129 1789 0
-2016 -2130 1790 0
-2016 -2131 1791 0
-2016 -2132 1792 0
-2016 -2133 1793 0
-2016 -2134 1794 0
-2016 -2135 1795 0
-2016 -2136 1796 0
-2016 -2137 1797 0
-2016 -2138 1798 0
-2016 -2139 1799 0
-2016 -2140 1800 0
-2016 -2141 1801 0
-2016 -2142 1802 0
-2016 -2143 1803 0
-2016 -2144 1804 0
-2016 -2145 1805 0
-2016 -2146 1806 0
-2016 -2147 1807 0
-2016 -2148 1808 0
-2016 -2149 1809 0
-2016 -2150 1810 0
-2016 -2151 1811 0
-2016 -2152 1812 0
-2016 -2153 1813 0
-2016 -2154 1814 0
-2016 -2155 1815 0
-2016 -2156 1816 0
-2016 -2157 1817 0
-2016 -2158 1818 0
-2016 -2159 1819 0
-2016 -2160 1820 0
-2016 -2161 1821 0
-2016 -2162 1822 0
-2016 -2163 1823 0
-2016 -2164 1824 0
-2016 -2165 1825 0
-2016 -2166 1826 0
-2016 -2167 1827 0
-2016 -2168 1828 0
-2016 -2169 1829 0
-2016 -2170 1830 0
-2016 -2171 1831 0
-2016 -2172 1832 0
-2016 -2173 1833 0
-2016 -2174 1834 0
-2016 -2175 1835 0
-2016 -2176 1836 0
-2016 -2177 1837 0
-2016 -2178 1838 0
-2016 -2179 1839 0
-2016 -2180 1840 0
-2016 -2181 1841 0
-2016 -2182 1842 0
-2016 -2183 1843 0
-2016 -2184 1844 0
-2016 -2185 1845 0
-2016 -2186 1846 0
-2016 -2187 1847 0
-2016 -2188 1848 0
-2016 -2189 1849 0
-2016 -2190 1850 0
-2016 -2191 1851 0
-2016 -2192 1852 0
-2016 -2193 1853 0
-2016 -2194 1854 0
-2016 -2195 1855 0
-2016 -2196 1856 0
-2016 -2197 1857 0
-2016 -2198 1858 0
-2016 -2199 1859 0
-2016 -2200 1860 0
-2016 -2201 1861 0
-2016 -2202 1862 0
-2016 -2203 1863 0
-2016 -2204 1864 0
-2016 -2205 1865 0
-2016 -2206 1866 0
-2016 -2207 1867 0
-2016 -2208 1868 0
-2016 -2209 1869 0
-2016 -2210 1870 0
-2016 -2211 1871 0
-2016 -2212 1872 0
-2016 -2213 1873 0
-2016 -2214 1874 0
-2016 -2215 1875 0
-2016 -2216 1876 0
-2016 -2217 1877 0
-2016 -2218 1878 0
-2016 -2219 1879 0
-2016 -2220 1880 0
-2016 -2221 1881 0
-2016 -2222 1882 0
-2016 -2223 1883 0
-2016 -2224 1884 0
-2016 -2225 1885 0
-2016 -2226 1886 0
-2016 -2227 1887 0
-2016 -2228 1888 0
-2016 -2229 1889 0
-2016 -2230 1890 0
-2016 -2231 1891 0
-2016 -2232 1892 0
-2016 -2233 1893 0
-2016 -2234 1894 0
-2016 -2235 1895 0
-2016 -2236 1896 0
-2016 -2237 1897 0
-2016 -2238 1898 0
-2016 -2239 1899 0
-2016 -2240 1900 0
-2017 -2125 1786 0
-2017 -2126 1787 0
-2017 -2127 1788 0
-2017 -2128 1789 0
-2017 -2129 1790 0
-2017 -2130 1791 0
-2017 -2131 1792 0
-2017 -2132 1793 0
-2017 -2133 1794 0
-2017 -2134 1795 0
-2017 -2135 1796 0
-2017 -2136 1797 0
-2017 -2137 1798 0
-2017 -2138 1799 0
-2017 -2139 1800 0
-2017 -2140 1801 0
-2017 -2141 1802 0
-2017 -2142 1803 0
-2017 -2143 1804 0
-2017 -2144 1805 0
-2017 -2145 1806 0
-2017 -2146 1807 0
-2017 -2147 1808 0
-2017 -2148 1809 0
-2017 -2149 1810 0
-2017 -2150 1811 0
-2017 -2151 1812 0
-2017 -2152 1813 0
-2017 -2153 1814 0
-2017 -2154 1815 0
-2017 -2155 1816 0
-2017 -2156 1817 0
-2017 -2157 1818 0
-2017 -2158 1819 0
-2017 -2159 1820 0
-2017 -2160 1821 0
-2017 -2161 1822 0
-2017 -2162 1823 0
-2017 -2163 1824 0
-2017 -2164 1825 0
-2017 -2165 1826 0
-2017 -2166 1827 0
-2017 -2167 1828 0
-2017 -2168 1829 0
-2017 -2169 1830 0
-2017 -2170 1831 0
-2017 -2171 1832 0
-2017 -2172 1833 0
-2017 -2173 1834 0
-2017 -2174 1835 0
-2017 -2175 1836 0
-2017 -2176 1837 0
-2017 -2177 1838 0
-2017 -2178 1839 0
-2017 -2179 1840 0
-2017 -2180 1841 0
-2017 -2181 1842 0
-2017 -2182 1843 0
-2017 -2183 1844 0
-2017 -2184 1845 0
-2017 -2185 1846 0
-2017 -2186 1847 0
-2017 -2187 1848 0
-2017 -2188 1849 0
-2017 -2189 1850 0
-2017 -2190 1851 0
-2017 -2191 1852 0
-2017 -2192 1853 0
-2017 -2193 1854 0
-2017 -2194 1855 0
-2017 -2195 1856 0
-2017 -2196 1857 0
-2017 -2197 1858 0
-2017 -2198 1859 0
-2017 -2199 1860 0
-2017 -2200 1861 0
-2017 -2201 1862 0
-2017 -2202 1863 0
-2017 -2203 1864 0
-2017 -2204 1865 0
-2017 -2205 1866 0
-2017 -2206 1867 0
-2017 -2207 1868 0
-2017 -2208 1869 0
-2017 -2209 1870 0
-2017 -2210 1871 0
-2017 -2211 1872 0
-2017 -2212 1873 0
-2017 -2213 1874 0
-2017 -2214 1875 0
-2017 -2215 1876 0
-2017 -2216 1877 0
-2017 -2217 1878 0
-2017 -2218 1879 0
-2017 -2219 1880 0
-2017 -2220 1881 0
-2017 -2221 1882 0
-2017 -2222 1883 0
-2017 -2223 1884 0
-2017 -2224 1885 0
-2017 -2225 1886 0
-2017 -2226 1887 0
-2017 -2227 1888 0
-2017 -2228 1889 0
-2017 -2229 1890 0
-2017 -2230 1891 0
-2017 -2231 1892 0
-2017 -2232 1893 0
-2017 -2233 1894 0
-2017 -2234 1895 0
-2017 -2235 1896 0
-2017 -2236 1897 0
-2017 -2237 1898 0
-2017 -2238 1899 0
-2017 -2239 1900 0
-2017 -2240 1901 0
-2018 -2125 1787 0
-2018 -2126 1788 0
-2018 -2127 1789 0
-2018 -2128 1790 0
-2018 -2129 1791 0
-2018 -2130 1792 0
-2018 -2131 1793 0
-2018 -2132 1794 0
-2018 -2133 1795 0
-2018 -2134 1796 0
-2018 -2135 1797 0
-2018 -2136 1798 0
-2018 -2137 1799 0
-2018 -2138 1800 0
-2018 -2139 1801 0
-2018 -2140 1802 0
-2018 -2141 1803 0
-2018 -2142 1804 0
-2018 -2143 1805 0
-2018 -2144 1806 0
-2018 -2145 1807 0
-2018 -2146 1808 0
-2018 -2147 1809 0
-2018 -2148 1810 0
-2018 -2149 1811 0
-2018 -2150 1812 0
-2018 -2151 1813 0
-2018 -2152 1814 0
-2018 -2153 1815 0
-2018 -2154 1816 0
-2018 -2155 1817 0
-2018 -2156 1818 0
-2018 -2157 1819 0
-2018 -2158 1820 0
-2018 -2159 1821 0
-2018 -2160 1822 0
-2018 -2161 1823 0
-2018 -2162 1824 0
-2018 -2163 1825 0
-2018 -2164 1826 0
-2018 -2165 1827 0
-2018 -2166 1828 0
-2018 -2167 1829 0
-2018 -2168 1830 0
-2018 -2169 1831 0
-2018 -2170 1832 0
-2018 -2171 1833 0
-2018 -2172 1834 0
-2018 -2173 1835 0
-2018 -2174 1836 0
-2018 -2175 1837 0
-2018 -2176 1838 0
-2018 -2177 1839 0
-2018 -2178 1840 0
-2018 -2179 1841 0
-2018 -2180 1842 0
-2018 -2181 1843 0
-2018 -2182 1844 0
-2018 -2183 1845 0
-2018 -2184 1846 0
-2018 -2185 1847 0
-2018 -2186 1848 0
-2018 -2187 1849 0
-2018 -2188 1850 0
-2018 -2189 1851 0
-2018 -2190 1852 0
-2018 -2191 1853 0
-2018 -2192 1854 0
-2018 -2193 1855 0
-2018 -2194 1856 0
-2018 -2195 1857 0
-2018 -2196 1858 0
-2018 -2197 1859 0
-2018 -2198 1860 0
-2018 -2199 1861 0
-2018 -2200 1862 0
-2018 -2201 1863 0
-2018 -2202 1864 0
-2018 -2203 1865 0
-2018 -2204 1866 0
-2018 -2205 1867 0
-2018 -2206 1868 0
-2018 -2207 1869 0
-2018 -2208 1870 0
-2018 -2209 1871 0
-2018 -2210 1872 0
-2018 -2211 1873 0
-2018 -2212 1874 0
-2018 -2213 1875 0
-2018 -2214 1876 0
-2018 -2215 1877 0
-2018 -2216 1878 0
-2018 -2217 1879 0
-2018 -2218 1880 0
-2018 -2219 1881 0
-2018 -2220 1882 0
-2018 -2221 1883 0
-2018 -2222 1884 0
-2018 -2223 1885 0
-2018 -2224 1886 0
-2018 -2225 1887 0
-2018 -2226 1888 0
-2018 -2227 1889 0
-2018 -2228 1890 0
-2018 -2229 1891 0
-2018 -2230 1892 0
-2018 -2231 1893 0
-2018 -2232 1894 0
-2018 -2233 1895 0
-2018 -2234 1896 0
-2018 -2235 1897 0
-2018 -2236 1898 0
-2018 -2237 1899 0
-2018 -2238 1900 0
-2018 -2239 1901 0
-2018 -2240 1902 0
-2019 -2125 1788 0
-2019 -2126 1789 0
-2019 -2127 1790 0
-2019 -2128 1791 0
-2019 -2129 1792 0
-2019 -2130 1793 0
-2019 -2131 1794 0
-2019 -2132 1795 0
-2019 -2133 1796 0
-2019 -2134 1797 0
-2019 -2135 1798 0
-2019 -2136 1799 0
-2019 -2137 1800 0
-2019 -2138 1801 0
-2019 -2139 1802 0
-2019 -2140 1803 0
-2019 -2141 1804 0
-2019 -2142 1805 0
-2019 -2143 1806 0
-2019 -2144 1807 0
-2019 -2145 1808 0
-2019 -2146 1809 0
-2019 -2147 1810 0
-2019 -2148 1811 0
-2019 -2149 1812 0
-2019 -2150 1813 0
-2019 -2151 1814 0
-2019 -2152 1815 0
-2019 -2153 1816 0
-2019 -2154 1817 0
-2019 -2155 1818 0
-2019 -2156 1819 0
-2019 -2157 1820 0
-2019 -2158 1821 0
-2019 -2159 1822 0
-2019 -2160 1823 0
-2019 -2161 1824 0
-2019 -2162 1825 0
-2019 -2163 1826 0
-2019 -2164 1827 0
-2019 -2165 1828 0
-2019 -2166 1829 0
-2019 -2167 1830 0
-2019 -2168 1831 0
-2019 -2169 1832 0
-2019 -2170 1833 0
-2019 -2171 1834 0
-2019 -2172 1835 0
-2019 -2173 1836 0
-2019 -2174 1837 0
-2019 -2175 1838 0
-2019 -2176 1839 0
-2019 -2177 1840 0
-2019 -2178 1841 0
-2019 -2179 1842 0
-2019 -2180 1843 0
-2019 -2181 1844 0
-2019 -2182 1845 0
-2019 -2183 1846 0
-2019 -2184 1847 0
-2019 -2185 1848 0
-2019 -2186 1849 0
-2019 -2187 1850 0
-2019 -2188 1851 0
-2019 -2189 1852 0
-2019 -2190 1853 0
-2019 -2191 1854 0
-2019 -2192 1855 0
-2019 -2193 1856 0
-2019 -2194 1857 0
-2019 -2195 1858 0
-2019 -2196 1859 0
-2019 -2197 1860 0
-2019 -2198 1861 0
-2019 -2199 1862 0
-2019 -2200 1863 0
-2019 -2201 1864 0
-2019 -2202 1865 0
-2019 -2203 1866 0
-2019 -2204 1867 0
-2019 -2205 1868 0
-2019 -2206 1869 0
-2019 -2207 1870 0
-2019 -2208 1871 0
-2019 -2209 1872 0
-2019 -2210 1873 0
-2019 -2211 1874 0
-2019 -2212 1875 0
-2019 -2213 1876 0
-2019 -2214 1877 0
-2019 -2215 1878 0
-2019 -2216 1879 0
-2019 -2217 1880 0
-2019 -2218 1881 0
-2019 -2219 1882 0
-2019 -2220 1883 0
-2019 -2221 1884 0
-2019 -2222 1885 0
-2019 -2223 1886 0
-2019 -2224 1887 0
-2019 -2225 1888 0
-2019 -2226 1889 0
-2019 -2227 1890 0
-2019 -2228 1891 0
-2019 -2229 1892 0
-2019 -2230 1893 0
-2019 -2231 1894 0
-2019 -2232 1895 0
-2019 -2233 1896 0
-2019 -2234 1897 0
-2019 -2235 1898 0
-2019 -2236 1899 0
-2019 -2237 1900 0
-2019 -2238 1901 0
-2019 -2239 1902 0
-2019 -2240 1903 0
-2020 -2125 1789 0
-2020 -2126 1790 0
-2020 -2127 1791 0
-2020 -2128 1792 0
-2020 -2129 1793 0
-2020 -2130 1794 0
-2020 -2131 1795 0
-2020 -2132 1796 0
-2020 -2133 1797 0
-2020 -2134 1798 0
-2020 -2135 1799 0
-2020 -2136 1800 0
-2020 -2137 1801 0
-2020 -2138 1802 0
-2020 -2139 1803 0
-2020 -2140 1804 0
-2020 -2141 1805 0
-2020 -2142 1806 0
-2020 -2143 1807 0
-2020 -2144 1808 0
-2020 -2145 1809 0
-2020 -2146 1810 0
-2020 -2147 1811 0
-2020 -2148 1812 0
-2020 -2149 1813 0
-2020 -2150 1814 0
-2020 -2151 1815 0
-2020 -2152 1816 0
-2020 -2153 1817 0
-2020 -2154 1818 0
-2020 -2155 1819 0
-2020 -2156 1820 0
-2020 -2157 1821 0
-2020 -2158 1822 0
-2020 -2159 1823 0
-2020 -2160 1824 0
-2020 -2161 1825 0
-2020 -2162 1826 0
-2020 -2163 1827 0
-2020 -2164 1828 0
-2020 -2165 1829 0
-2020 -2166 1830 0
-2020 -2167 1831 0
-2020 -2168 1832 0
-2020 -2169 1833 0
-2020 -2170 1834 0
-2020 -2171 1835 0
-2020 -2172 1836 0
-2020 -2173 1837 0
-2020 -2174 1838 0
-2020 -2175 1839 0
-2020 -2176 1840 0
-2020 -2177 1841 0
-2020 -2178 1842 0
-2020 -2179 1843 0
-2020 -2180 1844 0
-2020 -2181 1845 0
-2020 -2182 1846 0
-2020 -2183 1847 0
-2020 -2184 1848 0
-2020 -2185 1849 0
-2020 -2186 1850 0
-2020 -2187 1851 0
-2020 -2188 1852 0
-2020 -2189 1853 0
-2020 -2190 1854 0
-2020 -2191 1855 0
-2020 -2192 1856 0
-2020 -2193 1857 0
-2020 -2194 1858 0
-2020 -2195 1859 0
-2020 -2196 1860 0
-2020 -2197 1861 0
-2020 -2198 1862 0
-2020 -2199 1863 0
-2020 -2200 1864 0
-2020 -2201 1865 0
-2020 -2202 1866 0
-2020 -2203 1867 0
-2020 -2204 1868 0
-2020 -2205 1869 0
-2020 -2206 1870 0
-2020 -2207 1871 0
-2020 -2208 1872 0
-2020 -2209 1873 0
-2020 -2210 1874 0
-2020 -2211 1875 0
-2020 -2212 1876 0
-2020 -2213 1877 0
-2020 -2214 1878 0
-2020 -2215 1879 0
-2020 -2216 1880 0
-2020 -2217 1881 0
-2020 -2218 1882 0
-2020 -2219 1883 0
-2020 -2220 1884 0
-2020 -2221 1885 0
-2020 -2222 1886 0
-2020 -2223 1887 0
-2020 -2224 1888 0
-2020 -2225 1889 0
-2020 -2226 1890 0
-2020 -2227 1891 0
-2020 -2228 1892 0
-2020 -2229 1893 0
-2020 -2230 1894 0
-2020 -2231 1895 0
-2020 -2232 1896 0
-2020 -2233 1897 0
-2020 -2234 1898 0
-2020 -2235 1899 0
-2020 -2236 1900 0
-2020 -2237 1901 0
-2020 -2238 1902 0
-2020 -2239 1903 0
-2020 -2240 1904 0
-2021 -2125 1790 0
-2021 -2126 1791 0
-2021 -2127 1792 0
-2021 -2128 1793 0
-2021 -2129 1794 0
-2021 -2130 1795 0
-2021 -2131 1796 0
-2021 -2132 1797 0
-2021 -2133 1798 0
-2021 -2134 1799 0
-2021 -2135 1800 0
-2021 -2136 1801 0
-2021 -2137 1802 0
-2021 -2138 1803 0
-2021 -2139 1804 0
-2021 -2140 1805 0
-2021 -2141 1806 0
-2021 -2142 1807 0
-2021 -2143 1808 0
-2021 -2144 1809 0
-2021 -2145 1810 0
-2021 -2146 1811 0
-2021 -2147 1812 0
-2021 -2148 1813 0
-2021 -2149 1814 0
-2021 -2150 1815 0
-2021 -2151 1816 0
-2021 -2152 1817 0
-2021 -2153 1818 0
-2021 -2154 1819 0
-2021 -2155 1820 0
-2021 -2156 1821 0
-2021 -2157 1822 0
-2021 -2158 1823 0
-2021 -2159 1824 0
-2021 -2160 1825 0
-2021 -2161 1826 0
-2021 -2162 1827 0
-2021 -2163 1828 0
-2021 -2164 1829 0
-2021 -2165 1830 0
-2021 -2166 1831 0
-2021 -2167 1832 0
-2021 -2168 1833 0
-2021 -2169 1834 0
-2021 -2170 1835 0
-2021 -2171 1836 0
-2021 -2172 1837 0
-2021 -2173 1838 0
-2021 -2174 1839 0
-2021 -2175 1840 0
-2021 -2176 1841 0
-2021 -2177 1842 0
-2021 -2178 1843 0
-2021 -2179 1844 0
-2021 -2180 1845 0
-2021 -2181 1846 0
-2021 -2182 1847 0
-2021 -2183 1848 0
-2021 -2184 1849 0
-2021 -2185 1850 0
-2021 -2186 1851 0
-2021 -2187 1852 0
-2021 -2188 1853 0
-2021 -2189 1854 0
-2021 -2190 1855 0
-2021 -2191 1856 0
-2021 -2192 1857 0
-2021 -2193 1858 0
-2021 -2194 1859 0
-2021 -2195 1860 0
-2021 -2196 1861 0
-2021 -2197 1862 0
-2021 -2198 1863 0
-2021 -2199 1864 0
-2021 -2200 1865 0
-2021 -2201 1866 0
-2021 -2202 1867 0
-2021 -2203 1868 0
-2021 -2204 1869 0
-2021 -2205 1870 0
-2021 -2206 1871 0
-2021 -2207 1872 0
-2021 -2208 1873 0
-2021 -2209 1874 0
-2021 -2210 1875 0
-2021 -2211 1876 0
-2021 -2212 1877 0
-2021 -2213 1878 0
-2021 -2214 1879 0
-2021 -2215 1880 0
-2021 -2216 1881 0
-2021 -2217 1882 0
-2021 -2218 1883 0
-2021 -2219 1884 0
-2021 -2220 1885 0
-2021 -2221 1886 0
-2021 -2222 1887 0
-2021 -2223 1888 0
-2021 -2224 1889 0
-2021 -2225 1890 0
-2021 -2226 1891 0
-2021 -2227 1892 0
-2021 -2228 1893 0
-2021 -2229 1894 0
-2021 -2230 1895 0
-2021 -2231 1896 0
-2021 -2232 1897 0
-2021 -2233 1898 0
-2021 -2234 1899 0
-2021 -2235 1900 0
-2021 -2236 1901 0
-2021 -2237 1902 0
-2021 -2238 1903 0
-2021 -2239 1904 0
-2021 -2240 1905 0
-2022 -2125 1791 0
-2022 -2126 1792 0
-2022 -2127 1793 0
-2022 -2128 1794 0
-2022 -2129 1795 0
-2022 -2130 1796 0
-2022 -2131 1797 0
-2022 -2132 1798 0
-2022 -2133 1799 0
-2022 -2134 1800 0
-2022 -2135 1801 0
-2022 -2136 1802 0
-2022 -2137 1803 0
-2022 -2138 1804 0
-2022 -2139 1805 0
-2022 -2140 1806 0
-2022 -2141 1807 0
-2022 -2142 1808 0
-2022 -2143 1809 0
-2022 -2144 1810 0
-2022 -2145 1811 0
-2022 -2146 1812 0
-2022 -2147 1813 0
-2022 -2148 1814 0
-2022 -2149 1815 0
-2022 -2150 1816 0
-2022 -2151 1817 0
-2022 -2152 1818 0
-2022 -2153 1819 0
-2022 -2154 1820 0
-2022 -2155 1821 0
-2022 -2156 1822 0
-2022 -2157 1823 0
-2022 -2158 1824 0
-2022 -2159 1825 0
-2022 -2160 1826 0
-2022 -2161 1827 0
-2022 -2162 1828 0
-2022 -2163 1829 0
-2022 -2164 1830 0
-2022 -2165 1831 0
-2022 -2166 1832 0
-2022 -2167 1833 0
-2022 -2168 1834 0
-2022 -2169 1835 0
-2022 -2170 1836 0
-2022 -2171 1837 0
-2022 -2172 1838 0
-2022 -2173 1839 0
-2022 -2174 1840 0
-2022 -2175 1841 0
-2022 -2176 1842 0
-2022 -2177 1843 0
-2022 -2178 1844 0
-2022 -2179 1845 0
-2022 -2180 1846 0
-2022 -2181 1847 0
-2022 -2182 1848 0
-2022 -2183 1849 0
-2022 -2184 1850 0
-2022 -2185 1851 0
-2022 -2186 1852 0
-2022 -2187 1853 0
-2022 -2188 1854 0
-2022 -2189 1855 0
-2022 -2190 1856 0
-2022 -2191 1857 0
-2022 -2192 1858 0
-2022 -2193 1859 0
-2022 -2194 1860 0
-2022 -2195 1861 0
-2022 -2196 1862 0
-2022 -2197 1863 0
-2022 -2198 1864 0
-2022 -2199 1865 0
-2022 -2200 1866 0
-2022 -2201 1867 0
-2022 -2202 1868 0
-2022 -2203 1869 0
-2022 -2204 1870 0
-2022 -2205 1871 0
-2022 -2206 1872 0
-2022 -2207 1873 0
-2022 -2208 1874 0
-2022 -2209 1875 0
-2022 -2210 1876 0
-2022 -2211 1877 0
-2022 -2212 1878 0
-2022 -2213 1879 0
-2022 -2214 1880 0
-2022 -2215 1881 0
-2022 -2216 1882 0
-2022 -2217 1883 0
-2022 -2218 1884 0
-2022 -2219 1885 0
-2022 -2220 1886 0
-2022 -2221 1887 0
-2022 -2222 1888 0
-2022 -2223 1889 0
-2022 -2224 1890 0
-2022 -2225 1891 0
-2022 -2226 1892 0
-2022 -2227 1893 0
-2022 -2228 1894 0
-2022 -2229 1895 0
-2022 -2230 1896 0
-2022 -2231 1897 0
-2022 -2232 1898 0
-2022 -2233 1899 0
-2022 -2234 1900 0
-2022 -2235 1901 0
-2022 -2236 1902 0
-2022 -2237 1903 0
-2022 -2238 1904 0
-2022 -2239 1905 0
-2022 -2240 1906 0
-2023 -2125 1792 0
-2023 -2126 1793 0
-2023 -2127 1794 0
-2023 -2128 1795 0
-2023 -2129 1796 0
-2023 -2130 1797 0
-2023 -2131 1798 0
-2023 -2132 1799 0
-2023 -2133 1800 0
-2023 -2134 1801 0
-2023 -2135 1802 0
-2023 -2136 1803 0
-2023 -2137 1804 0
-2023 -2138 1805 0
-2023 -2139 1806 0
-2023 -2140 1807 0
-2023 -2141 1808 0
-2023 -2142 1809 0
-2023 -2143 1810 0
-2023 -2144 1811 0
-2023 -2145 1812 0
-2023 -2146 1813 0
-2023 -2147 1814 0
-2023 -2148 1815 0
-2023 -2149 1816 0
-2023 -2150 1817 0
-2023 -2151 1818 0
-2023 -2152 1819 0
-2023 -2153 1820 0
-2023 -2154 1821 0
-2023 -2155 1822 0
-2023 -2156 1823 0
-2023 -2157 1824 0
-2023 -2158 1825 0
-2023 -2159 1826 0
-2023 -2160 1827 0
-2023 -2161 1828 0
-2023 -2162 1829 0
-2023 -2163 1830 0
-2023 -2164 1831 0
-2023 -2165 1832 0
-2023 -2166 1833 0
-2023 -2167 1834 0
-2023 -2168 1835 0
-2023 -2169 1836 0
-2023 -2170 1837 0
-2023 -2171 1838 0
-2023 -2172 1839 0
-2023 -2173 1840 0
-2023 -2174 1841 0
-2023 -2175 1842 0
-2023 -2176 1843 0
-2023 -2177 1844 0
-2023 -2178 1845 0
-2023 -2179 1846 0
-2023 -2180 1847 0
-2023 -2181 1848 0
-2023 -2182 1849 0
-2023 -2183 1850 0
-2023 -2184 1851 0
-2023 -2185 1852 0
-2023 -2186 1853 0
-2023 -2187 1854 0
-2023 -2188 1855 0
-2023 -2189 1856 0
-2023 -2190 1857 0
-2023 -2191 1858 0
-2023 -2192 1859 0
-2023 -2193 1860 0
-2023 -2194 1861 0
-2023 -2195 1862 0
-2023 -2196 1863 0
-2023 -2197 1864 0
-2023 -2198 1865 0
-2023 -2199 1866 0
-2023 -2200 1867 0
-2023 -2201 1868 0
-2023 -2202 1869 0
-2023 -2203 1870 0
-2023 -2204 1871 0
-2023 -2205 1872 0
-2023 -2206 1873 0
-2023 -2207 1874 0
-2023 -2208 1875 0
-2023 -2209 1876 0
-2023 -2210 1877 0
-2023 -2211 1878 0
-2023 -2212 1879 0
-2023 -2213 1880 0
-2023 -2214 1881 0
-2023 -2215 1882 0
-2023 -2216 1883 0
-2023 -2217 1884 0
-2023 -2218 1885 0
-2023 -2219 1886 0
-2023 -2220 1887 0
-2023 -2221 1888 0
-2023 -2222 1889 0
-2023 -2223 1890 0
-2023 -2224 1891 0
-2023 -2225 1892 0
-2023 -2226 1893 0
-2023 -2227 1894 0
-2023 -2228 1895 0
-2023 -2229 1896 0
-2023 -2230 1897 0
-2023 -2231 1898 0
-2023 -2232 1899 0
-2023 -2233 1900 0
-2023 -2234 1901 0
-2023 -2235 1902 0
-2023 -2236 1903 0
-2023 -2237 1904 0
-2023 -2238 1905 0
-2023 -2239 1906 0
-2023 -2240 1907 0
-2024 -2125 1793 0
-2024 -2126 1794 0
-2024 -2127 1795 0
-2024 -2128 1796 0
-2024 -2129 1797 0
-2024 -2130 1798 0
-2024 -2131 1799 0
-2024 -2132 1800 0
-2024 -2133 1801 0
-2024 -2134 1802 0
-2024 -2135 1803 0
-2024 -2136 1804 0
-2024 -2137 1805 0
-2024 -2138 1806 0
-2024 -2139 1807 0
-2024 -2140 1808 0
-2024 -2141 1809 0
-2024 -2142 1810 0
-2024 -2143 1811 0
-2024 -2144 1812 0
-2024 -2145 1813 0
-2024 -2146 1814 0
-2024 -2147 1815 0
-2024 -2148 1816 0
-2024 -2149 1817 0
-2024 -2150 1818 0
-2024 -2151 1819 0
-2024 -2152 1820 0
-2024 -2153 1821 0
-2024 -2154 1822 0
-2024 -2155 1823 0
-2024 -2156 1824 0
-2024 -2157 1825 0
-2024 -2158 1826 0
-2024 -2159 1827 0
-2024 -2160 1828 0
-2024 -2161 1829 0
-2024 -2162 1830 0
-2024 -2163 1831 0
-2024 -2164 1832 0
-2024 -2165 1833 0
-2024 -2166 1834 0
-2024 -2167 1835 0
-2024 -2168 1836 0
-2024 -2169 1837 0
-2024 -2170 1838 0
-2024 -2171 1839 0
-2024 -2172 1840 0
-2024 -2173 1841 0
-2024 -2174 1842 0
-2024 -2175 1843 0
-2024 -2176 1844 0
-2024 -2177 1845 0
-2024 -2178 1846 0
-2024 -2179 1847 0
-2024 -2180 1848 0
-2024 -2181 1849 0
-2024 -2182 1850 0
-2024 -2183 1851 0
-2024 -2184 1852 0
-2024 -2185 1853 0
-2024 -2186 1854 0
-2024 -2187 1855 0
-2024 -2188 1856 0
-2024 -2189 1857 0
-2024 -2190 1858 0
-2024 -2191 1859 0
-2024 -2192 1860 0
-2024 -2193 1861 0
-2024 -2194 1862 0
-2024 -2195 1863 0
-2024 -2196 1864 0
-2024 -2197 1865 0
-2024 -2198 1866 0
-2024 -2199 1867 0
-2024 -2200 1868 0
-2024 -2201 1869 0
-2024 -2202 1870 0
-2024 -2203 1871 0
-2024 -2204 1872 0
-2024 -2205 1873 0
-2024 -2206 1874 0
-2024 -2207 1875 0
-2024 -2208 1876 0
-2024 -2209 1877 0
-2024 -2210 1878 0
-2024 -2211 1879 0
-2024 -2212 1880 0
-2024 -2213 1881 0
-2024 -2214 1882 0
-2024 -2215 1883 0
-2024 -2216 1884 0
-2024 -2217 1885 0
-2024 -2218 1886 0
-2024 -2219 1887 0
-2024 -2220 1888 0
-2024 -2221 1889 0
-2024 -2222 1890 0
-2024 -2223 1891 0
-2024 -2224 1892 0
-2024 -2225 1893 0
-2024 -2226 1894 0
-2024 -2227 1895 0
-2024 -2228 1896 0
-2024 -2229 1897 0
-2024 -2230 1898 0
-2024 -2231 1899 0
-2024 -2232 1900 0
-2024 -2233 1901 0
-2024 -2234 1902 0
-2024 -2235 1903 0
-2024 -2236 1904 0
-2024 -2237 1905 0
-2024 -2238 1906 0
-2024 -2239 1907 0
-2024 -2240 1908 0
-2025 -2125 1794 0
-2025 -2126 1795 0
-2025 -2127 1796 0
-2025 -2128 1797 0
-2025 -2129 1798 0
-2025 -2130 1799 0
-2025 -2131 1800 0
-2025 -2132 1801 0
-2025 -2133 1802 0
-2025 -2134 1803 0
-2025 -2135 1804 0
-2025 -2136 1805 0
-2025 -2137 1806 0
-2025 -2138 1807 0
-2025 -2139 1808 0
-2025 -2140 1809 0
-2025 -2141 1810 0
-2025 -2142 1811 0
-2025 -2143 1812 0
-2025 -2144 1813 0
-2025 -2145 1814 0
-2025 -2146 1815 0
-2025 -2147 1816 0
-2025 -2148 1817 0
-2025 -2149 1818 0
-2025 -2150 1819 0
-2025 -2151 1820 0
-2025 -2152 1821 0
-2025 -2153 1822 0
-2025 -2154 1823 0
-2025 -2155 1824 0
-2025 -2156 1825 0
-2025 -2157 1826 0
-2025 -2158 1827 0
-2025 -2159 1828 0
-2025 -2160 1829 0
-2025 -2161 1830 0
-2025 -2162 1831 0
-2025 -2163 1832 0
-2025 -2164 1833 0
-2025 -2165 1834 0
-2025 -2166 1835 0
-2025 -2167 1836 0
-2025 -2168 1837 0
-2025 -2169 1838 0
-2025 -2170 1839 0
-2025 -2171 1840 0
-2025 -2172 1841 0
-2025 -2173 1842 0
-2025 -2174 1843 0
-2025 -2175 1844 0
-2025 -2176 1845 0
-2025 -2177 1846 0
-2025 -2178 1847 0
-2025 -2179 1848 0
-2025 -2180 1849 0
-2025 -2181 1850 0
-2025 -2182 1851 0
-2025 -2183 1852 0
-2025 -2184 1853 0
-2025 -2185 1854 0
-2025 -2186 1855 0
-2025 -2187 1856 0
-2025 -2188 1857 0
-2025 -2189 1858 0
-2025 -2190 1859 0
-2025 -2191 1860 0
-2025 -2192 1861 0
-2025 -2193 1862 0
-2025 -2194 1863 0
-2025 -2195 1864 0
-2025 -2196 1865 0
-2025 -2197 1866 0
-2025 -2198 1867 0
-2025 -2199 1868 0
-2025 -2200 1869 0
-2025 -2201 1870 0
-2025 -2202 1871 0
-2025 -2203 1872 0
-2025 -2204 1873 0
-2025 -2205 1874 0
-2025 -2206 1875 0
-2025 -2207 1876 0
-2025 -2208 1877 0
-2025 -2209 1878 0
-2025 -2210 1879 0
-2025 -2211 1880 0
-2025 -2212 1881 0
-2025 -2213 1882 0
-2025 -2214 1883 0
-2025 -2215 1884 0
-2025 -2216 1885 0
-2025 -2217 1886 0
-2025 -2218 1887 0
-2025 -2219 1888 0
-2025 -2220 1889 0
-2025 -2221 1890 0
-2025 -2222 1891 0
-2025 -2223 1892 0
-2025 -2224 1893 0
-2025 -2225 1894 0
-2025 -2226 1895 0
-2025 -2227 1896 0
-2025 -2228 1897 0
-2025 -2229 1898 0
-2025 -2230 1899 0
-2025 -2231 1900 0
-2025 -2232 1901 0
-2025 -2233 1902 0
-2025 -2234 1903 0
-2025 -2235 1904 0
-2025 -2236 1905 0
-2025 -2237 1906 0
-2025 -2238 1907 0
-2025 -2239 1908 0
-2025 -2240 1909 0
-2026 -2125 1795 0
-2026 -2126 1796 0
-2026 -2127 1797 0
-2026 -2128 1798 0
-2026 -2129 1799 0
-2026 -2130 1800 0
-2026 -2131 1801 0
-2026 -2132 1802 0
-2026 -2133 1803 0
-2026 -2134 1804 0
-2026 -2135 1805 0
-2026 -2136 1806 0
-2026 -2137 1807 0
-2026 -2138 1808 0
-2026 -2139 1809 0
-2026 -2140 1810 0
-2026 -2141 1811 0
-2026 -2142 1812 0
-2026 -2143 1813 0
-2026 -2144 1814 0
-2026 -2145 1815 0
-2026 -2146 1816 0
-2026 -2147 1817 0
-2026 -2148 1818 0
-2026 -2149 1819 0
-2026 -2150 1820 0
-2026 -2151 1821 0
-2026 -2152 1822 0
-2026 -2153 1823 0
-2026 -2154 1824 0
-2026 -2155 1825 0
-2026 -2156 1826 0
-2026 -2157 1827 0
-2026 -2158 1828 0
-2026 -2159 1829 0
-2026 -2160 1830 0
-2026 -2161 1831 0
-2026 -2162 1832 0
-2026 -2163 1833 0
-2026 -2164 1834 0
-2026 -2165 1835 0
-2026 -2166 1836 0
-2026 -2167 1837 0
-2026 -2168 1838 0
-2026 -2169 1839 0
-2026 -2170 1840 0
-2026 -2171 1841 0
-2026 -2172 1842 0
-2026 -2173 1843 0
-2026 -2174 1844 0
-2026 -2175 1845 0
-2026 -2176 1846 0
-2026 -2177 1847 0
-2026 -2178 1848 0
-2026 -2179 1849 0
-2026 -2180 1850 0
-2026 -2181 1851 0
-2026 -2182 1852 0
-2026 -2183 1853 0
-2026 -2184 1854 0
-2026 -2185 1855 0
-2026 -2186 1856 0
-2026 -2187 1857 0
-2026 -2188 1858 0
-2026 -2189 1859 0
-2026 -2190 1860 0
-2026 -2191 1861 0
-2026 -2192 1862 0
-2026 -2193 1863 0
-2026 -2194 1864 0
-2026 -2195 1865 0
-2026 -2196 1866 0
-2026 -2197 1867 0
-2026 -2198 1868 0
-2026 -2199 1869 0
-2026 -2200 1870 0
-2026 -2201 1871 0
-2026 -2202 1872 0
-2026 -2203 1873 0
-2026 -2204 1874 0
-2026 -2205 1875 0
-2026 -2206 1876 0
-2026 -2207 1877 0
-2026 -2208 1878 0
-2026 -2209 1879 0
-2026 -2210 1880 0
-2026 -2211 1881 0
-2026 -2212 1882 0
-2026 -2213 1883 0
-2026 -2214 1884 0
-2026 -2215 1885 0
-2026 -2216 1886 0
-2026 -2217 1887 0
-2026 -2218 1888 0
-2026 -2219 1889 0
-2026 -2220 1890 0
-2026 -2221 1891 0
-2026 -2222 1892 0
-2026 -2223 1893 0
-2026 -2224 1894 0
-2026 -2225 1895 0
-2026 -2226 1896 0
-2026 -2227 1897 0
-2026 -2228 1898 0
-2026 -2229 1899 0
-2026 -2230 1900 0
-2026 -2231 1901 0
-2026 -2232 1902 0
-2026 -2233 1903 0
-2026 -2234 1904 0
-2026 -2235 1905 0
-2026 -2236 1906 0
-2026 -2237 1907 0
-2026 -2238 1908 0
-2026 -2239 1909 0
-2026 -2240 1910 0
-2027 -2125 1796 0
-2027 -2126 1797 0
-2027 -2127 1798 0
-2027 -2128 1799 0
-2027 -2129 1800 0
-2027 -2130 1801 0
-2027 -2131 1802 0
-2027 -2132 1803 0
-2027 -2133 1804 0
-2027 -2134 1805 0
-2027 -2135 1806 0
-2027 -2136 1807 0
-2027 -2137 1808 0
-2027 -2138 1809 0
-2027 -2139 1810 0
-2027 -2140 1811 0
-2027 -2141 1812 0
-2027 -2142 1813 0
-2027 -2143 1814 0
-2027 -2144 1815 0
-2027 -2145 1816 0
-2027 -2146 1817 0
-2027 -2147 1818 0
-2027 -2148 1819 0
-2027 -2149 1820 0
-2027 -2150 1821 0
-2027 -2151 1822 0
-2027 -2152 1823 0
-2027 -2153 1824 0
-2027 -2154 1825 0
-2027 -2155 1826 0
-2027 -2156 1827 0
-2027 -2157 1828 0
-2027 -2158 1829 0
-2027 -2159 1830 0
-2027 -2160 1831 0
-2027 -2161 1832 0
-2027 -2162 1833 0
-2027 -2163 1834 0
-2027 -2164 1835 0
-2027 -2165 1836 0
-2027 -2166 1837 0
-2027 -2167 1838 0
-2027 -2168 1839 0
-2027 -2169 1840 0
-2027 -2170 1841 0
-2027 -2171 1842 0
-2027 -2172 1843 0
-2027 -2173 1844 0
-2027 -2174 1845 0
-2027 -2175 1846 0
-2027 -2176 1847 0
-2027 -2177 1848 0
-2027 -2178 1849 0
-2027 -2179 1850 0
-2027 -2180 1851 0
-2027 -2181 1852 0
-2027 -2182 1853 0
-2027 -2183 1854 0
-2027 -2184 1855 0
-2027 -2185 1856 0
-2027 -2186 1857 0
-2027 -2187 1858 0
-2027 -2188 1859 0
-2027 -2189 1860 0
-2027 -2190 1861 0
-2027 -2191 1862 0
-2027 -2192 1863 0
-2027 -2193 1864 0
-2027 -2194 1865 0
-2027 -2195 1866 0
-2027 -2196 1867 0
-2027 -2197 1868 0
-2027 -2198 1869 0
-2027 -2199 1870 0
-2027 -2200 1871 0
-2027 -2201 1872 0
-2027 -2202 1873 0
-2027 -2203 1874 0
-2027 -2204 1875 0
-2027 -2205 1876 0
-2027 -2206 1877 0
-2027 -2207 1878 0
-2027 -2208 1879 0
-2027 -2209 1880 0
-2027 -2210 1881 0
-2027 -2211 1882 0
-2027 -2212 1883 0
-2027 -2213 1884 0
-2027 -2214 1885 0
-2027 -2215 1886 0
-2027 -2216 1887 0
-2027 -2217 1888 0
-2027 -2218 1889 0
-2027 -2219 1890 0
-2027 -2220 1891 0
-2027 -2221 1892 0
-2027 -2222 1893 0
-2027 -2223 1894 0
-2027 -2224 1895 0
-2027 -2225 1896 0
-2027 -2226 1897 0
-2027 -2227 1898 0
-2027 -2228 1899 0
-2027 -2229 1900 0
-2027 -2230 1901 0
-2027 -2231 1902 0
-2027 -2232 1903 0
-2027 -2233 1904 0
-2027 -2234 1905 0
-2027 -2235 1906 0
-2027 -2236 1907 0
-2027 -2237 1908 0
-2027 -2238 1909 0
-2027 -2239 1910 0
-2027 -2240 1911 0
-2028 -2125 1797 0
-2028 -2126 1798 0
-2028 -2127 1799 0
-2028 -2128 1800 0
-2028 -2129 1801 0
-2028 -2130 1802 0
-2028 -2131 1803 0
-2028 -2132 1804 0
-2028 -2133 1805 0
-2028 -2134 1806 0
-2028 -2135 1807 0
-2028 -2136 1808 0
-2028 -2137 1809 0
-2028 -2138 1810 0
-2028 -2139 1811 0
-2028 -2140 1812 0
-2028 -2141 1813 0
-2028 -2142 1814 0
-2028 -2143 1815 0
-2028 -2144 1816 0
-2028 -2145 1817 0
-2028 -2146 1818 0
-2028 -2147 1819 0
-2028 -2148 1820 0
-2028 -2149 1821 0
-2028 -2150 1822 0
-2028 -2151 1823 0
-2028 -2152 1824 0
-2028 -2153 1825 0
-2028 -2154 1826 0
-2028 -2155 1827 0
-2028 -2156 1828 0
-2028 -2157 1829 0
-2028 -2158 1830 0
-2028 -2159 1831 0
-2028 -2160 1832 0
-2028 -2161 1833 0
-2028 -2162 1834 0
-2028 -2163 1835 0
-2028 -2164 1836 0
-2028 -2165 1837 0
-2028 -2166 1838 0
-2028 -2167 1839 0
-2028 -2168 1840 0
-2028 -2169 1841 0
-2028 -2170 1842 0
-2028 -2171 1843 0
-2028 -2172 1844 0
-2028 -2173 1845 0
-2028 -2174 1846 0
-2028 -2175 1847 0
-2028 -2176 1848 0
-2028 -2177 1849 0
-2028 -2178 1850 0
-2028 -2179 1851 0
-2028 -2180 1852 0
-2028 -2181 1853 0
-2028 -2182 1854 0
-2028 -2183 1855 0
-2028 -2184 1856 0
-2028 -2185 1857 0
-2028 -2186 1858 0
-2028 -2187 1859 0
-2028 -2188 1860 0
-2028 -2189 1861 0
-2028 -2190 1862 0
-2028 -2191 1863 0
-2028 -2192 1864 0
-2028 -2193 1865 0
-2028 -2194 1866 0
-2028 -2195 1867 0
-2028 -2196 1868 0
-2028 -2197 1869 0
-2028 -2198 1870 0
-2028 -2199 1871 0
-2028 -2200 1872 0
-2028 -2201 1873 0
-2028 -2202 1874 0
-2028 -2203 1875 0
-2028 -2204 1876 0
-2028 -2205 1877 0
-2028 -2206 1878 0
-2028 -2207 1879 0
-2028 -2208 1880 0
-2028 -2209 1881 0
-2028 -2210 1882 0
-2028 -2211 1883 0
-2028 -2212 1884 0
-2028 -2213 1885 0
-2028 -2214 1886 0
-2028 -2215 1887 0
-2028 -2216 1888 0
-2028 -2217 1889 0
-2028 -2218 1890 0
-2028 -2219 1891 0
-2028 -2220 1892 0
-2028 -2221 1893 0
-2028 -2222 1894 0
-2028 -2223 1895 0
-2028 -2224 1896 0
-2028 -2225 1897 0
-2028 -2226 1898 0
-2028 -2227 1899 0
-2028 -2228 1900 0
-2028 -2229 1901 0
-2028 -2230 1902 0
-2028 -2231 1903 0
-2028 -2232 1904 0
-2028 -2233 1905 0
-2028 -2234 1906 0
-2028 -2235 1907 0
-2028 -2236 1908 0
-2028 -2237 1909 0
-2028 -2238 1910 0
-2028 -2239 1911 0
-2028 -2240 1912 0
-2029 -2125 1798 0
-2029 -2126 1799 0
-2029 -2127 1800 0
-2029 -2128 1801 0
-2029 -2129 1802 0
-2029 -2130 1803 0
-2029 -2131 1804 0
-2029 -2132 1805 0
-2029 -2133 1806 0
-2029 -2134 1807 0
-2029 -2135 1808 0
-2029 -2136 1809 0
-2029 -2137 1810 0
-2029 -2138 1811 0
-2029 -2139 1812 0
-2029 -2140 1813 0
-2029 -2141 1814 0
-2029 -2142 1815 0
-2029 -2143 1816 0
-2029 -2144 1817 0
-2029 -2145 1818 0
-2029 -2146 1819 0
-2029 -2147 1820 0
-2029 -2148 1821 0
-2029 -2149 1822 0
-2029 -2150 1823 0
-2029 -2151 1824 0
-2029 -2152 1825 0
-2029 -2153 1826 0
-2029 -2154 1827 0
-2029 -2155 1828 0
-2029 -2156 1829 0
-2029 -2157 1830 0
-2029 -2158 1831 0
-2029 -2159 1832 0
-2029 -2160 1833 0
-2029 -2161 1834 0
-2029 -2162 1835 0
-2029 -2163 1836 0
-2029 -2164 1837 0
-2029 -2165 1838 0
-2029 -2166 1839 0
-2029 -2167 1840 0
-2029 -2168 1841 0
-2029 -2169 1842 0
-2029 -2170 1843 0
-2029 -2171 1844 0
-2029 -2172 1845 0
-2029 -2173 1846 0
-2029 -2174 1847 0
-2029 -2175 1848 0
-2029 -2176 1849 0
-2029 -2177 1850 0
-2029 -2178 1851 0
-2029 -2179 1852 0
-2029 -2180 1853 0
-2029 -2181 1854 0
-2029 -2182 1855 0
-2029 -2183 1856 0
-2029 -2184 1857 0
-2029 -2185 1858 0
-2029 -2186 1859 0
-2029 -2187 1860 0
-2029 -2188 1861 0
-2029 -2189 1862 0
-2029 -2190 1863 0
-2029 -2191 1864 0
-2029 -2192 1865 0
-2029 -2193 1866 0
-2029 -2194 1867 0
-2029 -2195 1868 0
-2029 -2196 1869 0
-2029 -2197 1870 0
-2029 -2198 1871 0
-2029 -2199 1872 0
-2029 -2200 1873 0
-2029 -2201 1874 0
-2029 -2202 1875 0
-2029 -2203 1876 0
-2029 -2204 1877 0
-2029 -2205 1878 0
-2029 -2206 1879 0
-2029 -2207 1880 0
-2029 -2208 1881 0
-2029 -2209 1882 0
-2029 -2210 1883 0
-2029 -2211 1884 0
-2029 -2212 1885 0
-2029 -2213 1886 0
-2029 -2214 1887 0
-2029 -2215 1888 0
-2029 -2216 1889 0
-2029 -2217 1890 0
-2029 -2218 1891 0
-2029 -2219 1892 0
-2029 -2220 1893 0
-2029 -2221 1894 0
-2029 -2222 1895 0
-2029 -2223 1896 0
-2029 -2224 1897 0
-2029 -2225 1898 0
-2029 -2226 1899 0
-2029 -2227 1900 0
-2029 -2228 1901 0
-2029 -2229 1902 0
-2029 -2230 1903 0
-2029 -2231 1904 0
-2029 -2232 1905 0
-2029 -2233 1906 0
-2029 -2234 1907 0
-2029 -2235 1908 0
-2029 -2236 1909 0
-2029 -2237 1910 0
-2029 -2238 1911 0
-2029 -2239 1912 0
-2029 -2240 1913 0
-2030 -2125 1799 0
-2030 -2126 1800 0
-2030 -2127 1801 0
-2030 -2128 1802 0
-2030 -2129 1803 0
-2030 -2130 1804 0
-2030 -2131 1805 0
-2030 -2132 1806 0
-2030 -2133 1807 0
-2030 -2134 1808 0
-2030 -2135 1809 0
-2030 -2136 1810 0
-2030 -2137 1811 0
-2030 -2138 1812 0
-2030 -2139 1813 0
-2030 -2140 1814 0
-2030 -2141 1815 0
-2030 -2142 1816 0
-2030 -2143 1817 0
-2030 -2144 1818 0
-2030 -2145 1819 0
-2030 -2146 1820 0
-2030 -2147 1821 0
-2030 -2148 1822 0
-2030 -2149 1823 0
-2030 -2150 1824 0
-2030 -2151 1825 0
-2030 -2152 1826 0
-2030 -2153 1827 0
-2030 -2154 1828 0
-2030 -2155 1829 0
-2030 -2156 1830 0
-2030 -2157 1831 0
-2030 -2158 1832 0
-2030 -2159 1833 0
-2030 -2160 1834 0
-2030 -2161 1835 0
-2030 -2162 1836 0
-2030 -2163 1837 0
-2030 -2164 1838 0
-2030 -2165 1839 0
-2030 -2166 1840 0
-2030 -2167 1841 0
-2030 -2168 1842 0
-2030 -2169 1843 0
-2030 -2170 1844 0
-2030 -2171 1845 0
-2030 -2172 1846 0
-2030 -2173 1847 0
-2030 -2174 1848 0
-2030 -2175 1849 0
-2030 -2176 1850 0
-2030 -2177 1851 0
-2030 -2178 1852 0
-2030 -2179 1853 0
-2030 -2180 1854 0
-2030 -2181 1855 0
-2030 -2182 1856 0
-2030 -2183 1857 0
-2030 -2184 1858 0
-2030 -2185 1859 0
-2030 -2186 1860 0
-2030 -2187 1861 0
-2030 -2188 1862 0
-2030 -2189 1863 0
-2030 -2190 1864 0
-2030 -2191 1865 0
-2030 -2192 1866 0
-2030 -2193 1867 0
-2030 -2194 1868 0
-2030 -2195 1869 0
-2030 -2196 1870 0
-2030 -2197 1871 0
-2030 -2198 1872 0
-2030 -2199 1873 0
-2030 -2200 1874 0
-2030 -2201 1875 0
-2030 -2202 1876 0
-2030 -2203 1877 0
-2030 -2204 1878 0
-2030 -2205 1879 0
-2030 -2206 1880 0
-2030 -2207 1881 0
-2030 -2208 1882 0
-2030 -2209 1883 0
-2030 -2210 1884 0
-2030 -2211 1885 0
-2030 -2212 1886 0
-2030 -2213 1887 0
-2030 -2214 1888 0
-2030 -2215 1889 0
-2030 -2216 1890 0
-2030 -2217 1891 0
-2030 -2218 1892 0
-2030 -2219 1893 0
-2030 -2220 1894 0
-2030 -2221 1895 0
-2030 -2222 1896 0
-2030 -2223 1897 0
-2030 -2224 1898 0
-2030 -2225 1899 0
-2030 -2226 1900 0
-2030 -2227 1901 0
-2030 -2228 1902 0
-2030 -2229 1903 0
-2030 -2230 1904 0
-2030 -2231 1905 0
-2030 -2232 1906 0
-2030 -2233 1907 0
-2030 -2234 1908 0
-2030 -2235 1909 0
-2030 -2236 1910 0
-2030 -2237 1911 0
-2030 -2238 1912 0
-2030 -2239 1913 0
-2030 -2240 1914 0
-2031 -2125 1800 0
-2031 -2126 1801 0
-2031 -2127 1802 0
-2031 -2128 1803 0
-2031 -2129 1804 0
-2031 -2130 1805 0
-2031 -2131 1806 0
-2031 -2132 1807 0
-2031 -2133 1808 0
-2031 -2134 1809 0
-2031 -2135 1810 0
-2031 -2136 1811 0
-2031 -2137 1812 0
-2031 -2138 1813 0
-2031 -2139 1814 0
-2031 -2140 1815 0
-2031 -2141 1816 0
-2031 -2142 1817 0
-2031 -2143 1818 0
-2031 -2144 1819 0
-2031 -2145 1820 0
-2031 -2146 1821 0
-2031 -2147 1822 0
-2031 -2148 1823 0
-2031 -2149 1824 0
-2031 -2150 1825 0
-2031 -2151 1826 0
-2031 -2152 1827 0
-2031 -2153 1828 0
-2031 -2154 1829 0
-2031 -2155 1830 0
-2031 -2156 1831 0
-2031 -2157 1832 0
-2031 -2158 1833 0
-2031 -2159 1834 0
-2031 -2160 1835 0
-2031 -2161 1836 0
-2031 -2162 1837 0
-2031 -2163 1838 0
-2031 -2164 1839 0
-2031 -2165 1840 0
-2031 -2166 1841 0
-2031 -2167 1842 0
-2031 -2168 1843 0
-2031 -2169 1844 0
-2031 -2170 1845 0
-2031 -2171 1846 0
-2031 -2172 1847 0
-2031 -2173 1848 0
-2031 -2174 1849 0
-2031 -2175 1850 0
-2031 -2176 1851 0
-2031 -2177 1852 0
-2031 -2178 1853 0
-2031 -2179 1854 0
-2031 -2180 1855 0
-2031 -2181 1856 0
-2031 -2182 1857 0
-2031 -2183 1858 0
-2031 -2184 1859 0
-2031 -2185 1860 0
-2031 -2186 1861 0
-2031 -2187 1862 0
-2031 -2188 1863 0
-2031 -2189 1864 0
-2031 -2190 1865 0
-2031 -2191 1866 0
-2031 -2192 1867 0
-2031 -2193 1868 0
-2031 -2194 1869 0
-2031 -2195 1870 0
-2031 -2196 1871 0
-2031 -2197 1872 0
-2031 -2198 1873 0
-2031 -2199 1874 0
-2031 -2200 1875 0
-2031 -2201 1876 0
-2031 -2202 1877 0
-2031 -2203 1878 0
-2031 -2204 1879 0
-2031 -2205 1880 0
-2031 -2206 1881 0
-2031 -2207 1882 0
-2031 -2208 1883 0
-2031 -2209 1884 0
-2031 -2210 1885 0
-2031 -2211 1886 0
-2031 -2212 1887 0
-2031 -2213 1888 0
-2031 -2214 1889 0
-2031 -2215 1890 0
-2031 -2216 1891 0
-2031 -2217 1892 0
-2031 -2218 1893 0
-2031 -2219 1894 0
-2031 -2220 1895 0
-2031 -2221 1896 0
-2031 -2222 1897 0
-2031 -2223 1898 0
-2031 -2224 1899 0
-2031 -2225 1900 0
-2031 -2226 1901 0
-2031 -2227 1902 0
-2031 -2228 1903 0
-2031 -2229 1904 0
-2031 -2230 1905 0
-2031 -2231 1906 0
-2031 -2232 1907 0
-2031 -2233 1908 0
-2031 -2234 1909 0
-2031 -2235 1910 0
-2031 -2236 1911 0
-2031 -2237 1912 0
-2031 -2238 1913 0
-2031 -2239 1914 0
-2031 -2240 1915 0
-2032 -2125 1801 0
-2032 -2126 1802 0
-2032 -2127 1803 0
-2032 -2128 1804 0
-2032 -2129 1805 0
-2032 -2130 1806 0
-2032 -2131 1807 0
-2032 -2132 1808 0
-2032 -2133 1809 0
-2032 -2134 1810 0
-2032 -2135 1811 0
-2032 -2136 1812 0
-2032 -2137 1813 0
-2032 -2138 1814 0
-2032 -2139 1815 0
-2032 -2140 1816 0
-2032 -2141 1817 0
-2032 -2142 1818 0
-2032 -2143 1819 0
-2032 -2144 1820 0
-2032 -2145 1821 0
-2032 -2146 1822 0
-2032 -2147 1823 0
-2032 -2148 1824 0
-2032 -2149 1825 0
-2032 -2150 1826 0
-2032 -2151 1827 0
-2032 -2152 1828 0
-2032 -2153 1829 0
-2032 -2154 1830 0
-2032 -2155 1831 0
-2032 -2156 1832 0
-2032 -2157 1833 0
-2032 -2158 1834 0
-2032 -2159 1835 0
-2032 -2160 1836 0
-2032 -2161 1837 0
-2032 -2162 1838 0
-2032 -2163 1839 0
-2032 -2164 1840 0
-2032 -2165 1841 0
-2032 -2166 1842 0
-2032 -2167 1843 0
-2032 -2168 1844 0
-2032 -2169 1845 0
-2032 -2170 1846 0
-2032 -2171 1847 0
-2032 -2172 1848 0
-2032 -2173 1849 0
-2032 -2174 1850 0
-2032 -2175 1851 0
-2032 -2176 1852 0
-2032 -2177 1853 0
-2032 -2178 1854 0
-2032 -2179 1855 0
-2032 -2180 1856 0
-2032 -2181 1857 0
-2032 -2182 1858 0
-2032 -2183 1859 0
-2032 -2184 1860 0
-2032 -2185 1861 0
-2032 -2186 1862 0
-2032 -2187 1863 0
-2032 -2188 1864 0
-2032 -2189 1865 0
-2032 -2190 1866 0
-2032 -2191 1867 0
-2032 -2192 1868 0
-2032 -2193 1869 0
-2032 -2194 1870 0
-2032 -2195 1871 0
-2032 -2196 1872 0
-2032 -2197 1873 0
-2032 -2198 1874 0
-2032 -2199 1875 0
-2032 -2200 1876 0
-2032 -2201 1877 0
-2032 -2202 1878 0
-2032 -2203 1879 0
-2032 -2204 1880 0
-2032 -2205 1881 0
-2032 -2206 1882 0
-2032 -2207 1883 0
-2032 -2208 1884 0
-2032 -2209 1885 0
-2032 -2210 1886 0
-2032 -2211 1887 0
-2032 -2212 1888 0
-2032 -2213 1889 0
-2032 -2214 1890 0
-2032 -2215 1891 0
-2032 -2216 1892 0
-2032 -2217 1893 0
-2032 -2218 1894 0
-2032 -2219 1895 0
-2032 -2220 1896 0
-2032 -2221 1897 0
-2032 -2222 1898 0
-2032 -2223 1899 0
-2032 -2224 1900 0
-2032 -2225 1901 0
-2032 -2226 1902 0
-2032 -2227 1903 0
-2032 -2228 1904 0
-2032 -2229 1905 0
-2032 -2230 1906 0
-2032 -2231 1907 0
-2032 -2232 1908 0
-2032 -2233 1909 0
-2032 -2234 1910 0
-2032 -2235 1911 0
-2032 -2236 1912 0
-2032 -2237 1913 0
-2032 -2238 1914 0
-2032 -2239 1915 0
-2032 -2240 1916 0
-2033 -2125 1802 0
-2033 -2126 1803 0
-2033 -2127 1804 0
-2033 -2128 1805 0
-2033 -2129 1806 0
-2033 -2130 1807 0
-2033 -2131 1808 0
-2033 -2132 1809 0
-2033 -2133 1810 0
-2033 -2134 1811 0
-2033 -2135 1812 0
-2033 -2136 1813 0
-2033 -2137 1814 0
-2033 -2138 1815 0
-2033 -2139 1816 0
-2033 -2140 1817 0
-2033 -2141 1818 0
-2033 -2142 1819 0
-2033 -2143 1820 0
-2033 -2144 1821 0
-2033 -2145 1822 0
-2033 -2146 1823 0
-2033 -2147 1824 0
-2033 -2148 1825 0
-2033 -2149 1826 0
-2033 -2150 1827 0
-2033 -2151 1828 0
-2033 -2152 1829 0
-2033 -2153 1830 0
-2033 -2154 1831 0
-2033 -2155 1832 0
-2033 -2156 1833 0
-2033 -2157 1834 0
-2033 -2158 1835 0
-2033 -2159 1836 0
-2033 -2160 1837 0
-2033 -2161 1838 0
-2033 -2162 1839 0
-2033 -2163 1840 0
-2033 -2164 1841 0
-2033 -2165 1842 0
-2033 -2166 1843 0
-2033 -2167 1844 0
-2033 -2168 1845 0
-2033 -2169 1846 0
-2033 -2170 1847 0
-2033 -2171 1848 0
-2033 -2172 1849 0
-2033 -2173 1850 0
-2033 -2174 1851 0
-2033 -2175 1852 0
-2033 -2176 1853 0
-2033 -2177 1854 0
-2033 -2178 1855 0
-2033 -2179 1856 0
-2033 -2180 1857 0
-2033 -2181 1858 0
-2033 -2182 1859 0
-2033 -2183 1860 0
-2033 -2184 1861 0
-2033 -2185 1862 0
-2033 -2186 1863 0
-2033 -2187 1864 0
-2033 -2188 1865 0
-2033 -2189 1866 0
-2033 -2190 1867 0
-2033 -2191 1868 0
-2033 -2192 1869 0
-2033 -2193 1870 0
-2033 -2194 1871 0
-2033 -2195 1872 0
-2033 -2196 1873 0
-2033 -2197 1874 0
-2033 -2198 1875 0
-2033 -2199 1876 0
-2033 -2200 1877 0
-2033 -2201 1878 0
-2033 -2202 1879 0
-2033 -2203 1880 0
-2033 -2204 1881 0
-2033 -2205 1882 0
-2033 -2206 1883 0
-2033 -2207 1884 0
-2033 -2208 1885 0
-2033 -2209 1886 0
-2033 -2210 1887 0
-2033 -2211 1888 0
-2033 -2212 1889 0
-2033 -2213 1890 0
-2033 -2214 1891 0
-2033 -2215 1892 0
-2033 -2216 1893 0
-2033 -2217 1894 0
-2033 -2218 1895 0
-2033 -2219 1896 0
-2033 -2220 1897 0
-2033 -2221 1898 0
-2033 -2222 1899 0
-2033 -2223 1900 0
-2033 -2224 1901 0
-2033 -2225 1902 0
-2033 -2226 1903 0
-2033 -2227 1904 0
-2033 -2228 1905 0
-2033 -2229 1906 0
-2033 -2230 1907 0
-2033 -2231 1908 0
-2033 -2232 1909 0
-2033 -2233 1910 0
-2033 -2234 1911 0
-2033 -2235 1912 0
-2033 -2236 1913 0
-2033 -2237 1914 0
-2033 -2238 1915 0
-2033 -2239 1916 0
-2033 -2240 1917 0
-2034 -2125 1803 0
-2034 -2126 1804 0
-2034 -2127 1805 0
-2034 -2128 1806 0
-2034 -2129 1807 0
-2034 -2130 1808 0
-2034 -2131 1809 0
-2034 -2132 1810 0
-2034 -2133 1811 0
-2034 -2134 1812 0
-2034 -2135 1813 0
-2034 -2136 1814 0
-2034 -2137 1815 0
-2034 -2138 1816 0
-2034 -2139 1817 0
-2034 -2140 1818 0
-2034 -2141 1819 0
-2034 -2142 1820 0
-2034 -2143 1821 0
-2034 -2144 1822 0
-2034 -2145 1823 0
-2034 -2146 1824 0
-2034 -2147 1825 0
-2034 -2148 1826 0
-2034 -2149 1827 0
-2034 -2150 1828 0
-2034 -2151 1829 0
-2034 -2152 1830 0
-2034 -2153 1831 0
-2034 -2154 1832 0
-2034 -2155 1833 0
-2034 -2156 1834 0
-2034 -2157 1835 0
-2034 -2158 1836 0
-2034 -2159 1837 0
-2034 -2160 1838 0
-2034 -2161 1839 0
-2034 -2162 1840 0
-2034 -2163 1841 0
-2034 -2164 1842 0
-2034 -2165 1843 0
-2034 -2166 1844 0
-2034 -2167 1845 0
-2034 -2168 1846 0
-2034 -2169 1847 0
-2034 -2170 1848 0
-2034 -2171 1849 0
-2034 -2172 1850 0
-2034 -2173 1851 0
-2034 -2174 1852 0
-2034 -2175 1853 0
-2034 -2176 1854 0
-2034 -2177 1855 0
-2034 -2178 1856 0
-2034 -2179 1857 0
-2034 -2180 1858 0
-2034 -2181 1859 0
-2034 -2182 1860 0
-2034 -2183 1861 0
-2034 -2184 1862 0
-2034 -2185 1863 0
-2034 -2186 1864 0
-2034 -2187 1865 0
-2034 -2188 1866 0
-2034 -2189 1867 0
-2034 -2190 1868 0
-2034 -2191 1869 0
-2034 -2192 1870 0
-2034 -2193 1871 0
-2034 -2194 1872 0
-2034 -2195 1873 0
-2034 -2196 1874 0
-2034 -2197 1875 0
-2034 -2198 1876 0
-2034 -2199 1877 0
-2034 -2200 1878 0
-2034 -2201 1879 0
-2034 -2202 1880 0
-2034 -2203 1881 0
-2034 -2204 1882 0
-2034 -2205 1883 0
-2034 -2206 1884 0
-2034 -2207 1885 0
-2034 -2208 1886 0
-2034 -2209 1887 0
-2034 -2210 1888 0
-2034 -2211 1889 0
-2034 -2212 1890 0
-2034 -2213 1891 0
-2034 -2214 1892 0
-2034 -2215 1893 0
-2034 -2216 1894 0
-2034 -2217 1895 0
-2034 -2218 1896 0
-2034 -2219 1897 0
-2034 -2220 1898 0
-2034 -2221 1899 0
-2034 -2222 1900 0
-2034 -2223 1901 0
-2034 -2224 1902 0
-2034 -2225 1903 0
-2034 -2226 1904 0
-2034 -2227 1905 0
-2034 -2228 1906 0
-2034 -2229 1907 0
-2034 -2230 1908 0
-2034 -2231 1909 0
-2034 -2232 1910 0
-2034 -2233 1911 0
-2034 -2234 1912 0
-2034 -2235 1913 0
-2034 -2236 1914 0
-2034 -2237 1915 0
-2034 -2238 1916 0
-2034 -2239 1917 0
-2034 -2240 1918 0
-2035 -2125 1804 0
-2035 -2126 1805 0
-2035 -2127 1806 0
-2035 -2128 1807 0
-2035 -2129 1808 0
-2035 -2130 1809 0
-2035 -2131 1810 0
-2035 -2132 1811 0
-2035 -2133 1812 0
-2035 -2134 1813 0
-2035 -2135 1814 0
-2035 -2136 1815 0
-2035 -2137 1816 0
-2035 -2138 1817 0
-2035 -2139 1818 0
-2035 -2140 1819 0
-2035 -2141 1820 0
-2035 -2142 1821 0
-2035 -2143 1822 0
-2035 -2144 1823 0
-2035 -2145 1824 0
-2035 -2146 1825 0
-2035 -2147 1826 0
-2035 -2148 1827 0
-2035 -2149 1828 0
-2035 -2150 1829 0
-2035 -2151 1830 0
-2035 -2152 1831 0
-2035 -2153 1832 0
-2035 -2154 1833 0
-2035 -2155 1834 0
-2035 -2156 1835 0
-2035 -2157 1836 0
-2035 -2158 1837 0
-2035 -2159 1838 0
-2035 -2160 1839 0
-2035 -2161 1840 0
-2035 -2162 1841 0
-2035 -2163 1842 0
-2035 -2164 1843 0
-2035 -2165 1844 0
-2035 -2166 1845 0
-2035 -2167 1846 0
-2035 -2168 1847 0
-2035 -2169 1848 0
-2035 -2170 1849 0
-2035 -2171 1850 0
-2035 -2172 1851 0
-2035 -2173 1852 0
-2035 -2174 1853 0
-2035 -2175 1854 0
-2035 -2176 1855 0
-2035 -2177 1856 0
-2035 -2178 1857 0
-2035 -2179 1858 0
-2035 -2180 1859 0
-2035 -2181 1860 0
-2035 -2182 1861 0
-2035 -2183 1862 0
-2035 -2184 1863 0
-2035 -2185 1864 0
-2035 -2186 1865 0
-2035 -2187 1866 0
-2035 -2188 1867 0
-2035 -2189 1868 0
-2035 -2190 1869 0
-2035 -2191 1870 0
-2035 -2192 1871 0
-2035 -2193 1872 0
-2035 -2194 1873 0
-2035 -2195 1874 0
-2035 -2196 1875 0
-2035 -2197 1876 0
-2035 -2198 1877 0
-2035 -2199 1878 0
-2035 -2200 1879 0
-2035 -2201 1880 0
-2035 -2202 1881 0
-2035 -2203 1882 0
-2035 -2204 1883 0
-2035 -2205 1884 0
-2035 -2206 1885 0
-2035 -2207 1886 0
-2035 -2208 1887 0
-2035 -2209 1888 0
-2035 -2210 1889 0
-2035 -2211 1890 0
-2035 -2212 1891 0
-2035 -2213 1892 0
-2035 -2214 1893 0
-2035 -2215 1894 0
-2035 -2216 1895 0
-2035 -2217 1896 0
-2035 -2218 1897 0
-2035 -2219 1898 0
-2035 -2220 1899 0
-2035 -2221 1900 0
-2035 -2222 1901 0
-2035 -2223 1902 0
-2035 -2224 1903 0
-2035 -2225 1904 0
-2035 -2226 1905 0
-2035 -2227 1906 0
-2035 -2228 1907 0
-2035 -2229 1908 0
-2035 -2230 1909 0
-2035 -2231 1910 0
-2035 -2232 1911 0
-2035 -2233 1912 0
-2035 -2234 1913 0
-2035 -2235 1914 0
-2035 -2236 1915 0
-2035 -2237 1916 0
-2035 -2238 1917 0
-2035 -2239 1918 0
-2035 -2240 1919 0
-2036 -2125 1805 0
-2036 -2126 1806 0
-2036 -2127 1807 0
-2036 -2128 1808 0
-2036 -2129 1809 0
-2036 -2130 1810 0
-2036 -2131 1811 0
-2036 -2132 1812 0
-2036 -2133 1813 0
-2036 -2134 1814 0
-2036 -2135 1815 0
-2036 -2136 1816 0
-2036 -2137 1817 0
-2036 -2138 1818 0
-2036 -2139 1819 0
-2036 -2140 1820 0
-2036 -2141 1821 0
-2036 -2142 1822 0
-2036 -2143 1823 0
-2036 -2144 1824 0
-2036 -2145 1825 0
-2036 -2146 1826 0
-2036 -2147 1827 0
-2036 -2148 1828 0
-2036 -2149 1829 0
-2036 -2150 1830 0
-2036 -2151 1831 0
-2036 -2152 1832 0
-2036 -2153 1833 0
-2036 -2154 1834 0
-2036 -2155 1835 0
-2036 -2156 1836 0
-2036 -2157 1837 0
-2036 -2158 1838 0
-2036 -2159 1839 0
-2036 -2160 1840 0
-2036 -2161 1841 0
-2036 -2162 1842 0
-2036 -2163 1843 0
-2036 -2164 1844 0
-2036 -2165 1845 0
-2036 -2166 1846 0
-2036 -2167 1847 0
-2036 -2168 1848 0
-2036 -2169 1849 0
-2036 -2170 1850 0
-2036 -2171 1851 0
-2036 -2172 1852 0
-2036 -2173 1853 0
-2036 -2174 1854 0
-2036 -2175 1855 0
-2036 -2176 1856 0
-2036 -2177 1857 0
-2036 -2178 1858 0
-2036 -2179 1859 0
-2036 -2180 1860 0
-2036 -2181 1861 0
-2036 -2182 1862 0
-2036 -2183 1863 0
-2036 -2184 1864 0
-2036 -2185 1865 0
-2036 -2186 1866 0
-2036 -2187 1867 0
-2036 -2188 1868 0
-2036 -2189 1869 0
-2036 -2190 1870 0
-2036 -2191 1871 0
-2036 -2192 1872 0
-2036 -2193 1873 0
-2036 -2194 1874 0
-2036 -2195 1875 0
-2036 -2196 1876 0
-2036 -2197 1877 0
-2036 -2198 1878 0
-2036 -2199 1879 0
-2036 -2200 1880 0
-2036 -2201 1881 0
-2036 -2202 1882 0
-2036 -2203 1883 0
-2036 -2204 1884 0
-2036 -2205 1885 0
-2036 -2206 1886 0
-2036 -2207 1887 0
-2036 -2208 1888 0
-2036 -2209 1889 0
-2036 -2210 1890 0
-2036 -2211 1891 0
-2036 -2212 1892 0
-2036 -2213 1893 0
-2036 -2214 1894 0
-2036 -2215 1895 0
-2036 -2216 1896 0
-2036 -2217 1897 0
-2036 -2218 1898 0
-2036 -2219 1899 0
-2036 -2220 1900 0
-2036 -2221 1901 0
-2036 -2222 1902 0
-2036 -2223 1903 0
-2036 -2224 1904 0
-2036 -2225 1905 0
-2036 -2226 1906 0
-2036 -2227 1907 0
-2036 -2228 1908 0
-2036 -2229 1909 0
-2036 -2230 1910 0
-2036 -2231 1911 0
-2036 -2232 1912 0
-2036 -2233 1913 0
-2036 -2234 1914 0
-2036 -2235 1915 0
-2036 -2236 1916 0
-2036 -2237 1917 0
-2036 -2238 1918 0
-2036 -2239 1919 0
-2036 -2240 1920 0
-2037 -2125 1806 0
-2037 -2126 1807 0
-2037 -2127 1808 0
-2037 -2128 1809 0
-2037 -2129 1810 0
-2037 -2130 1811 0
-2037 -2131 1812 0
-2037 -2132 1813 0
-2037 -2133 1814 0
-2037 -2134 1815 0
-2037 -2135 1816 0
-2037 -2136 1817 0
-2037 -2137 1818 0
-2037 -2138 1819 0
-2037 -2139 1820 0
-2037 -2140 1821 0
-2037 -2141 1822 0
-2037 -2142 1823 0
-2037 -2143 1824 0
-2037 -2144 1825 0
-2037 -2145 1826 0
-2037 -2146 1827 0
-2037 -2147 1828 0
-2037 -2148 1829 0
-2037 -2149 1830 0
-2037 -2150 1831 0
-2037 -2151 1832 0
-2037 -2152 1833 0
-2037 -2153 1834 0
-2037 -2154 1835 0
-2037 -2155 1836 0
-2037 -2156 1837 0
-2037 -2157 1838 0
-2037 -2158 1839 0
-2037 -2159 1840 0
-2037 -2160 1841 0
-2037 -2161 1842 0
-2037 -2162 1843 0
-2037 -2163 1844 0
-2037 -2164 1845 0
-2037 -2165 1846 0
-2037 -2166 1847 0
-2037 -2167 1848 0
-2037 -2168 1849 0
-2037 -2169 1850 0
-2037 -2170 1851 0
-2037 -2171 1852 0
-2037 -2172 1853 0
-2037 -2173 1854 0
-2037 -2174 1855 0
-2037 -2175 1856 0
-2037 -2176 1857 0
-2037 -2177 1858 0
-2037 -2178 1859 0
-2037 -2179 1860 0
-2037 -2180 1861 0
-2037 -2181 1862 0
-2037 -2182 1863 0
-2037 -2183 1864 0
-2037 -2184 1865 0
-2037 -2185 1866 0
-2037 -2186 1867 0
-2037 -2187 1868 0
-2037 -2188 1869 0
-2037 -2189 1870 0
-2037 -2190 1871 0
-2037 -2191 1872 0
-2037 -2192 1873 0
-2037 -2193 1874 0
-2037 -2194 1875 0
-2037 -2195 1876 0
-2037 -2196 1877 0
-2037 -2197 1878 0
-2037 -2198 1879 0
-2037 -2199 1880 0
-2037 -2200 1881 0
-2037 -2201 1882 0
-2037 -2202 1883 0
-2037 -2203 1884 0
-2037 -2204 1885 0
-2037 -2205 1886 0
-2037 -2206 1887 0
-2037 -2207 1888 0
-2037 -2208 1889 0
-2037 -2209 1890 0
-2037 -2210 1891 0
-2037 -2211 1892 0
-2037 -2212 1893 0
-2037 -2213 1894 0
-2037 -2214 1895 0
-2037 -2215 1896 0
-2037 -2216 1897 0
-2037 -2217 1898 0
-2037 -2218 1899 0
-2037 -2219 1900 0
-2037 -2220 1901 0
-2037 -2221 1902 0
-2037 -2222 1903 0
-2037 -2223 1904 0
-2037 -2224 1905 0
-2037 -2225 1906 0
-2037 -2226 1907 0
-2037 -2227 1908 0
-2037 -2228 1909 0
-2037 -2229 1910 0
-2037 -2230 1911 0
-2037 -2231 1912 0
-2037 -2232 1913 0
-2037 -2233 1914 0
-2037 -2234 1915 0
-2037 -2235 1916 0
-2037 -2236 1917 0
-2037 -2237 1918 0
-2037 -2238 1919 0
-2037 -2239 1920 0
-2037 -2240 1921 0
-2038 -2125 1807 0
-2038 -2126 1808 0
-2038 -2127 1809 0
-2038 -2128 1810 0
-2038 -2129 1811 0
-2038 -2130 1812 0
-2038 -2131 1813 0
-2038 -2132 1814 0
-2038 -2133 1815 0
-2038 -2134 1816 0
-2038 -2135 1817 0
-2038 -2136 1818 0
-2038 -2137 1819 0
-2038 -2138 1820 0
-2038 -2139 1821 0
-2038 -2140 1822 0
-2038 -2141 1823 0
-2038 -2142 1824 0
-2038 -2143 1825 0
-2038 -2144 1826 0
-2038 -2145 1827 0
-2038 -2146 1828 0
-2038 -2147 1829 0
-2038 -2148 1830 0
-2038 -2149 1831 0
-2038 -2150 1832 0
-2038 -2151 1833 0
-2038 -2152 1834 0
-2038 -2153 1835 0
-2038 -2154 1836 0
-2038 -2155 1837 0
-2038 -2156 1838 0
-2038 -2157 1839 0
-2038 -2158 1840 0
-2038 -2159 1841 0
-2038 -2160 1842 0
-2038 -2161 1843 0
-2038 -2162 1844 0
-2038 -2163 1845 0
-2038 -2164 1846 0
-2038 -2165 1847 0
-2038 -2166 1848 0
-2038 -2167 1849 0
-2038 -2168 1850 0
-2038 -2169 1851 0
-2038 -2170 1852 0
-2038 -2171 1853 0
-2038 -2172 1854 0
-2038 -2173 1855 0
-2038 -2174 1856 0
-2038 -2175 1857 0
-2038 -2176 1858 0
-2038 -2177 1859 0
-2038 -2178 1860 0
-2038 -2179 1861 0
-2038 -2180 1862 0
-2038 -2181 1863 0
-2038 -2182 1864 0
-2038 -2183 1865 0
-2038 -2184 1866 0
-2038 -2185 1867 0
-2038 -2186 1868 0
-2038 -2187 1869 0
-2038 -2188 1870 0
-2038 -2189 1871 0
-2038 -2190 1872 0
-2038 -2191 1873 0
-2038 -2192 1874 0
-2038 -2193 1875 0
-2038 -2194 1876 0
-2038 -2195 1877 0
-2038 -2196 1878 0
-2038 -2197 1879 0
-2038 -2198 1880 0
-2038 -2199 1881 0
-2038 -2200 1882 0
-2038 -2201 1883 0
-2038 -2202 1884 0
-2038 -2203 1885 0
-2038 -2204 1886 0
-2038 -2205 1887 0
-2038 -2206 1888 0
-2038 -2207 1889 0
-2038 -2208 1890 0
-2038 -2209 1891 0
-2038 -2210 1892 0
-2038 -2211 1893 0
-2038 -2212 1894 0
-2038 -2213 1895 0
-2038 -2214 1896 0
-2038 -2215 1897 0
-2038 -2216 1898 0
-2038 -2217 1899 0
-2038 -2218 1900 0
-2038 -2219 1901 0
-2038 -2220 1902 0
-2038 -2221 1903 0
-2038 -2222 1904 0
-2038 -2223 1905 0
-2038 -2224 1906 0
-2038 -2225 1907 0
-2038 -2226 1908 0
-2038 -2227 1909 0
-2038 -2228 1910 0
-2038 -2229 1911 0
-2038 -2230 1912 0
-2038 -2231 1913 0
-2038 -2232 1914 0
-2038 -2233 1915 0
-2038 -2234 1916 0
-2038 -2235 1917 0
-2038 -2236 1918 0
-2038 -2237 1919 0
-2038 -2238 1920 0
-2038 -2239 1921 0
-2038 -2240 1922 0
-2039 -2125 1808 0
-2039 -2126 1809 0
-2039 -2127 1810 0
-2039 -2128 1811 0
-2039 -2129 1812 0
-2039 -2130 1813 0
-2039 -2131 1814 0
-2039 -2132 1815 0
-2039 -2133 1816 0
-2039 -2134 1817 0
-2039 -2135 1818 0
-2039 -2136 1819 0
-2039 -2137 1820 0
-2039 -2138 1821 0
-2039 -2139 1822 0
-2039 -2140 1823 0
-2039 -2141 1824 0
-2039 -2142 1825 0
-2039 -2143 1826 0
-2039 -2144 1827 0
-2039 -2145 1828 0
-2039 -2146 1829 0
-2039 -2147 1830 0
-2039 -2148 1831 0
-2039 -2149 1832 0
-2039 -2150 1833 0
-2039 -2151 1834 0
-2039 -2152 1835 0
-2039 -2153 1836 0
-2039 -2154 1837 0
-2039 -2155 1838 0
-2039 -2156 1839 0
-2039 -2157 1840 0
-2039 -2158 1841 0
-2039 -2159 1842 0
-2039 -2160 1843 0
-2039 -2161 1844 0
-2039 -2162 1845 0
-2039 -2163 1846 0
-2039 -2164 1847 0
-2039 -2165 1848 0
-2039 -2166 1849 0
-2039 -2167 1850 0
-2039 -2168 1851 0
-2039 -2169 1852 0
-2039 -2170 1853 0
-2039 -2171 1854 0
-2039 -2172 1855 0
-2039 -2173 1856 0
-2039 -2174 1857 0
-2039 -2175 1858 0
-2039 -2176 1859 0
-2039 -2177 1860 0
-2039 -2178 1861 0
-2039 -2179 1862 0
-2039 -2180 1863 0
-2039 -2181 1864 0
-2039 -2182 1865 0
-2039 -2183 1866 0
-2039 -2184 1867 0
-2039 -2185 1868 0
-2039 -2186 1869 0
-2039 -2187 1870 0
-2039 -2188 1871 0
-2039 -2189 1872 0
-2039 -2190 1873 0
-2039 -2191 1874 0
-2039 -2192 1875 0
-2039 -2193 1876 0
-2039 -2194 1877 0
-2039 -2195 1878 0
-2039 -2196 1879 0
-2039 -2197 1880 0
-2039 -2198 1881 0
-2039 -2199 1882 0
-2039 -2200 1883 0
-2039 -2201 1884 0
-2039 -2202 1885 0
-2039 -2203 1886 0
-2039 -2204 1887 0
-2039 -2205 1888 0
-2039 -2206 1889 0
-2039 -2207 1890 0
-2039 -2208 1891 0
-2039 -2209 1892 0
-2039 -2210 1893 0
-2039 -2211 1894 0
-2039 -2212 1895 0
-2039 -2213 1896 0
-2039 -2214 1897 0
-2039 -2215 1898 0
-2039 -2216 1899 0
-2039 -2217 1900 0
-2039 -2218 1901 0
-2039 -2219 1902 0
-2039 -2220 1903 0
-2039 -2221 1904 0
-2039 -2222 1905 0
-2039 -2223 1906 0
-2039 -2224 1907 0
-2039 -2225 1908 0
-2039 -2226 1909 0
-2039 -2227 1910 0
-2039 -2228 1911 0
-2039 -2229 1912 0
-2039 -2230 1913 0
-2039 -2231 1914 0
-2039 -2232 1915 0
-2039 -2233 1916 0
-2039 -2234 1917 0
-2039 -2235 1918 0
-2039 -2236 1919 0
-2039 -2237 1920 0
-2039 -2238 1921 0
-2039 -2239 1922 0
-2039 -2240 1923 0
-2040 -2125 1809 0
-2040 -2126 1810 0
-2040 -2127 1811 0
-2040 -2128 1812 0
-2040 -2129 1813 0
-2040 -2130 1814 0
-2040 -2131 1815 0
-2040 -2132 1816 0
-2040 -2133 1817 0
-2040 -2134 1818 0
-2040 -2135 1819 0
-2040 -2136 1820 0
-2040 -2137 1821 0
-2040 -2138 1822 0
-2040 -2139 1823 0
-2040 -2140 1824 0
-2040 -2141 1825 0
-2040 -2142 1826 0
-2040 -2143 1827 0
-2040 -2144 1828 0
-2040 -2145 1829 0
-2040 -2146 1830 0
-2040 -2147 1831 0
-2040 -2148 1832 0
-2040 -2149 1833 0
-2040 -2150 1834 0
-2040 -2151 1835 0
-2040 -2152 1836 0
-2040 -2153 1837 0
-2040 -2154 1838 0
-2040 -2155 1839 0
-2040 -2156 1840 0
-2040 -2157 1841 0
-2040 -2158 1842 0
-2040 -2159 1843 0
-2040 -2160 1844 0
-2040 -2161 1845 0
-2040 -2162 1846 0
-2040 -2163 1847 0
-2040 -2164 1848 0
-2040 -2165 1849 0
-2040 -2166 1850 0
-2040 -2167 1851 0
-2040 -2168 1852 0
-2040 -2169 1853 0
-2040 -2170 1854 0
-2040 -2171 1855 0
-2040 -2172 1856 0
-2040 -2173 1857 0
-2040 -2174 1858 0
-2040 -2175 1859 0
-2040 -2176 1860 0
-2040 -2177 1861 0
-2040 -2178 1862 0
-2040 -2179 1863 0
-2040 -2180 1864 0
-2040 -2181 1865 0
-2040 -2182 1866 0
-2040 -2183 1867 0
-2040 -2184 1868 0
-2040 -2185 1869 0
-2040 -2186 1870 0
-2040 -2187 1871 0
-2040 -2188 1872 0
-2040 -2189 1873 0
-2040 -2190 1874 0
-2040 -2191 1875 0
-2040 -2192 1876 0
-2040 -2193 1877 0
-2040 -2194 1878 0
-2040 -2195 1879 0
-2040 -2196 1880 0
-2040 -2197 1881 0
-2040 -2198 1882 0
-2040 -2199 1883 0
-2040 -2200 1884 0
-2040 -2201 1885 0
-2040 -2202 1886 0
-2040 -2203 1887 0
-2040 -2204 1888 0
-2040 -2205 1889 0
-2040 -2206 1890 0
-2040 -2207 1891 0
-2040 -2208 1892 0
-2040 -2209 1893 0
-2040 -2210 1894 0
-2040 -2211 1895 0
-2040 -2212 1896 0
-2040 -2213 1897 0
-2040 -2214 1898 0
-2040 -2215 1899 0
-2040 -2216 1900 0
-2040 -2217 1901 0
-2040 -2218 1902 0
-2040 -2219 1903 0
-2040 -2220 1904 0
-2040 -2221 1905 0
-2040 -2222 1906 0
-2040 -2223 1907 0
-2040 -2224 1908 0
-2040 -2225 1909 0
-2040 -2226 1910 0
-2040 -2227 1911 0
-2040 -2228 1912 0
-2040 -2229 1913 0
-2040 -2230 1914 0
-2040 -2231 1915 0
-2040 -2232 1916 0
-2040 -2233 1917 0
-2040 -2234 1918 0
-2040 -2235 1919 0
-2040 -2236 1920 0
-2040 -2237 1921 0
-2040 -2238 1922 0
-2040 -2239 1923 0
-2040 -2240 1924 0
-2041 -2125 1810 0
-2041 -2126 1811 0
-2041 -2127 1812 0
-2041 -2128 1813 0
-2041 -2129 1814 0
-2041 -2130 1815 0
-2041 -2131 1816 0
-2041 -2132 1817 0
-2041 -2133 1818 0
-2041 -2134 1819 0
-2041 -2135 1820 0
-2041 -2136 1821 0
-2041 -2137 1822 0
-2041 -2138 1823 0
-2041 -2139 1824 0
-2041 -2140 1825 0
-2041 -2141 1826 0
-2041 -2142 1827 0
-2041 -2143 1828 0
-2041 -2144 1829 0
-2041 -2145 1830 0
-2041 -2146 1831 0
-2041 -2147 1832 0
-2041 -2148 1833 0
-2041 -2149 1834 0
-2041 -2150 1835 0
-2041 -2151 1836 0
-2041 -2152 1837 0
-2041 -2153 1838 0
-2041 -2154 1839 0
-2041 -2155 1840 0
-2041 -2156 1841 0
-2041 -2157 1842 0
-2041 -2158 1843 0
-2041 -2159 1844 0
-2041 -2160 1845 0
-2041 -2161 1846 0
-2041 -2162 1847 0
-2041 -2163 1848 0
-2041 -2164 1849 0
-2041 -2165 1850 0
-2041 -2166 1851 0
-2041 -2167 1852 0
-2041 -2168 1853 0
-2041 -2169 1854 0
-2041 -2170 1855 0
-2041 -2171 1856 0
-2041 -2172 1857 0
-2041 -2173 1858 0
-2041 -2174 1859 0
-2041 -2175 1860 0
-2041 -2176 1861 0
-2041 -2177 1862 0
-2041 -2178 1863 0
-2041 -2179 1864 0
-2041 -2180 1865 0
-2041 -2181 1866 0
-2041 -2182 1867 0
-2041 -2183 1868 0
-2041 -2184 1869 0
-2041 -2185 1870 0
-2041 -2186 1871 0
-2041 -2187 1872 0
-2041 -2188 1873 0
-2041 -2189 1874 0
-2041 -2190 1875 0
-2041 -2191 1876 0
-2041 -2192 1877 0
-2041 -2193 1878 0
-2041 -2194 1879 0
-2041 -2195 1880 0
-2041 -2196 1881 0
-2041 -2197 1882 0
-2041 -2198 1883 0
-2041 -2199 1884 0
-2041 -2200 1885 0
-2041 -2201 1886 0
-2041 -2202 1887 0
-2041 -2203 1888 0
-2041 -2204 1889 0
-2041 -2205 1890 0
-2041 -2206 1891 0
-2041 -2207 1892 0
-2041 -2208 1893 0
-2041 -2209 1894 0
-2041 -2210 1895 0
-2041 -2211 1896 0
-2041 -2212 1897 0
-2041 -2213 1898 0
-2041 -2214 1899 0
-2041 -2215 1900 0
-2041 -2216 1901 0
-2041 -2217 1902 0
-2041 -2218 1903 0
-2041 -2219 1904 0
-2041 -2220 1905 0
-2041 -2221 1906 0
-2041 -2222 1907 0
-2041 -2223 1908 0
-2041 -2224 1909 0
-2041 -2225 1910 0
-2041 -2226 1911 0
-2041 -2227 1912 0
-2041 -2228 1913 0
-2041 -2229 1914 0
-2041 -2230 1915 0
-2041 -2231 1916 0
-2041 -2232 1917 0
-2041 -2233 1918 0
-2041 -2234 1919 0
-2041 -2235 1920 0
-2041 -2236 1921 0
-2041 -2237 1922 0
-2041 -2238 1923 0
-2041 -2239 1924 0
-2041 -2240 1925 0
-2042 -2125 1811 0
-2042 -2126 1812 0
-2042 -2127 1813 0
-2042 -2128 1814 0
-2042 -2129 1815 0
-2042 -2130 1816 0
-2042 -2131 1817 0
-2042 -2132 1818 0
-2042 -2133 1819 0
-2042 -2134 1820 0
-2042 -2135 1821 0
-2042 -2136 1822 0
-2042 -2137 1823 0
-2042 -2138 1824 0
-2042 -2139 1825 0
-2042 -2140 1826 0
-2042 -2141 1827 0
-2042 -2142 1828 0
-2042 -2143 1829 0
-2042 -2144 1830 0
-2042 -2145 1831 0
-2042 -2146 1832 0
-2042 -2147 1833 0
-2042 -2148 1834 0
-2042 -2149 1835 0
-2042 -2150 1836 0
-2042 -2151 1837 0
-2042 -2152 1838 0
-2042 -2153 1839 0
-2042 -2154 1840 0
-2042 -2155 1841 0
-2042 -2156 1842 0
-2042 -2157 1843 0
-2042 -2158 1844 0
-2042 -2159 1845 0
-2042 -2160 1846 0
-2042 -2161 1847 0
-2042 -2162 1848 0
-2042 -2163 1849 0
-2042 -2164 1850 0
-2042 -2165 1851 0
-2042 -2166 1852 0
-2042 -2167 1853 0
-2042 -2168 1854 0
-2042 -2169 1855 0
-2042 -2170 1856 0
-2042 -2171 1857 0
-2042 -2172 1858 0
-2042 -2173 1859 0
-2042 -2174 1860 0
-2042 -2175 1861 0
-2042 -2176 1862 0
-2042 -2177 1863 0
-2042 -2178 1864 0
-2042 -2179 1865 0
-2042 -2180 1866 0
-2042 -2181 1867 0
-2042 -2182 1868 0
-2042 -2183 1869 0
-2042 -2184 1870 0
-2042 -2185 1871 0
-2042 -2186 1872 0
-2042 -2187 1873 0
-2042 -2188 1874 0
-2042 -2189 1875 0
-2042 -2190 1876 0
-2042 -2191 1877 0
-2042 -2192 1878 0
-2042 -2193 1879 0
-2042 -2194 1880 0
-2042 -2195 1881 0
-2042 -2196 1882 0
-2042 -2197 1883 0
-2042 -2198 1884 0
-2042 -2199 1885 0
-2042 -2200 1886 0
-2042 -2201 1887 0
-2042 -2202 1888 0
-2042 -2203 1889 0
-2042 -2204 1890 0
-2042 -2205 1891 0
-2042 -2206 1892 0
-2042 -2207 1893 0
-2042 -2208 1894 0
-2042 -2209 1895 0
-2042 -2210 1896 0
-2042 -2211 1897 0
-2042 -2212 1898 0
-2042 -2213 1899 0
-2042 -2214 1900 0
-2042 -2215 1901 0
-2042 -2216 1902 0
-2042 -2217 1903 0
-2042 -2218 1904 0
-2042 -2219 1905 0
-2042 -2220 1906 0
-2042 -2221 1907 0
-2042 -2222 1908 0
-2042 -2223 1909 0
-2042 -2224 1910 0
-2042 -2225 1911 0
-2042 -2226 1912 0
-2042 -2227 1913 0
-2042 -2228 1914 0
-2042 -2229 1915 0
-2042 -2230 1916 0
-2042 -2231 1917 0
-2042 -2232 1918 0
-2042 -2233 1919 0
-2042 -2234 1920 0
-2042 -2235 1921 0
-2042 -2236 1922 0
-2042 -2237 1923 0
-2042 -2238 1924 0
-2042 -2239 1925 0
-2042 -2240 1926 0
-2043 -2125 1812 0
-2043 -2126 1813 0
-2043 -2127 1814 0
-2043 -2128 1815 0
-2043 -2129 1816 0
-2043 -2130 1817 0
-2043 -2131 1818 0
-2043 -2132 1819 0
-2043 -2133 1820 0
-2043 -2134 1821 0
-2043 -2135 1822 0
-2043 -2136 1823 0
-2043 -2137 1824 0
-2043 -2138 1825 0
-2043 -2139 1826 0
-2043 -2140 1827 0
-2043 -2141 1828 0
-2043 -2142 1829 0
-2043 -2143 1830 0
-2043 -2144 1831 0
-2043 -2145 1832 0
-2043 -2146 1833 0
-2043 -2147 1834 0
-2043 -2148 1835 0
-2043 -2149 1836 0
-2043 -2150 1837 0
-2043 -2151 1838 0
-2043 -2152 1839 0
-2043 -2153 1840 0
-2043 -2154 1841 0
-2043 -2155 1842 0
-2043 -2156 1843 0
-2043 -2157 1844 0
-2043 -2158 1845 0
-2043 -2159 1846 0
-2043 -2160 1847 0
-2043 -2161 1848 0
-2043 -2162 1849 0
-2043 -2163 1850 0
-2043 -2164 1851 0
-2043 -2165 1852 0
-2043 -2166 1853 0
-2043 -2167 1854 0
-2043 -2168 1855 0
-2043 -2169 1856 0
-2043 -2170 1857 0
-2043 -2171 1858 0
-2043 -2172 1859 0
-2043 -2173 1860 0
-2043 -2174 1861 0
-2043 -2175 1862 0
-2043 -2176 1863 0
-2043 -2177 1864 0
-2043 -2178 1865 0
-2043 -2179 1866 0
-2043 -2180 1867 0
-2043 -2181 1868 0
-2043 -2182 1869 0
-2043 -2183 1870 0
-2043 -2184 1871 0
-2043 -2185 1872 0
-2043 -2186 1873 0
-2043 -2187 1874 0
-2043 -2188 1875 0
-2043 -2189 1876 0
-2043 -2190 1877 0
-2043 -2191 1878 0
-2043 -2192 1879 0
-2043 -2193 1880 0
-2043 -2194 1881 0
-2043 -2195 1882 0
-2043 -2196 1883 0
-2043 -2197 1884 0
-2043 -2198 1885 0
-2043 -2199 1886 0
-2043 -2200 1887 0
-2043 -2201 1888 0
-2043 -2202 1889 0
-2043 -2203 1890 0
-2043 -2204 1891 0
-2043 -2205 1892 0
-2043 -2206 1893 0
-2043 -2207 1894 0
-2043 -2208 1895 0
-2043 -2209 1896 0
-2043 -2210 1897 0
-2043 -2211 1898 0
-2043 -2212 1899 0
-2043 -2213 1900 0
-2043 -2214 1901 0
-2043 -2215 1902 0
-2043 -2216 1903 0
-2043 -2217 1904 0
-2043 -2218 1905 0
-2043 -2219 1906 0
-2043 -2220 1907 0
-2043 -2221 1908 0
-2043 -2222 1909 0
-2043 -2223 1910 0
-2043 -2224 1911 0
-2043 -2225 1912 0
-2043 -2226 1913 0
-2043 -2227 1914 0
-2043 -2228 1915 0
-2043 -2229 1916 0
-2043 -2230 1917 0
-2043 -2231 1918 0
-2043 -2232 1919 0
-2043 -2233 1920 0
-2043 -2234 1921 0
-2043 -2235 1922 0
-2043 -2236 1923 0
-2043 -2237 1924 0
-2043 -2238 1925 0
-2043 -2239 1926 0
-2043 -2240 1927 0
-2044 -2125 1813 0
-2044 -2126 1814 0
-2044 -2127 1815 0
-2044 -2128 1816 0
-2044 -2129 1817 0
-2044 -2130 1818 0
-2044 -2131 1819 0
-2044 -2132 1820 0
-2044 -2133 1821 0
-2044 -2134 1822 0
-2044 -2135 1823 0
-2044 -2136 1824 0
-2044 -2137 1825 0
-2044 -2138 1826 0
-2044 -2139 1827 0
-2044 -2140 1828 0
-2044 -2141 1829 0
-2044 -2142 1830 0
-2044 -2143 1831 0
-2044 -2144 1832 0
-2044 -2145 1833 0
-2044 -2146 1834 0
-2044 -2147 1835 0
-2044 -2148 1836 0
-2044 -2149 1837 0
-2044 -2150 1838 0
-2044 -2151 1839 0
-2044 -2152 1840 0
-2044 -2153 1841 0
-2044 -2154 1842 0
-2044 -2155 1843 0
-2044 -2156 1844 0
-2044 -2157 1845 0
-2044 -2158 1846 0
-2044 -2159 1847 0
-2044 -2160 1848 0
-2044 -2161 1849 0
-2044 -2162 1850 0
-2044 -2163 1851 0
-2044 -2164 1852 0
-2044 -2165 1853 0
-2044 -2166 1854 0
-2044 -2167 1855 0
-2044 -2168 1856 0
-2044 -2169 1857 0
-2044 -2170 1858 0
-2044 -2171 1859 0
-2044 -2172 1860 0
-2044 -2173 1861 0
-2044 -2174 1862 0
-2044 -2175 1863 0
-2044 -2176 1864 0
-2044 -2177 1865 0
-2044 -2178 1866 0
-2044 -2179 1867 0
-2044 -2180 1868 0
-2044 -2181 1869 0
-2044 -2182 1870 0
-2044 -2183 1871 0
-2044 -2184 1872 0
-2044 -2185 1873 0
-2044 -2186 1874 0
-2044 -2187 1875 0
-2044 -2188 1876 0
-2044 -2189 1877 0
-2044 -2190 1878 0
-2044 -2191 1879 0
-2044 -2192 1880 0
-2044 -2193 1881 0
-2044 -2194 1882 0
-2044 -2195 1883 0
-2044 -2196 1884 0
-2044 -2197 1885 0
-2044 -2198 1886 0
-2044 -2199 1887 0
-2044 -2200 1888 0
-2044 -2201 1889 0
-2044 -2202 1890 0
-2044 -2203 1891 0
-2044 -2204 1892 0
-2044 -2205 1893 0
-2044 -2206 1894 0
-2044 -2207 1895 0
-2044 -2208 1896 0
-2044 -2209 1897 0
-2044 -2210 1898 0
-2044 -2211 1899 0
-2044 -2212 1900 0
-2044 -2213 1901 0
-2044 -2214 1902 0
-2044 -2215 1903 0
-2044 -2216 1904 0
-2044 -2217 1905 0
-2044 -2218 1906 0
-2044 -2219 1907 0
-2044 -2220 1908 0
-2044 -2221 1909 0
-2044 -2222 1910 0
-2044 -2223 1911 0
-2044 -2224 1912 0
-2044 -2225 1913 0
-2044 -2226 1914 0
-2044 -2227 1915 0
-2044 -2228 1916 0
-2044 -2229 1917 0
-2044 -2230 1918 0
-2044 -2231 1919 0
-2044 -2232 1920 0
-2044 -2233 1921 0
-2044 -2234 1922 0
-2044 -2235 1923 0
-2044 -2236 1924 0
-2044 -2237 1925 0
-2044 -2238 1926 0
-2044 -2239 1927 0
-2044 -2240 1928 0
-2045 -2125 1814 0
-2045 -2126 1815 0
-2045 -2127 1816 0
-2045 -2128 1817 0
-2045 -2129 1818 0
-2045 -2130 1819 0
-2045 -2131 1820 0
-2045 -2132 1821 0
-2045 -2133 1822 0
-2045 -2134 1823 0
-2045 -2135 1824 0
-2045 -2136 1825 0
-2045 -2137 1826 0
-2045 -2138 1827 0
-2045 -2139 1828 0
-2045 -2140 1829 0
-2045 -2141 1830 0
-2045 -2142 1831 0
-2045 -2143 1832 0
-2045 -2144 1833 0
-2045 -2145 1834 0
-2045 -2146 1835 0
-2045 -2147 1836 0
-2045 -2148 1837 0
-2045 -2149 1838 0
-2045 -2150 1839 0
-2045 -2151 1840 0
-2045 -2152 1841 0
-2045 -2153 1842 0
-2045 -2154 1843 0
-2045 -2155 1844 0
-2045 -2156 1845 0
-2045 -2157 1846 0
-2045 -2158 1847 0
-2045 -2159 1848 0
-2045 -2160 1849 0
-2045 -2161 1850 0
-2045 -2162 1851 0
-2045 -2163 1852 0
-2045 -2164 1853 0
-2045 -2165 1854 0
-2045 -2166 1855 0
-2045 -2167 1856 0
-2045 -2168 1857 0
-2045 -2169 1858 0
-2045 -2170 1859 0
-2045 -2171 1860 0
-2045 -2172 1861 0
-2045 -2173 1862 0
-2045 -2174 1863 0
-2045 -2175 1864 0
-2045 -2176 1865 0
-2045 -2177 1866 0
-2045 -2178 1867 0
-2045 -2179 1868 0
-2045 -2180 1869 0
-2045 -2181 1870 0
-2045 -2182 1871 0
-2045 -2183 1872 0
-2045 -2184 1873 0
-2045 -2185 1874 0
-2045 -2186 1875 0
-2045 -2187 1876 0
-2045 -2188 1877 0
-2045 -2189 1878 0
-2045 -2190 1879 0
-2045 -2191 1880 0
-2045 -2192 1881 0
-2045 -2193 1882 0
-2045 -2194 1883 0
-2045 -2195 1884 0
-2045 -2196 1885 0
-2045 -2197 1886 0
-2045 -2198 1887 0
-2045 -2199 1888 0
-2045 -2200 1889 0
-2045 -2201 1890 0
-2045 -2202 1891 0
-2045 -2203 1892 0
-2045 -2204 1893 0
-2045 -2205 1894 0
-2045 -2206 1895 0
-2045 -2207 1896 0
-2045 -2208 1897 0
-2045 -2209 1898 0
-2045 -2210 1899 0
-2045 -2211 1900 0
-2045 -2212 1901 0
-2045 -2213 1902 0
-2045 -2214 1903 0
-2045 -2215 1904 0
-2045 -2216 1905 0
-2045 -2217 1906 0
-2045 -2218 1907 0
-2045 -2219 1908 0
-2045 -2220 1909 0
-2045 -2221 1910 0
-2045 -2222 1911 0
-2045 -2223 1912 0
-2045 -2224 1913 0
-2045 -2225 1914 0
-2045 -2226 1915 0
-2045 -2227 1916 0
-2045 -2228 1917 0
-2045 -2229 1918 0
-2045 -2230 1919 0
-2045 -2231 1920 0
-2045 -2232 1921 0
-2045 -2233 1922 0
-2045 -2234 1923 0
-2045 -2235 1924 0
-2045 -2236 1925 0
-2045 -2237 1926 0
-2045 -2238 1927 0
-2045 -2239 1928 0
-2045 -2240 1929 0
-2046 -2125 1815 0
-2046 -2126 1816 0
-2046 -2127 1817 0
-2046 -2128 1818 0
-2046 -2129 1819 0
-2046 -2130 1820 0
-2046 -2131 1821 0
-2046 -2132 1822 0
-2046 -2133 1823 0
-2046 -2134 1824 0
-2046 -2135 1825 0
-2046 -2136 1826 0
-2046 -2137 1827 0
-2046 -2138 1828 0
-2046 -2139 1829 0
-2046 -2140 1830 0
-2046 -2141 1831 0
-2046 -2142 1832 0
-2046 -2143 1833 0
-2046 -2144 1834 0
-2046 -2145 1835 0
-2046 -2146 1836 0
-2046 -2147 1837 0
-2046 -2148 1838 0
-2046 -2149 1839 0
-2046 -2150 1840 0
-2046 -2151 1841 0
-2046 -2152 1842 0
-2046 -2153 1843 0
-2046 -2154 1844 0
-2046 -2155 1845 0
-2046 -2156 1846 0
-2046 -2157 1847 0
-2046 -2158 1848 0
-2046 -2159 1849 0
-2046 -2160 1850 0
-2046 -2161 1851 0
-2046 -2162 1852 0
-2046 -2163 1853 0
-2046 -2164 1854 0
-2046 -2165 1855 0
-2046 -2166 1856 0
-2046 -2167 1857 0
-2046 -2168 1858 0
-2046 -2169 1859 0
-2046 -2170 1860 0
-2046 -2171 1861 0
-2046 -2172 1862 0
-2046 -2173 1863 0
-2046 -2174 1864 0
-2046 -2175 1865 0
-2046 -2176 1866 0
-2046 -2177 1867 0
-2046 -2178 1868 0
-2046 -2179 1869 0
-2046 -2180 1870 0
-2046 -2181 1871 0
-2046 -2182 1872 0
-2046 -2183 1873 0
-2046 -2184 1874 0
-2046 -2185 1875 0
-2046 -2186 1876 0
-2046 -2187 1877 0
-2046 -2188 1878 0
-2046 -2189 1879 0
-2046 -2190 1880 0
-2046 -2191 1881 0
-2046 -2192 1882 0
-2046 -2193 1883 0
-2046 -2194 1884 0
-2046 -2195 1885 0
-2046 -2196 1886 0
-2046 -2197 1887 0
-2046 -2198 1888 0
-2046 -2199 1889 0
-2046 -2200 1890 0
-2046 -2201 1891 0
-2046 -2202 1892 0
-2046 -2203 1893 0
-2046 -2204 1894 0
-2046 -2205 1895 0
-2046 -2206 1896 0
-2046 -2207 1897 0
-2046 -2208 1898 0
-2046 -2209 1899 0
-2046 -2210 1900 0
-2046 -2211 1901 0
-2046 -2212 1902 0
-2046 -2213 1903 0
-2046 -2214 1904 0
-2046 -2215 1905 0
-2046 -2216 1906 0
-2046 -2217 1907 0
-2046 -2218 1908 0
-2046 -2219 1909 0
-2046 -2220 1910 0
-2046 -2221 1911 0
-2046 -2222 1912 0
-2046 -2223 1913 0
-2046 -2224 1914 0
-2046 -2225 1915 0
-2046 -2226 1916 0
-2046 -2227 1917 0
-2046 -2228 1918 0
-2046 -2229 1919 0
-2046 -2230 1920 0
-2046 -2231 1921 0
-2046 -2232 1922 0
-2046 -2233 1923 0
-2046 -2234 1924 0
-2046 -2235 1925 0
-2046 -2236 1926 0
-2046 -2237 1927 0
-2046 -2238 1928 0
-2046 -2239 1929 0
-2046 -2240 1930 0
-2047 -2125 1816 0
-2047 -2126 1817 0
-2047 -2127 1818 0
-2047 -2128 1819 0
-2047 -2129 1820 0
-2047 -2130 1821 0
-2047 -2131 1822 0
-2047 -2132 1823 0
-2047 -2133 1824 0
-2047 -2134 1825 0
-2047 -2135 1826 0
-2047 -2136 1827 0
-2047 -2137 1828 0
-2047 -2138 1829 0
-2047 -2139 1830 0
-2047 -2140 1831 0
-2047 -2141 1832 0
-2047 -2142 1833 0
-2047 -2143 1834 0
-2047 -2144 1835 0
-2047 -2145 1836 0
-2047 -2146 1837 0
-2047 -2147 1838 0
-2047 -2148 1839 0
-2047 -2149 1840 0
-2047 -2150 1841 0
-2047 -2151 1842 0
-2047 -2152 1843 0
-2047 -2153 1844 0
-2047 -2154 1845 0
-2047 -2155 1846 0
-2047 -2156 1847 0
-2047 -2157 1848 0
-2047 -2158 1849 0
-2047 -2159 1850 0
-2047 -2160 1851 0
-2047 -2161 1852 0
-2047 -2162 1853 0
-2047 -2163 1854 0
-2047 -2164 1855 0
-2047 -2165 1856 0
-2047 -2166 1857 0
-2047 -2167 1858 0
-2047 -2168 1859 0
-2047 -2169 1860 0
-2047 -2170 1861 0
-2047 -2171 1862 0
-2047 -2172 1863 0
-2047 -2173 1864 0
-2047 -2174 1865 0
-2047 -2175 1866 0
-2047 -2176 1867 0
-2047 -2177 1868 0
-2047 -2178 1869 0
-2047 -2179 1870 0
-2047 -2180 1871 0
-2047 -2181 1872 0
-2047 -2182 1873 0
-2047 -2183 1874 0
-2047 -2184 1875 0
-2047 -2185 1876 0
-2047 -2186 1877 0
-2047 -2187 1878 0
-2047 -2188 1879 0
-2047 -2189 1880 0
-2047 -2190 1881 0
-2047 -2191 1882 0
-2047 -2192 1883 0
-2047 -2193 1884 0
-2047 -2194 1885 0
-2047 -2195 1886 0
-2047 -2196 1887 0
-2047 -2197 1888 0
-2047 -2198 1889 0
-2047 -2199 1890 0
-2047 -2200 1891 0
-2047 -2201 1892 0
-2047 -2202 1893 0
-2047 -2203 1894 0
-2047 -2204 1895 0
-2047 -2205 1896 0
-2047 -2206 1897 0
-2047 -2207 1898 0
-2047 -2208 1899 0
-2047 -2209 1900 0
-2047 -2210 1901 0
-2047 -2211 1902 0
-2047 -2212 1903 0
-2047 -2213 1904 0
-2047 -2214 1905 0
-2047 -2215 1906 0
-2047 -2216 1907 0
-2047 -2217 1908 0
-2047 -2218 1909 0
-2047 -2219 1910 0
-2047 -2220 1911 0
-2047 -2221 1912 0
-2047 -2222 1913 0
-2047 -2223 1914 0
-2047 -2224 1915 0
-2047 -2225 1916 0
-2047 -2226 1917 0
-2047 -2227 1918 0
-2047 -2228 1919 0
-2047 -2229 1920 0
-2047 -2230 1921 0
-2047 -2231 1922 0
-2047 -2232 1923 0
-2047 -2233 1924 0
-2047 -2234 1925 0
-2047 -2235 1926 0
-2047 -2236 1927 0
-2047 -2237 1928 0
-2047 -2238 1929 0
-2047 -2239 1930 0
-2047 -2240 1931 0
-2048 -2125 1817 0
-2048 -2126 1818 0
-2048 -2127 1819 0
-2048 -2128 1820 0
-2048 -2129 1821 0
-2048 -2130 1822 0
-2048 -2131 1823 0
-2048 -2132 1824 0
-2048 -2133 1825 0
-2048 -2134 1826 0
-2048 -2135 1827 0
-2048 -2136 1828 0
-2048 -2137 1829 0
-2048 -2138 1830 0
-2048 -2139 1831 0
-2048 -2140 1832 0
-2048 -2141 1833 0
-2048 -2142 1834 0
-2048 -2143 1835 0
-2048 -2144 1836 0
-2048 -2145 1837 0
-2048 -2146 1838 0
-2048 -2147 1839 0
-2048 -2148 1840 0
-2048 -2149 1841 0
-2048 -2150 1842 0
-2048 -2151 1843 0
-2048 -2152 1844 0
-2048 -2153 1845 0
-2048 -2154 1846 0
-2048 -2155 1847 0
-2048 -2156 1848 0
-2048 -2157 1849 0
-2048 -2158 1850 0
-2048 -2159 1851 0
-2048 -2160 1852 0
-2048 -2161 1853 0
-2048 -2162 1854 0
-2048 -2163 1855 0
-2048 -2164 1856 0
-2048 -2165 1857 0
-2048 -2166 1858 0
-2048 -2167 1859 0
-2048 -2168 1860 0
-2048 -2169 1861 0
-2048 -2170 1862 0
-2048 -2171 1863 0
-2048 -2172 1864 0
-2048 -2173 1865 0
-2048 -2174 1866 0
-2048 -2175 1867 0
-2048 -2176 1868 0
-2048 -2177 1869 0
-2048 -2178 1870 0
-2048 -2179 1871 0
-2048 -2180 1872 0
-2048 -2181 1873 0
-2048 -2182 1874 0
-2048 -2183 1875 0
-2048 -2184 1876 0
-2048 -2185 1877 0
-2048 -2186 1878 0
-2048 -2187 1879 0
-2048 -2188 1880 0
-2048 -2189 1881 0
-2048 -2190 1882 0
-2048 -2191 1883 0
-2048 -2192 1884 0
-2048 -2193 1885 0
-2048 -2194 1886 0
-2048 -2195 1887 0
-2048 -2196 1888 0
-2048 -2197 1889 0
-2048 -2198 1890 0
-2048 -2199 1891 0
-2048 -2200 1892 0
-2048 -2201 1893 0
-2048 -2202 1894 0
-2048 -2203 1895 0
-2048 -2204 1896 0
-2048 -2205 1897 0
-2048 -2206 1898 0
-2048 -2207 1899 0
-2048 -2208 1900 0
-2048 -2209 1901 0
-2048 -2210 1902 0
-2048 -2211 1903 0
-2048 -2212 1904 0
-2048 -2213 1905 0
-2048 -2214 1906 0
-2048 -2215 1907 0
-2048 -2216 1908 0
-2048 -2217 1909 0
-2048 -2218 1910 0
-2048 -2219 1911 0
-2048 -2220 1912 0
-2048 -2221 1913 0
-2048 -2222 1914 0
-2048 -2223 1915 0
-2048 -2224 1916 0
-2048 -2225 1917 0
-2048 -2226 1918 0
-2048 -2227 1919 0
-2048 -2228 1920 0
-2048 -2229 1921 0
-2048 -2230 1922 0
-2048 -2231 1923 0
-2048 -2232 1924 0
-2048 -2233 1925 0
-2048 -2234 1926 0
-2048 -2235 1927 0
-2048 -2236 1928 0
-2048 -2237 1929 0
-2048 -2238 1930 0
-2048 -2239 1931 0
-2048 -2240 1932 0
-2049 -2125 1818 0
-2049 -2126 1819 0
-2049 -2127 1820 0
-2049 -2128 1821 0
-2049 -2129 1822 0
-2049 -2130 1823 0
-2049 -2131 1824 0
-2049 -2132 1825 0
-2049 -2133 1826 0
-2049 -2134 1827 0
-2049 -2135 1828 0
-2049 -2136 1829 0
-2049 -2137 1830 0
-2049 -2138 1831 0
-2049 -2139 1832 0
-2049 -2140 1833 0
-2049 -2141 1834 0
-2049 -2142 1835 0
-2049 -2143 1836 0
-2049 -2144 1837 0
-2049 -2145 1838 0
-2049 -2146 1839 0
-2049 -2147 1840 0
-2049 -2148 1841 0
-2049 -2149 1842 0
-2049 -2150 1843 0
-2049 -2151 1844 0
-2049 -2152 1845 0
-2049 -2153 1846 0
-2049 -2154 1847 0
-2049 -2155 1848 0
-2049 -2156 1849 0
-2049 -2157 1850 0
-2049 -2158 1851 0
-2049 -2159 1852 0
-2049 -2160 1853 0
-2049 -2161 1854 0
-2049 -2162 1855 0
-2049 -2163 1856 0
-2049 -2164 1857 0
-2049 -2165 1858 0
-2049 -2166 1859 0
-2049 -2167 1860 0
-2049 -2168 1861 0
-2049 -2169 1862 0
-2049 -2170 1863 0
-2049 -2171 1864 0
-2049 -2172 1865 0
-2049 -2173 1866 0
-2049 -2174 1867 0
-2049 -2175 1868 0
-2049 -2176 1869 0
-2049 -2177 1870 0
-2049 -2178 1871 0
-2049 -2179 1872 0
-2049 -2180 1873 0
-2049 -2181 1874 0
-2049 -2182 1875 0
-2049 -2183 1876 0
-2049 -2184 1877 0
-2049 -2185 1878 0
-2049 -2186 1879 0
-2049 -2187 1880 0
-2049 -2188 1881 0
-2049 -2189 1882 0
-2049 -2190 1883 0
-2049 -2191 1884 0
-2049 -2192 1885 0
-2049 -2193 1886 0
-2049 -2194 1887 0
-2049 -2195 1888 0
-2049 -2196 1889 0
-2049 -2197 1890 0
-2049 -2198 1891 0
-2049 -2199 1892 0
-2049 -2200 1893 0
-2049 -2201 1894 0
-2049 -2202 1895 0
-2049 -2203 1896 0
-2049 -2204 1897 0
-2049 -2205 1898 0
-2049 -2206 1899 0
-2049 -2207 1900 0
-2049 -2208 1901 0
-2049 -2209 1902 0
-2049 -2210 1903 0
-2049 -2211 1904 0
-2049 -2212 1905 0
-2049 -2213 1906 0
-2049 -2214 1907 0
-2049 -2215 1908 0
-2049 -2216 1909 0
-2049 -2217 1910 0
-2049 -2218 1911 0
-2049 -2219 1912 0
-2049 -2220 1913 0
-2049 -2221 1914 0
-2049 -2222 1915 0
-2049 -2223 1916 0
-2049 -2224 1917 0
-2049 -2225 1918 0
-2049 -2226 1919 0
-2049 -2227 1920 0
-2049 -2228 1921 0
-2049 -2229 1922 0
-2049 -2230 1923 0
-2049 -2231 1924 0
-2049 -2232 1925 0
-2049 -2233 1926 0
-2049 -2234 1927 0
-2049 -2235 1928 0
-2049 -2236 1929 0
-2049 -2237 1930 0
-2049 -2238 1931 0
-2049 -2239 1932 0
-2049 -2240 1933 0
-2050 -2125 1819 0
-2050 -2126 1820 0
-2050 -2127 1821 0
-2050 -2128 1822 0
-2050 -2129 1823 0
-2050 -2130 1824 0
-2050 -2131 1825 0
-2050 -2132 1826 0
-2050 -2133 1827 0
-2050 -2134 1828 0
-2050 -2135 1829 0
-2050 -2136 1830 0
-2050 -2137 1831 0
-2050 -2138 1832 0
-2050 -2139 1833 0
-2050 -2140 1834 0
-2050 -2141 1835 0
-2050 -2142 1836 0
-2050 -2143 1837 0
-2050 -2144 1838 0
-2050 -2145 1839 0
-2050 -2146 1840 0
-2050 -2147 1841 0
-2050 -2148 1842 0
-2050 -2149 1843 0
-2050 -2150 1844 0
-2050 -2151 1845 0
-2050 -2152 1846 0
-2050 -2153 1847 0
-2050 -2154 1848 0
-2050 -2155 1849 0
-2050 -2156 1850 0
-2050 -2157 1851 0
-2050 -2158 1852 0
-2050 -2159 1853 0
-2050 -2160 1854 0
-2050 -2161 1855 0
-2050 -2162 1856 0
-2050 -2163 1857 0
-2050 -2164 1858 0
-2050 -2165 1859 0
-2050 -2166 1860 0
-2050 -2167 1861 0
-2050 -2168 1862 0
-2050 -2169 1863 0
-2050 -2170 1864 0
-2050 -2171 1865 0
-2050 -2172 1866 0
-2050 -2173 1867 0
-2050 -2174 1868 0
-2050 -2175 1869 0
-2050 -2176 1870 0
-2050 -2177 1871 0
-2050 -2178 1872 0
-2050 -2179 1873 0
-2050 -2180 1874 0
-2050 -2181 1875 0
-2050 -2182 1876 0
-2050 -2183 1877 0
-2050 -2184 1878 0
-2050 -2185 1879 0
-2050 -2186 1880 0
-2050 -2187 1881 0
-2050 -2188 1882 0
-2050 -2189 1883 0
-2050 -2190 1884 0
-2050 -2191 1885 0
-2050 -2192 1886 0
-2050 -2193 1887 0
-2050 -2194 1888 0
-2050 -2195 1889 0
-2050 -2196 1890 0
-2050 -2197 1891 0
-2050 -2198 1892 0
-2050 -2199 1893 0
-2050 -2200 1894 0
-2050 -2201 1895 0
-2050 -2202 1896 0
-2050 -2203 1897 0
-2050 -2204 1898 0
-2050 -2205 1899 0
-2050 -2206 1900 0
-2050 -2207 1901 0
-2050 -2208 1902 0
-2050 -2209 1903 0
-2050 -2210 1904 0
-2050 -2211 1905 0
-2050 -2212 1906 0
-2050 -2213 1907 0
-2050 -2214 1908 0
-2050 -2215 1909 0
-2050 -2216 1910 0
-2050 -2217 1911 0
-2050 -2218 1912 0
-2050 -2219 1913 0
-2050 -2220 1914 0
-2050 -2221 1915 0
-2050 -2222 1916 0
-2050 -2223 1917 0
-2050 -2224 1918 0
-2050 -2225 1919 0
-2050 -2226 1920 0
-2050 -2227 1921 0
-2050 -2228 1922 0
-2050 -2229 1923 0
-2050 -2230 1924 0
-2050 -2231 1925 0
-2050 -2232 1926 0
-2050 -2233 1927 0
-2050 -2234 1928 0
-2050 -2235 1929 0
-2050 -2236 1930 0
-2050 -2237 1931 0
-2050 -2238 1932 0
-2050 -2239 1933 0
-2050 -2240 1934 0
-2051 -2125 1820 0
-2051 -2126 1821 0
-2051 -2127 1822 0
-2051 -2128 1823 0
-2051 -2129 1824 0
-2051 -2130 1825 0
-2051 -2131 1826 0
-2051 -2132 1827 0
-2051 -2133 1828 0
-2051 -2134 1829 0
-2051 -2135 1830 0
-2051 -2136 1831 0
-2051 -2137 1832 0
-2051 -2138 1833 0
-2051 -2139 1834 0
-2051 -2140 1835 0
-2051 -2141 1836 0
-2051 -2142 1837 0
-2051 -2143 1838 0
-2051 -2144 1839 0
-2051 -2145 1840 0
-2051 -2146 1841 0
-2051 -2147 1842 0
-2051 -2148 1843 0
-2051 -2149 1844 0
-2051 -2150 1845 0
-2051 -2151 1846 0
-2051 -2152 1847 0
-2051 -2153 1848 0
-2051 -2154 1849 0
-2051 -2155 1850 0
-2051 -2156 1851 0
-2051 -2157 1852 0
-2051 -2158 1853 0
-2051 -2159 1854 0
-2051 -2160 1855 0
-2051 -2161 1856 0
-2051 -2162 1857 0
-2051 -2163 1858 0
-2051 -2164 1859 0
-2051 -2165 1860 0
-2051 -2166 1861 0
-2051 -2167 1862 0
-2051 -2168 1863 0
-2051 -2169 1864 0
-2051 -2170 1865 0
-2051 -2171 1866 0
-2051 -2172 1867 0
-2051 -2173 1868 0
-2051 -2174 1869 0
-2051 -2175 1870 0
-2051 -2176 1871 0
-2051 -2177 1872 0
-2051 -2178 1873 0
-2051 -2179 1874 0
-2051 -2180 1875 0
-2051 -2181 1876 0
-2051 -2182 1877 0
-2051 -2183 1878 0
-2051 -2184 1879 0
-2051 -2185 1880 0
-2051 -2186 1881 0
-2051 -2187 1882 0
-2051 -2188 1883 0
-2051 -2189 1884 0
-2051 -2190 1885 0
-2051 -2191 1886 0
-2051 -2192 1887 0
-2051 -2193 1888 0
-2051 -2194 1889 0
-2051 -2195 1890 0
-2051 -2196 1891 0
-2051 -2197 1892 0
-2051 -2198 1893 0
-2051 -2199 1894 0
-2051 -2200 1895 0
-2051 -2201 1896 0
-2051 -2202 1897 0
-2051 -2203 1898 0
-2051 -2204 1899 0
-2051 -2205 1900 0
-2051 -2206 1901 0
-2051 -2207 1902 0
-2051 -2208 1903 0
-2051 -2209 1904 0
-2051 -2210 1905 0
-2051 -2211 1906 0
-2051 -2212 1907 0
-2051 -2213 1908 0
-2051 -2214 1909 0
-2051 -2215 1910 0
-2051 -2216 1911 0
-2051 -2217 1912 0
-2051 -2218 1913 0
-2051 -2219 1914 0
-2051 -2220 1915 0
-2051 -2221 1916 0
-2051 -2222 1917 0
-2051 -2223 1918 0
-2051 -2224 1919 0
-2051 -2225 1920 0
-2051 -2226 1921 0
-2051 -2227 1922 0
-2051 -2228 1923 0
-2051 -2229 1924 0
-2051 -2230 1925 0
-2051 -2231 1926 0
-2051 -2232 1927 0
-2051 -2233 1928 0
-2051 -2234 1929 0
-2051 -2235 1930 0
-2051 -2236 1931 0
-2051 -2237 1932 0
-2051 -2238 1933 0
-2051 -2239 1934 0
-2051 -2240 1935 0
-2052 -2125 1821 0
-2052 -2126 1822 0
-2052 -2127 1823 0
-2052 -2128 1824 0
-2052 -2129 1825 0
-2052 -2130 1826 0
-2052 -2131 1827 0
-2052 -2132 1828 0
-2052 -2133 1829 0
-2052 -2134 1830 0
-2052 -2135 1831 0
-2052 -2136 1832 0
-2052 -2137 1833 0
-2052 -2138 1834 0
-2052 -2139 1835 0
-2052 -2140 1836 0
-2052 -2141 1837 0
-2052 -2142 1838 0
-2052 -2143 1839 0
-2052 -2144 1840 0
-2052 -2145 1841 0
-2052 -2146 1842 0
-2052 -2147 1843 0
-2052 -2148 1844 0
-2052 -2149 1845 0
-2052 -2150 1846 0
-2052 -2151 1847 0
-2052 -2152 1848 0
-2052 -2153 1849 0
-2052 -2154 1850 0
-2052 -2155 1851 0
-2052 -2156 1852 0
-2052 -2157 1853 0
-2052 -2158 1854 0
-2052 -2159 1855 0
-2052 -2160 1856 0
-2052 -2161 1857 0
-2052 -2162 1858 0
-2052 -2163 1859 0
-2052 -2164 1860 0
-2052 -2165 1861 0
-2052 -2166 1862 0
-2052 -2167 1863 0
-2052 -2168 1864 0
-2052 -2169 1865 0
-2052 -2170 1866 0
-2052 -2171 1867 0
-2052 -2172 1868 0
-2052 -2173 1869 0
-2052 -2174 1870 0
-2052 -2175 1871 0
-2052 -2176 1872 0
-2052 -2177 1873 0
-2052 -2178 1874 0
-2052 -2179 1875 0
-2052 -2180 1876 0
-2052 -2181 1877 0
-2052 -2182 1878 0
-2052 -2183 1879 0
-2052 -2184 1880 0
-2052 -2185 1881 0
-2052 -2186 1882 0
-2052 -2187 1883 0
-2052 -2188 1884 0
-2052 -2189 1885 0
-2052 -2190 1886 0
-2052 -2191 1887 0
-2052 -2192 1888 0
-2052 -2193 1889 0
-2052 -2194 1890 0
-2052 -2195 1891 0
-2052 -2196 1892 0
-2052 -2197 1893 0
-2052 -2198 1894 0
-2052 -2199 1895 0
-2052 -2200 1896 0
-2052 -2201 1897 0
-2052 -2202 1898 0
-2052 -2203 1899 0
-2052 -2204 1900 0
-2052 -2205 1901 0
-2052 -2206 1902 0
-2052 -2207 1903 0
-2052 -2208 1904 0
-2052 -2209 1905 0
-2052 -2210 1906 0
-2052 -2211 1907 0
-2052 -2212 1908 0
-2052 -2213 1909 0
-2052 -2214 1910 0
-2052 -2215 1911 0
-2052 -2216 1912 0
-2052 -2217 1913 0
-2052 -2218 1914 0
-2052 -2219 1915 0
-2052 -2220 1916 0
-2052 -2221 1917 0
-2052 -2222 1918 0
-2052 -2223 1919 0
-2052 -2224 1920 0
-2052 -2225 1921 0
-2052 -2226 1922 0
-2052 -2227 1923 0
-2052 -2228 1924 0
-2052 -2229 1925 0
-2052 -2230 1926 0
-2052 -2231 1927 0
-2052 -2232 1928 0
-2052 -2233 1929 0
-2052 -2234 1930 0
-2052 -2235 1931 0
-2052 -2236 1932 0
-2052 -2237 1933 0
-2052 -2238 1934 0
-2052 -2239 1935 0
-2052 -2240 1936 0
-2053 -2125 1822 0
-2053 -2126 1823 0
-2053 -2127 1824 0
-2053 -2128 1825 0
-2053 -2129 1826 0
-2053 -2130 1827 0
-2053 -2131 1828 0
-2053 -2132 1829 0
-2053 -2133 1830 0
-2053 -2134 1831 0
-2053 -2135 1832 0
-2053 -2136 1833 0
-2053 -2137 1834 0
-2053 -2138 1835 0
-2053 -2139 1836 0
-2053 -2140 1837 0
-2053 -2141 1838 0
-2053 -2142 1839 0
-2053 -2143 1840 0
-2053 -2144 1841 0
-2053 -2145 1842 0
-2053 -2146 1843 0
-2053 -2147 1844 0
-2053 -2148 1845 0
-2053 -2149 1846 0
-2053 -2150 1847 0
-2053 -2151 1848 0
-2053 -2152 1849 0
-2053 -2153 1850 0
-2053 -2154 1851 0
-2053 -2155 1852 0
-2053 -2156 1853 0
-2053 -2157 1854 0
-2053 -2158 1855 0
-2053 -2159 1856 0
-2053 -2160 1857 0
-2053 -2161 1858 0
-2053 -2162 1859 0
-2053 -2163 1860 0
-2053 -2164 1861 0
-2053 -2165 1862 0
-2053 -2166 1863 0
-2053 -2167 1864 0
-2053 -2168 1865 0
-2053 -2169 1866 0
-2053 -2170 1867 0
-2053 -2171 1868 0
-2053 -2172 1869 0
-2053 -2173 1870 0
-2053 -2174 1871 0
-2053 -2175 1872 0
-2053 -2176 1873 0
-2053 -2177 1874 0
-2053 -2178 1875 0
-2053 -2179 1876 0
-2053 -2180 1877 0
-2053 -2181 1878 0
-2053 -2182 1879 0
-2053 -2183 1880 0
-2053 -2184 1881 0
-2053 -2185 1882 0
-2053 -2186 1883 0
-2053 -2187 1884 0
-2053 -2188 1885 0
-2053 -2189 1886 0
-2053 -2190 1887 0
-2053 -2191 1888 0
-2053 -2192 1889 0
-2053 -2193 1890 0
-2053 -2194 1891 0
-2053 -2195 1892 0
-2053 -2196 1893 0
-2053 -2197 1894 0
-2053 -2198 1895 0
-2053 -2199 1896 0
-2053 -2200 1897 0
-2053 -2201 1898 0
-2053 -2202 1899 0
-2053 -2203 1900 0
-2053 -2204 1901 0
-2053 -2205 1902 0
-2053 -2206 1903 0
-2053 -2207 1904 0
-2053 -2208 1905 0
-2053 -2209 1906 0
-2053 -2210 1907 0
-2053 -2211 1908 0
-2053 -2212 1909 0
-2053 -2213 1910 0
-2053 -2214 1911 0
-2053 -2215 1912 0
-2053 -2216 1913 0
-2053 -2217 1914 0
-2053 -2218 1915 0
-2053 -2219 1916 0
-2053 -2220 1917 0
-2053 -2221 1918 0
-2053 -2222 1919 0
-2053 -2223 1920 0
-2053 -2224 1921 0
-2053 -2225 1922 0
-2053 -2226 1923 0
-2053 -2227 1924 0
-2053 -2228 1925 0
-2053 -2229 1926 0
-2053 -2230 1927 0
-2053 -2231 1928 0
-2053 -2232 1929 0
-2053 -2233 1930 0
-2053 -2234 1931 0
-2053 -2235 1932 0
-2053 -2236 1933 0
-2053 -2237 1934 0
-2053 -2238 1935 0
-2053 -2239 1936 0
-2053 -2240 1937 0
-2054 -2125 1823 0
-2054 -2126 1824 0
-2054 -2127 1825 0
-2054 -2128 1826 0
-2054 -2129 1827 0
-2054 -2130 1828 0
-2054 -2131 1829 0
-2054 -2132 1830 0
-2054 -2133 1831 0
-2054 -2134 1832 0
-2054 -2135 1833 0
-2054 -2136 1834 0
-2054 -2137 1835 0
-2054 -2138 1836 0
-2054 -2139 1837 0
-2054 -2140 1838 0
-2054 -2141 1839 0
-2054 -2142 1840 0
-2054 -2143 1841 0
-2054 -2144 1842 0
-2054 -2145 1843 0
-2054 -2146 1844 0
-2054 -2147 1845 0
-2054 -2148 1846 0
-2054 -2149 1847 0
-2054 -2150 1848 0
-2054 -2151 1849 0
-2054 -2152 1850 0
-2054 -2153 1851 0
-2054 -2154 1852 0
-2054 -2155 1853 0
-2054 -2156 1854 0
-2054 -2157 1855 0
-2054 -2158 1856 0
-2054 -2159 1857 0
-2054 -2160 1858 0
-2054 -2161 1859 0
-2054 -2162 1860 0
-2054 -2163 1861 0
-2054 -2164 1862 0
-2054 -2165 1863 0
-2054 -2166 1864 0
-2054 -2167 1865 0
-2054 -2168 1866 0
-2054 -2169 1867 0
-2054 -2170 1868 0
-2054 -2171 1869 0
-2054 -2172 1870 0
-2054 -2173 1871 0
-2054 -2174 1872 0
-2054 -2175 1873 0
-2054 -2176 1874 0
-2054 -2177 1875 0
-2054 -2178 1876 0
-2054 -2179 1877 0
-2054 -2180 1878 0
-2054 -2181 1879 0
-2054 -2182 1880 0
-2054 -2183 1881 0
-2054 -2184 1882 0
-2054 -2185 1883 0
-2054 -2186 1884 0
-2054 -2187 1885 0
-2054 -2188 1886 0
-2054 -2189 1887 0
-2054 -2190 1888 0
-2054 -2191 1889 0
-2054 -2192 1890 0
-2054 -2193 1891 0
-2054 -2194 1892 0
-2054 -2195 1893 0
-2054 -2196 1894 0
-2054 -2197 1895 0
-2054 -2198 1896 0
-2054 -2199 1897 0
-2054 -2200 1898 0
-2054 -2201 1899 0
-2054 -2202 1900 0
-2054 -2203 1901 0
-2054 -2204 1902 0
-2054 -2205 1903 0
-2054 -2206 1904 0
-2054 -2207 1905 0
-2054 -2208 1906 0
-2054 -2209 1907 0
-2054 -2210 1908 0
-2054 -2211 1909 0
-2054 -2212 1910 0
-2054 -2213 1911 0
-2054 -2214 1912 0
-2054 -2215 1913 0
-2054 -2216 1914 0
-2054 -2217 1915 0
-2054 -2218 1916 0
-2054 -2219 1917 0
-2054 -2220 1918 0
-2054 -2221 1919 0
-2054 -2222 1920 0
-2054 -2223 1921 0
-2054 -2224 1922 0
-2054 -2225 1923 0
-2054 -2226 1924 0
-2054 -2227 1925 0
-2054 -2228 1926 0
-2054 -2229 1927 0
-2054 -2230 1928 0
-2054 -2231 1929 0
-2054 -2232 1930 0
-2054 -2233 1931 0
-2054 -2234 1932 0
-2054 -2235 1933 0
-2054 -2236 1934 0
-2054 -2237 1935 0
-2054 -2238 1936 0
-2054 -2239 1937 0
-2054 -2240 1938 0
-2055 -2125 1824 0
-2055 -2126 1825 0
-2055 -2127 1826 0
-2055 -2128 1827 0
-2055 -2129 1828 0
-2055 -2130 1829 0
-2055 -2131 1830 0
-2055 -2132 1831 0
-2055 -2133 1832 0
-2055 -2134 1833 0
-2055 -2135 1834 0
-2055 -2136 1835 0
-2055 -2137 1836 0
-2055 -2138 1837 0
-2055 -2139 1838 0
-2055 -2140 1839 0
-2055 -2141 1840 0
-2055 -2142 1841 0
-2055 -2143 1842 0
-2055 -2144 1843 0
-2055 -2145 1844 0
-2055 -2146 1845 0
-2055 -2147 1846 0
-2055 -2148 1847 0
-2055 -2149 1848 0
-2055 -2150 1849 0
-2055 -2151 1850 0
-2055 -2152 1851 0
-2055 -2153 1852 0
-2055 -2154 1853 0
-2055 -2155 1854 0
-2055 -2156 1855 0
-2055 -2157 1856 0
-2055 -2158 1857 0
-2055 -2159 1858 0
-2055 -2160 1859 0
-2055 -2161 1860 0
-2055 -2162 1861 0
-2055 -2163 1862 0
-2055 -2164 1863 0
-2055 -2165 1864 0
-2055 -2166 1865 0
-2055 -2167 1866 0
-2055 -2168 1867 0
-2055 -2169 1868 0
-2055 -2170 1869 0
-2055 -2171 1870 0
-2055 -2172 1871 0
-2055 -2173 1872 0
-2055 -2174 1873 0
-2055 -2175 1874 0
-2055 -2176 1875 0
-2055 -2177 1876 0
-2055 -2178 1877 0
-2055 -2179 1878 0
-2055 -2180 1879 0
-2055 -2181 1880 0
-2055 -2182 1881 0
-2055 -2183 1882 0
-2055 -2184 1883 0
-2055 -2185 1884 0
-2055 -2186 1885 0
-2055 -2187 1886 0
-2055 -2188 1887 0
-2055 -2189 1888 0
-2055 -2190 1889 0
-2055 -2191 1890 0
-2055 -2192 1891 0
-2055 -2193 1892 0
-2055 -2194 1893 0
-2055 -2195 1894 0
-2055 -2196 1895 0
-2055 -2197 1896 0
-2055 -2198 1897 0
-2055 -2199 1898 0
-2055 -2200 1899 0
-2055 -2201 1900 0
-2055 -2202 1901 0
-2055 -2203 1902 0
-2055 -2204 1903 0
-2055 -2205 1904 0
-2055 -2206 1905 0
-2055 -2207 1906 0
-2055 -2208 1907 0
-2055 -2209 1908 0
-2055 -2210 1909 0
-2055 -2211 1910 0
-2055 -2212 1911 0
-2055 -2213 1912 0
-2055 -2214 1913 0
-2055 -2215 1914 0
-2055 -2216 1915 0
-2055 -2217 1916 0
-2055 -2218 1917 0
-2055 -2219 1918 0
-2055 -2220 1919 0
-2055 -2221 1920 0
-2055 -2222 1921 0
-2055 -2223 1922 0
-2055 -2224 1923 0
-2055 -2225 1924 0
-2055 -2226 1925 0
-2055 -2227 1926 0
-2055 -2228 1927 0
-2055 -2229 1928 0
-2055 -2230 1929 0
-2055 -2231 1930 0
-2055 -2232 1931 0
-2055 -2233 1932 0
-2055 -2234 1933 0
-2055 -2235 1934 0
-2055 -2236 1935 0
-2055 -2237 1936 0
-2055 -2238 1937 0
-2055 -2239 1938 0
-2055 -2240 1939 0
-2056 -2125 1825 0
-2056 -2126 1826 0
-2056 -2127 1827 0
-2056 -2128 1828 0
-2056 -2129 1829 0
-2056 -2130 1830 0
-2056 -2131 1831 0
-2056 -2132 1832 0
-2056 -2133 1833 0
-2056 -2134 1834 0
-2056 -2135 1835 0
-2056 -2136 1836 0
-2056 -2137 1837 0
-2056 -2138 1838 0
-2056 -2139 1839 0
-2056 -2140 1840 0
-2056 -2141 1841 0
-2056 -2142 1842 0
-2056 -2143 1843 0
-2056 -2144 1844 0
-2056 -2145 1845 0
-2056 -2146 1846 0
-2056 -2147 1847 0
-2056 -2148 1848 0
-2056 -2149 1849 0
-2056 -2150 1850 0
-2056 -2151 1851 0
-2056 -2152 1852 0
-2056 -2153 1853 0
-2056 -2154 1854 0
-2056 -2155 1855 0
-2056 -2156 1856 0
-2056 -2157 1857 0
-2056 -2158 1858 0
-2056 -2159 1859 0
-2056 -2160 1860 0
-2056 -2161 1861 0
-2056 -2162 1862 0
-2056 -2163 1863 0
-2056 -2164 1864 0
-2056 -2165 1865 0
-2056 -2166 1866 0
-2056 -2167 1867 0
-2056 -2168 1868 0
-2056 -2169 1869 0
-2056 -2170 1870 0
-2056 -2171 1871 0
-2056 -2172 1872 0
-2056 -2173 1873 0
-2056 -2174 1874 0
-2056 -2175 1875 0
-2056 -2176 1876 0
-2056 -2177 1877 0
-2056 -2178 1878 0
-2056 -2179 1879 0
-2056 -2180 1880 0
-2056 -2181 1881 0
-2056 -2182 1882 0
-2056 -2183 1883 0
-2056 -2184 1884 0
-2056 -2185 1885 0
-2056 -2186 1886 0
-2056 -2187 1887 0
-2056 -2188 1888 0
-2056 -2189 1889 0
-2056 -2190 1890 0
-2056 -2191 1891 0
-2056 -2192 1892 0
-2056 -2193 1893 0
-2056 -2194 1894 0
-2056 -2195 1895 0
-2056 -2196 1896 0
-2056 -2197 1897 0
-2056 -2198 1898 0
-2056 -2199 1899 0
-2056 -2200 1900 0
-2056 -2201 1901 0
-2056 -2202 1902 0
-2056 -2203 1903 0
-2056 -2204 1904 0
-2056 -2205 1905 0
-2056 -2206 1906 0
-2056 -2207 1907 0
-2056 -2208 1908 0
-2056 -2209 1909 0
-2056 -2210 1910 0
-2056 -2211 1911 0
-2056 -2212 1912 0
-2056 -2213 1913 0
-2056 -2214 1914 0
-2056 -2215 1915 0
-2056 -2216 1916 0
-2056 -2217 1917 0
-2056 -2218 1918 0
-2056 -2219 1919 0
-2056 -2220 1920 0
-2056 -2221 1921 0
-2056 -2222 1922 0
-2056 -2223 1923 0
-2056 -2224 1924 0
-2056 -2225 1925 0
-2056 -2226 1926 0
-2056 -2227 1927 0
-2056 -2228 1928 0
-2056 -2229 1929 0
-2056 -2230 1930 0
-2056 -2231 1931 0
-2056 -2232 1932 0
-2056 -2233 1933 0
-2056 -2234 1934 0
-2056 -2235 1935 0
-2056 -2236 1936 0
-2056 -2237 1937 0
-2056 -2238 1938 0
-2056 -2239 1939 0
-2056 -2240 1940 0
-2057 -2125 1826 0
-2057 -2126 1827 0
-2057 -2127 1828 0
-2057 -2128 1829 0
-2057 -2129 1830 0
-2057 -2130 1831 0
-2057 -2131 1832 0
-2057 -2132 1833 0
-2057 -2133 1834 0
-2057 -2134 1835 0
-2057 -2135 1836 0
-2057 -2136 1837 0
-2057 -2137 1838 0
-2057 -2138 1839 0
-2057 -2139 1840 0
-2057 -2140 1841 0
-2057 -2141 1842 0
-2057 -2142 1843 0
-2057 -2143 1844 0
-2057 -2144 1845 0
-2057 -2145 1846 0
-2057 -2146 1847 0
-2057 -2147 1848 0
-2057 -2148 1849 0
-2057 -2149 1850 0
-2057 -2150 1851 0
-2057 -2151 1852 0
-2057 -2152 1853 0
-2057 -2153 1854 0
-2057 -2154 1855 0
-2057 -2155 1856 0
-2057 -2156 1857 0
-2057 -2157 1858 0
-2057 -2158 1859 0
-2057 -2159 1860 0
-2057 -2160 1861 0
-2057 -2161 1862 0
-2057 -2162 1863 0
-2057 -2163 1864 0
-2057 -2164 1865 0
-2057 -2165 1866 0
-2057 -2166 1867 0
-2057 -2167 1868 0
-2057 -2168 1869 0
-2057 -2169 1870 0
-2057 -2170 1871 0
-2057 -2171 1872 0
-2057 -2172 1873 0
-2057 -2173 1874 0
-2057 -2174 1875 0
-2057 -2175 1876 0
-2057 -2176 1877 0
-2057 -2177 1878 0
-2057 -2178 1879 0
-2057 -2179 1880 0
-2057 -2180 1881 0
-2057 -2181 1882 0
-2057 -2182 1883 0
-2057 -2183 1884 0
-2057 -2184 1885 0
-2057 -2185 1886 0
-2057 -2186 1887 0
-2057 -2187 1888 0
-2057 -2188 1889 0
-2057 -2189 1890 0
-2057 -2190 1891 0
-2057 -2191 1892 0
-2057 -2192 1893 0
-2057 -2193 1894 0
-2057 -2194 1895 0
-2057 -2195 1896 0
-2057 -2196 1897 0
-2057 -2197 1898 0
-2057 -2198 1899 0
-2057 -2199 1900 0
-2057 -2200 1901 0
-2057 -2201 1902 0
-2057 -2202 1903 0
-2057 -2203 1904 0
-2057 -2204 1905 0
-2057 -2205 1906 0
-2057 -2206 1907 0
-2057 -2207 1908 0
-2057 -2208 1909 0
-2057 -2209 1910 0
-2057 -2210 1911 0
-2057 -2211 1912 0
-2057 -2212 1913 0
-2057 -2213 1914 0
-2057 -2214 1915 0
-2057 -2215 1916 0
-2057 -2216 1917 0
-2057 -2217 1918 0
-2057 -2218 1919 0
-2057 -2219 1920 0
-2057 -2220 1921 0
-2057 -2221 1922 0
-2057 -2222 1923 0
-2057 -2223 1924 0
-2057 -2224 1925 0
-2057 -2225 1926 0
-2057 -2226 1927 0
-2057 -2227 1928 0
-2057 -2228 1929 0
-2057 -2229 1930 0
-2057 -2230 1931 0
-2057 -2231 1932 0
-2057 -2232 1933 0
-2057 -2233 1934 0
-2057 -2234 1935 0
-2057 -2235 1936 0
-2057 -2236 1937 0
-2057 -2237 1938 0
-2057 -2238 1939 0
-2057 -2239 1940 0
-2057 -2240 1941 0
-2058 -2125 1827 0
-2058 -2126 1828 0
-2058 -2127 1829 0
-2058 -2128 1830 0
-2058 -2129 1831 0
-2058 -2130 1832 0
-2058 -2131 1833 0
-2058 -2132 1834 0
-2058 -2133 1835 0
-2058 -2134 1836 0
-2058 -2135 1837 0
-2058 -2136 1838 0
-2058 -2137 1839 0
-2058 -2138 1840 0
-2058 -2139 1841 0
-2058 -2140 1842 0
-2058 -2141 1843 0
-2058 -2142 1844 0
-2058 -2143 1845 0
-2058 -2144 1846 0
-2058 -2145 1847 0
-2058 -2146 1848 0
-2058 -2147 1849 0
-2058 -2148 1850 0
-2058 -2149 1851 0
-2058 -2150 1852 0
-2058 -2151 1853 0
-2058 -2152 1854 0
-2058 -2153 1855 0
-2058 -2154 1856 0
-2058 -2155 1857 0
-2058 -2156 1858 0
-2058 -2157 1859 0
-2058 -2158 1860 0
-2058 -2159 1861 0
-2058 -2160 1862 0
-2058 -2161 1863 0
-2058 -2162 1864 0
-2058 -2163 1865 0
-2058 -2164 1866 0
-2058 -2165 1867 0
-2058 -2166 1868 0
-2058 -2167 1869 0
-2058 -2168 1870 0
-2058 -2169 1871 0
-2058 -2170 1872 0
-2058 -2171 1873 0
-2058 -2172 1874 0
-2058 -2173 1875 0
-2058 -2174 1876 0
-2058 -2175 1877 0
-2058 -2176 1878 0
-2058 -2177 1879 0
-2058 -2178 1880 0
-2058 -2179 1881 0
-2058 -2180 1882 0
-2058 -2181 1883 0
-2058 -2182 1884 0
-2058 -2183 1885 0
-2058 -2184 1886 0
-2058 -2185 1887 0
-2058 -2186 1888 0
-2058 -2187 1889 0
-2058 -2188 1890 0
-2058 -2189 1891 0
-2058 -2190 1892 0
-2058 -2191 1893 0
-2058 -2192 1894 0
-2058 -2193 1895 0
-2058 -2194 1896 0
-2058 -2195 1897 0
-2058 -2196 1898 0
-2058 -2197 1899 0
-2058 -2198 1900 0
-2058 -2199 1901 0
-2058 -2200 1902 0
-2058 -2201 1903 0
-2058 -2202 1904 0
-2058 -2203 1905 0
-2058 -2204 1906 0
-2058 -2205 1907 0
-2058 -2206 1908 0
-2058 -2207 1909 0
-2058 -2208 1910 0
-2058 -2209 1911 0
-2058 -2210 1912 0
-2058 -2211 1913 0
-2058 -2212 1914 0
-2058 -2213 1915 0
-2058 -2214 1916 0
-2058 -2215 1917 0
-2058 -2216 1918 0
-2058 -2217 1919 0
-2058 -2218 1920 0
-2058 -2219 1921 0
-2058 -2220 1922 0
-2058 -2221 1923 0
-2058 -2222 1924 0
-2058 -2223 1925 0
-2058 -2224 1926 0
-2058 -2225 1927 0
-2058 -2226 1928 0
-2058 -2227 1929 0
-2058 -2228 1930 0
-2058 -2229 1931 0
-2058 -2230 1932 0
-2058 -2231 1933 0
-2058 -2232 1934 0
-2058 -2233 1935 0
-2058 -2234 1936 0
-2058 -2235 1937 0
-2058 -2236 1938 0
-2058 -2237 1939 0
-2058 -2238 1940 0
-2058 -2239 1941 0
-2058 -2240 1942 0
-2059 -2125 1828 0
-2059 -2126 1829 0
-2059 -2127 1830 0
-2059 -2128 1831 0
-2059 -2129 1832 0
-2059 -2130 1833 0
-2059 -2131 1834 0
-2059 -2132 1835 0
-2059 -2133 1836 0
-2059 -2134 1837 0
-2059 -2135 1838 0
-2059 -2136 1839 0
-2059 -2137 1840 0
-2059 -2138 1841 0
-2059 -2139 1842 0
-2059 -2140 1843 0
-2059 -2141 1844 0
-2059 -2142 1845 0
-2059 -2143 1846 0
-2059 -2144 1847 0
-2059 -2145 1848 0
-2059 -2146 1849 0
-2059 -2147 1850 0
-2059 -2148 1851 0
-2059 -2149 1852 0
-2059 -2150 1853 0
-2059 -2151 1854 0
-2059 -2152 1855 0
-2059 -2153 1856 0
-2059 -2154 1857 0
-2059 -2155 1858 0
-2059 -2156 1859 0
-2059 -2157 1860 0
-2059 -2158 1861 0
-2059 -2159 1862 0
-2059 -2160 1863 0
-2059 -2161 1864 0
-2059 -2162 1865 0
-2059 -2163 1866 0
-2059 -2164 1867 0
-2059 -2165 1868 0
-2059 -2166 1869 0
-2059 -2167 1870 0
-2059 -2168 1871 0
-2059 -2169 1872 0
-2059 -2170 1873 0
-2059 -2171 1874 0
-2059 -2172 1875 0
-2059 -2173 1876 0
-2059 -2174 1877 0
-2059 -2175 1878 0
-2059 -2176 1879 0
-2059 -2177 1880 0
-2059 -2178 1881 0
-2059 -2179 1882 0
-2059 -2180 1883 0
-2059 -2181 1884 0
-2059 -2182 1885 0
-2059 -2183 1886 0
-2059 -2184 1887 0
-2059 -2185 1888 0
-2059 -2186 1889 0
-2059 -2187 1890 0
-2059 -2188 1891 0
-2059 -2189 1892 0
-2059 -2190 1893 0
-2059 -2191 1894 0
-2059 -2192 1895 0
-2059 -2193 1896 0
-2059 -2194 1897 0
-2059 -2195 1898 0
-2059 -2196 1899 0
-2059 -2197 1900 0
-2059 -2198 1901 0
-2059 -2199 1902 0
-2059 -2200 1903 0
-2059 -2201 1904 0
-2059 -2202 1905 0
-2059 -2203 1906 0
-2059 -2204 1907 0
-2059 -2205 1908 0
-2059 -2206 1909 0
-2059 -2207 1910 0
-2059 -2208 1911 0
-2059 -2209 1912 0
-2059 -2210 1913 0
-2059 -2211 1914 0
-2059 -2212 1915 0
-2059 -2213 1916 0
-2059 -2214 1917 0
-2059 -2215 1918 0
-2059 -2216 1919 0
-2059 -2217 1920 0
-2059 -2218 1921 0
-2059 -2219 1922 0
-2059 -2220 1923 0
-2059 -2221 1924 0
-2059 -2222 1925 0
-2059 -2223 1926 0
-2059 -2224 1927 0
-2059 -2225 1928 0
-2059 -2226 1929 0
-2059 -2227 1930 0
-2059 -2228 1931 0
-2059 -2229 1932 0
-2059 -2230 1933 0
-2059 -2231 1934 0
-2059 -2232 1935 0
-2059 -2233 1936 0
-2059 -2234 1937 0
-2059 -2235 1938 0
-2059 -2236 1939 0
-2059 -2237 1940 0
-2059 -2238 1941 0
-2059 -2239 1942 0
-2059 -2240 1943 0
-2060 -2125 1829 0
-2060 -2126 1830 0
-2060 -2127 1831 0
-2060 -2128 1832 0
-2060 -2129 1833 0
-2060 -2130 1834 0
-2060 -2131 1835 0
-2060 -2132 1836 0
-2060 -2133 1837 0
-2060 -2134 1838 0
-2060 -2135 1839 0
-2060 -2136 1840 0
-2060 -2137 1841 0
-2060 -2138 1842 0
-2060 -2139 1843 0
-2060 -2140 1844 0
-2060 -2141 1845 0
-2060 -2142 1846 0
-2060 -2143 1847 0
-2060 -2144 1848 0
-2060 -2145 1849 0
-2060 -2146 1850 0
-2060 -2147 1851 0
-2060 -2148 1852 0
-2060 -2149 1853 0
-2060 -2150 1854 0
-2060 -2151 1855 0
-2060 -2152 1856 0
-2060 -2153 1857 0
-2060 -2154 1858 0
-2060 -2155 1859 0
-2060 -2156 1860 0
-2060 -2157 1861 0
-2060 -2158 1862 0
-2060 -2159 1863 0
-2060 -2160 1864 0
-2060 -2161 1865 0
-2060 -2162 1866 0
-2060 -2163 1867 0
-2060 -2164 1868 0
-2060 -2165 1869 0
-2060 -2166 1870 0
-2060 -2167 1871 0
-2060 -2168 1872 0
-2060 -2169 1873 0
-2060 -2170 1874 0
-2060 -2171 1875 0
-2060 -2172 1876 0
-2060 -2173 1877 0
-2060 -2174 1878 0
-2060 -2175 1879 0
-2060 -2176 1880 0
-2060 -2177 1881 0
-2060 -2178 1882 0
-2060 -2179 1883 0
-2060 -2180 1884 0
-2060 -2181 1885 0
-2060 -2182 1886 0
-2060 -2183 1887 0
-2060 -2184 1888 0
-2060 -2185 1889 0
-2060 -2186 1890 0
-2060 -2187 1891 0
-2060 -2188 1892 0
-2060 -2189 1893 0
-2060 -2190 1894 0
-2060 -2191 1895 0
-2060 -2192 1896 0
-2060 -2193 1897 0
-2060 -2194 1898 0
-2060 -2195 1899 0
-2060 -2196 1900 0
-2060 -2197 1901 0
-2060 -2198 1902 0
-2060 -2199 1903 0
-2060 -2200 1904 0
-2060 -2201 1905 0
-2060 -2202 1906 0
-2060 -2203 1907 0
-2060 -2204 1908 0
-2060 -2205 1909 0
-2060 -2206 1910 0
-2060 -2207 1911 0
-2060 -2208 1912 0
-2060 -2209 1913 0
-2060 -2210 1914 0
-2060 -2211 1915 0
-2060 -2212 1916 0
-2060 -2213 1917 0
-2060 -2214 1918 0
-2060 -2215 1919 0
-2060 -2216 1920 0
-2060 -2217 1921 0
-2060 -2218 1922 0
-2060 -2219 1923 0
-2060 -2220 1924 0
-2060 -2221 1925 0
-2060 -2222 1926 0
-2060 -2223 1927 0
-2060 -2224 1928 0
-2060 -2225 1929 0
-2060 -2226 1930 0
-2060 -2227 1931 0
-2060 -2228 1932 0
-2060 -2229 1933 0
-2060 -2230 1934 0
-2060 -2231 1935 0
-2060 -2232 1936 0
-2060 -2233 1937 0
-2060 -2234 1938 0
-2060 -2235 1939 0
-2060 -2236 1940 0
-2060 -2237 1941 0
-2060 -2238 1942 0
-2060 -2239 1943 0
-2060 -2240 1944 0
-2061 -2125 1830 0
-2061 -2126 1831 0
-2061 -2127 1832 0
-2061 -2128 1833 0
-2061 -2129 1834 0
-2061 -2130 1835 0
-2061 -2131 1836 0
-2061 -2132 1837 0
-2061 -2133 1838 0
-2061 -2134 1839 0
-2061 -2135 1840 0
-2061 -2136 1841 0
-2061 -2137 1842 0
-2061 -2138 1843 0
-2061 -2139 1844 0
-2061 -2140 1845 0
-2061 -2141 1846 0
-2061 -2142 1847 0
-2061 -2143 1848 0
-2061 -2144 1849 0
-2061 -2145 1850 0
-2061 -2146 1851 0
-2061 -2147 1852 0
-2061 -2148 1853 0
-2061 -2149 1854 0
-2061 -2150 1855 0
-2061 -2151 1856 0
-2061 -2152 1857 0
-2061 -2153 1858 0
-2061 -2154 1859 0
-2061 -2155 1860 0
-2061 -2156 1861 0
-2061 -2157 1862 0
-2061 -2158 1863 0
-2061 -2159 1864 0
-2061 -2160 1865 0
-2061 -2161 1866 0
-2061 -2162 1867 0
-2061 -2163 1868 0
-2061 -2164 1869 0
-2061 -2165 1870 0
-2061 -2166 1871 0
-2061 -2167 1872 0
-2061 -2168 1873 0
-2061 -2169 1874 0
-2061 -2170 1875 0
-2061 -2171 1876 0
-2061 -2172 1877 0
-2061 -2173 1878 0
-2061 -2174 1879 0
-2061 -2175 1880 0
-2061 -2176 1881 0
-2061 -2177 1882 0
-2061 -2178 1883 0
-2061 -2179 1884 0
-2061 -2180 1885 0
-2061 -2181 1886 0
-2061 -2182 1887 0
-2061 -2183 1888 0
-2061 -2184 1889 0
-2061 -2185 1890 0
-2061 -2186 1891 0
-2061 -2187 1892 0
-2061 -2188 1893 0
-2061 -2189 1894 0
-2061 -2190 1895 0
-2061 -2191 1896 0
-2061 -2192 1897 0
-2061 -2193 1898 0
-2061 -2194 1899 0
-2061 -2195 1900 0
-2061 -2196 1901 0
-2061 -2197 1902 0
-2061 -2198 1903 0
-2061 -2199 1904 0
-2061 -2200 1905 0
-2061 -2201 1906 0
-2061 -2202 1907 0
-2061 -2203 1908 0
-2061 -2204 1909 0
-2061 -2205 1910 0
-2061 -2206 1911 0
-2061 -2207 1912 0
-2061 -2208 1913 0
-2061 -2209 1914 0
-2061 -2210 1915 0
-2061 -2211 1916 0
-2061 -2212 1917 0
-2061 -2213 1918 0
-2061 -2214 1919 0
-2061 -2215 1920 0
-2061 -2216 1921 0
-2061 -2217 1922 0
-2061 -2218 1923 0
-2061 -2219 1924 0
-2061 -2220 1925 0
-2061 -2221 1926 0
-2061 -2222 1927 0
-2061 -2223 1928 0
-2061 -2224 1929 0
-2061 -2225 1930 0
-2061 -2226 1931 0
-2061 -2227 1932 0
-2061 -2228 1933 0
-2061 -2229 1934 0
-2061 -2230 1935 0
-2061 -2231 1936 0
-2061 -2232 1937 0
-2061 -2233 1938 0
-2061 -2234 1939 0
-2061 -2235 1940 0
-2061 -2236 1941 0
-2061 -2237 1942 0
-2061 -2238 1943 0
-2061 -2239 1944 0
-2061 -2240 1945 0
-2062 -2125 1831 0
-2062 -2126 1832 0
-2062 -2127 1833 0
-2062 -2128 1834 0
-2062 -2129 1835 0
-2062 -2130 1836 0
-2062 -2131 1837 0
-2062 -2132 1838 0
-2062 -2133 1839 0
-2062 -2134 1840 0
-2062 -2135 1841 0
-2062 -2136 1842 0
-2062 -2137 1843 0
-2062 -2138 1844 0
-2062 -2139 1845 0
-2062 -2140 1846 0
-2062 -2141 1847 0
-2062 -2142 1848 0
-2062 -2143 1849 0
-2062 -2144 1850 0
-2062 -2145 1851 0
-2062 -2146 1852 0
-2062 -2147 1853 0
-2062 -2148 1854 0
-2062 -2149 1855 0
-2062 -2150 1856 0
-2062 -2151 1857 0
-2062 -2152 1858 0
-2062 -2153 1859 0
-2062 -2154 1860 0
-2062 -2155 1861 0
-2062 -2156 1862 0
-2062 -2157 1863 0
-2062 -2158 1864 0
-2062 -2159 1865 0
-2062 -2160 1866 0
-2062 -2161 1867 0
-2062 -2162 1868 0
-2062 -2163 1869 0
-2062 -2164 1870 0
-2062 -2165 1871 0
-2062 -2166 1872 0
-2062 -2167 1873 0
-2062 -2168 1874 0
-2062 -2169 1875 0
-2062 -2170 1876 0
-2062 -2171 1877 0
-2062 -2172 1878 0
-2062 -2173 1879 0
-2062 -2174 1880 0
-2062 -2175 1881 0
-2062 -2176 1882 0
-2062 -2177 1883 0
-2062 -2178 1884 0
-2062 -2179 1885 0
-2062 -2180 1886 0
-2062 -2181 1887 0
-2062 -2182 1888 0
-2062 -2183 1889 0
-2062 -2184 1890 0
-2062 -2185 1891 0
-2062 -2186 1892 0
-2062 -2187 1893 0
-2062 -2188 1894 0
-2062 -2189 1895 0
-2062 -2190 1896 0
-2062 -2191 1897 0
-2062 -2192 1898 0
-2062 -2193 1899 0
-2062 -2194 1900 0
-2062 -2195 1901 0
-2062 -2196 1902 0
-2062 -2197 1903 0
-2062 -2198 1904 0
-2062 -2199 1905 0
-2062 -2200 1906 0
-2062 -2201 1907 0
-2062 -2202 1908 0
-2062 -2203 1909 0
-2062 -2204 1910 0
-2062 -2205 1911 0
-2062 -2206 1912 0
-2062 -2207 1913 0
-2062 -2208 1914 0
-2062 -2209 1915 0
-2062 -2210 1916 0
-2062 -2211 1917 0
-2062 -2212 1918 0
-2062 -2213 1919 0
-2062 -2214 1920 0
-2062 -2215 1921 0
-2062 -2216 1922 0
-2062 -2217 1923 0
-2062 -2218 1924 0
-2062 -2219 1925 0
-2062 -2220 1926 0
-2062 -2221 1927 0
-2062 -2222 1928 0
-2062 -2223 1929 0
-2062 -2224 1930 0
-2062 -2225 1931 0
-2062 -2226 1932 0
-2062 -2227 1933 0
-2062 -2228 1934 0
-2062 -2229 1935 0
-2062 -2230 1936 0
-2062 -2231 1937 0
-2062 -2232 1938 0
-2062 -2233 1939 0
-2062 -2234 1940 0
-2062 -2235 1941 0
-2062 -2236 1942 0
-2062 -2237 1943 0
-2062 -2238 1944 0
-2062 -2239 1945 0
-2062 -2240 1946 0
-2063 -2125 1832 0
-2063 -2126 1833 0
-2063 -2127 1834 0
-2063 -2128 1835 0
-2063 -2129 1836 0
-2063 -2130 1837 0
-2063 -2131 1838 0
-2063 -2132 1839 0
-2063 -2133 1840 0
-2063 -2134 1841 0
-2063 -2135 1842 0
-2063 -2136 1843 0
-2063 -2137 1844 0
-2063 -2138 1845 0
-2063 -2139 1846 0
-2063 -2140 1847 0
-2063 -2141 1848 0
-2063 -2142 1849 0
-2063 -2143 1850 0
-2063 -2144 1851 0
-2063 -2145 1852 0
-2063 -2146 1853 0
-2063 -2147 1854 0
-2063 -2148 1855 0
-2063 -2149 1856 0
-2063 -2150 1857 0
-2063 -2151 1858 0
-2063 -2152 1859 0
-2063 -2153 1860 0
-2063 -2154 1861 0
-2063 -2155 1862 0
-2063 -2156 1863 0
-2063 -2157 1864 0
-2063 -2158 1865 0
-2063 -2159 1866 0
-2063 -2160 1867 0
-2063 -2161 1868 0
-2063 -2162 1869 0
-2063 -2163 1870 0
-2063 -2164 1871 0
-2063 -2165 1872 0
-2063 -2166 1873 0
-2063 -2167 1874 0
-2063 -2168 1875 0
-2063 -2169 1876 0
-2063 -2170 1877 0
-2063 -2171 1878 0
-2063 -2172 1879 0
-2063 -2173 1880 0
-2063 -2174 1881 0
-2063 -2175 1882 0
-2063 -2176 1883 0
-2063 -2177 1884 0
-2063 -2178 1885 0
-2063 -2179 1886 0
-2063 -2180 1887 0
-2063 -2181 1888 0
-2063 -2182 1889 0
-2063 -2183 1890 0
-2063 -2184 1891 0
-2063 -2185 1892 0
-2063 -2186 1893 0
-2063 -2187 1894 0
-2063 -2188 1895 0
-2063 -2189 1896 0
-2063 -2190 1897 0
-2063 -2191 1898 0
-2063 -2192 1899 0
-2063 -2193 1900 0
-2063 -2194 1901 0
-2063 -2195 1902 0
-2063 -2196 1903 0
-2063 -2197 1904 0
-2063 -2198 1905 0
-2063 -2199 1906 0
-2063 -2200 1907 0
-2063 -2201 1908 0
-2063 -2202 1909 0
-2063 -2203 1910 0
-2063 -2204 1911 0
-2063 -2205 1912 0
-2063 -2206 1913 0
-2063 -2207 1914 0
-2063 -2208 1915 0
-2063 -2209 1916 0
-2063 -2210 1917 0
-2063 -2211 1918 0
-2063 -2212 1919 0
-2063 -2213 1920 0
-2063 -2214 1921 0
-2063 -2215 1922 0
-2063 -2216 1923 0
-2063 -2217 1924 0
-2063 -2218 1925 0
-2063 -2219 1926 0
-2063 -2220 1927 0
-2063 -2221 1928 0
-2063 -2222 1929 0
-2063 -2223 1930 0
-2063 -2224 1931 0
-2063 -2225 1932 0
-2063 -2226 1933 0
-2063 -2227 1934 0
-2063 -2228 1935 0
-2063 -2229 1936 0
-2063 -2230 1937 0
-2063 -2231 1938 0
-2063 -2232 1939 0
-2063 -2233 1940 0
-2063 -2234 1941 0
-2063 -2235 1942 0
-2063 -2236 1943 0
-2063 -2237 1944 0
-2063 -2238 1945 0
-2063 -2239 1946 0
-2063 -2240 1947 0
-2064 -2125 1833 0
-2064 -2126 1834 0
-2064 -2127 1835 0
-2064 -2128 1836 0
-2064 -2129 1837 0
-2064 -2130 1838 0
-2064 -2131 1839 0
-2064 -2132 1840 0
-2064 -2133 1841 0
-2064 -2134 1842 0
-2064 -2135 1843 0
-2064 -2136 1844 0
-2064 -2137 1845 0
-2064 -2138 1846 0
-2064 -2139 1847 0
-2064 -2140 1848 0
-2064 -2141 1849 0
-2064 -2142 1850 0
-2064 -2143 1851 0
-2064 -2144 1852 0
-2064 -2145 1853 0
-2064 -2146 1854 0
-2064 -2147 1855 0
-2064 -2148 1856 0
-2064 -2149 1857 0
-2064 -2150 1858 0
-2064 -2151 1859 0
-2064 -2152 1860 0
-2064 -2153 1861 0
-2064 -2154 1862 0
-2064 -2155 1863 0
-2064 -2156 1864 0
-2064 -2157 1865 0
-2064 -2158 1866 0
-2064 -2159 1867 0
-2064 -2160 1868 0
-2064 -2161 1869 0
-2064 -2162 1870 0
-2064 -2163 1871 0
-2064 -2164 1872 0
-2064 -2165 1873 0
-2064 -2166 1874 0
-2064 -2167 1875 0
-2064 -2168 1876 0
-2064 -2169 1877 0
-2064 -2170 1878 0
-2064 -2171 1879 0
-2064 -2172 1880 0
-2064 -2173 1881 0
-2064 -2174 1882 0
-2064 -2175 1883 0
-2064 -2176 1884 0
-2064 -2177 1885 0
-2064 -2178 1886 0
-2064 -2179 1887 0
-2064 -2180 1888 0
-2064 -2181 1889 0
-2064 -2182 1890 0
-2064 -2183 1891 0
-2064 -2184 1892 0
-2064 -2185 1893 0
-2064 -2186 1894 0
-2064 -2187 1895 0
-2064 -2188 1896 0
-2064 -2189 1897 0
-2064 -2190 1898 0
-2064 -2191 1899 0
-2064 -2192 1900 0
-2064 -2193 1901 0
-2064 -2194 1902 0
-2064 -2195 1903 0
-2064 -2196 1904 0
-2064 -2197 1905 0
-2064 -2198 1906 0
-2064 -2199 1907 0
-2064 -2200 1908 0
-2064 -2201 1909 0
-2064 -2202 1910 0
-2064 -2203 1911 0
-2064 -2204 1912 0
-2064 -2205 1913 0
-2064 -2206 1914 0
-2064 -2207 1915 0
-2064 -2208 1916 0
-2064 -2209 1917 0
-2064 -2210 1918 0
-2064 -2211 1919 0
-2064 -2212 1920 0
-2064 -2213 1921 0
-2064 -2214 1922 0
-2064 -2215 1923 0
-2064 -2216 1924 0
-2064 -2217 1925 0
-2064 -2218 1926 0
-2064 -2219 1927 0
-2064 -2220 1928 0
-2064 -2221 1929 0
-2064 -2222 1930 0
-2064 -2223 1931 0
-2064 -2224 1932 0
-2064 -2225 1933 0
-2064 -2226 1934 0
-2064 -2227 1935 0
-2064 -2228 1936 0
-2064 -2229 1937 0
-2064 -2230 1938 0
-2064 -2231 1939 0
-2064 -2232 1940 0
-2064 -2233 1941 0
-2064 -2234 1942 0
-2064 -2235 1943 0
-2064 -2236 1944 0
-2064 -2237 1945 0
-2064 -2238 1946 0
-2064 -2239 1947 0
-2064 -2240 1948 0
-2065 -2125 1834 0
-2065 -2126 1835 0
-2065 -2127 1836 0
-2065 -2128 1837 0
-2065 -2129 1838 0
-2065 -2130 1839 0
-2065 -2131 1840 0
-2065 -2132 1841 0
-2065 -2133 1842 0
-2065 -2134 1843 0
-2065 -2135 1844 0
-2065 -2136 1845 0
-2065 -2137 1846 0
-2065 -2138 1847 0
-2065 -2139 1848 0
-2065 -2140 1849 0
-2065 -2141 1850 0
-2065 -2142 1851 0
-2065 -2143 1852 0
-2065 -2144 1853 0
-2065 -2145 1854 0
-2065 -2146 1855 0
-2065 -2147 1856 0
-2065 -2148 1857 0
-2065 -2149 1858 0
-2065 -2150 1859 0
-2065 -2151 1860 0
-2065 -2152 1861 0
-2065 -2153 1862 0
-2065 -2154 1863 0
-2065 -2155 1864 0
-2065 -2156 1865 0
-2065 -2157 1866 0
-2065 -2158 1867 0
-2065 -2159 1868 0
-2065 -2160 1869 0
-2065 -2161 1870 0
-2065 -2162 1871 0
-2065 -2163 1872 0
-2065 -2164 1873 0
-2065 -2165 1874 0
-2065 -2166 1875 0
-2065 -2167 1876 0
-2065 -2168 1877 0
-2065 -2169 1878 0
-2065 -2170 1879 0
-2065 -2171 1880 0
-2065 -2172 1881 0
-2065 -2173 1882 0
-2065 -2174 1883 0
-2065 -2175 1884 0
-2065 -2176 1885 0
-2065 -2177 1886 0
-2065 -2178 1887 0
-2065 -2179 1888 0
-2065 -2180 1889 0
-2065 -2181 1890 0
-2065 -2182 1891 0
-2065 -2183 1892 0
-2065 -2184 1893 0
-2065 -2185 1894 0
-2065 -2186 1895 0
-2065 -2187 1896 0
-2065 -2188 1897 0
-2065 -2189 1898 0
-2065 -2190 1899 0
-2065 -2191 1900 0
-2065 -2192 1901 0
-2065 -2193 1902 0
-2065 -2194 1903 0
-2065 -2195 1904 0
-2065 -2196 1905 0
-2065 -2197 1906 0
-2065 -2198 1907 0
-2065 -2199 1908 0
-2065 -2200 1909 0
-2065 -2201 1910 0
-2065 -2202 1911 0
-2065 -2203 1912 0
-2065 -2204 1913 0
-2065 -2205 1914 0
-2065 -2206 1915 0
-2065 -2207 1916 0
-2065 -2208 1917 0
-2065 -2209 1918 0
-2065 -2210 1919 0
-2065 -2211 1920 0
-2065 -2212 1921 0
-2065 -2213 1922 0
-2065 -2214 1923 0
-2065 -2215 1924 0
-2065 -2216 1925 0
-2065 -2217 1926 0
-2065 -2218 1927 0
-2065 -2219 1928 0
-2065 -2220 1929 0
-2065 -2221 1930 0
-2065 -2222 1931 0
-2065 -2223 1932 0
-2065 -2224 1933 0
-2065 -2225 1934 0
-2065 -2226 1935 0
-2065 -2227 1936 0
-2065 -2228 1937 0
-2065 -2229 1938 0
-2065 -2230 1939 0
-2065 -2231 1940 0
-2065 -2232 1941 0
-2065 -2233 1942 0
-2065 -2234 1943 0
-2065 -2235 1944 0
-2065 -2236 1945 0
-2065 -2237 1946 0
-2065 -2238 1947 0
-2065 -2239 1948 0
-2065 -2240 1949 0
-2066 -2125 1835 0
-2066 -2126 1836 0
-2066 -2127 1837 0
-2066 -2128 1838 0
-2066 -2129 1839 0
-2066 -2130 1840 0
-2066 -2131 1841 0
-2066 -2132 1842 0
-2066 -2133 1843 0
-2066 -2134 1844 0
-2066 -2135 1845 0
-2066 -2136 1846 0
-2066 -2137 1847 0
-2066 -2138 1848 0
-2066 -2139 1849 0
-2066 -2140 1850 0
-2066 -2141 1851 0
-2066 -2142 1852 0
-2066 -2143 1853 0
-2066 -2144 1854 0
-2066 -2145 1855 0
-2066 -2146 1856 0
-2066 -2147 1857 0
-2066 -2148 1858 0
-2066 -2149 1859 0
-2066 -2150 1860 0
-2066 -2151 1861 0
-2066 -2152 1862 0
-2066 -2153 1863 0
-2066 -2154 1864 0
-2066 -2155 1865 0
-2066 -2156 1866 0
-2066 -2157 1867 0
-2066 -2158 1868 0
-2066 -2159 1869 0
-2066 -2160 1870 0
-2066 -2161 1871 0
-2066 -2162 1872 0
-2066 -2163 1873 0
-2066 -2164 1874 0
-2066 -2165 1875 0
-2066 -2166 1876 0
-2066 -2167 1877 0
-2066 -2168 1878 0
-2066 -2169 1879 0
-2066 -2170 1880 0
-2066 -2171 1881 0
-2066 -2172 1882 0
-2066 -2173 1883 0
-2066 -2174 1884 0
-2066 -2175 1885 0
-2066 -2176 1886 0
-2066 -2177 1887 0
-2066 -2178 1888 0
-2066 -2179 1889 0
-2066 -2180 1890 0
-2066 -2181 1891 0
-2066 -2182 1892 0
-2066 -2183 1893 0
-2066 -2184 1894 0
-2066 -2185 1895 0
-2066 -2186 1896 0
-2066 -2187 1897 0
-2066 -2188 1898 0
-2066 -2189 1899 0
-2066 -2190 1900 0
-2066 -2191 1901 0
-2066 -2192 1902 0
-2066 -2193 1903 0
-2066 -2194 1904 0
-2066 -2195 1905 0
-2066 -2196 1906 0
-2066 -2197 1907 0
-2066 -2198 1908 0
-2066 -2199 1909 0
-2066 -2200 1910 0
-2066 -2201 1911 0
-2066 -2202 1912 0
-2066 -2203 1913 0
-2066 -2204 1914 0
-2066 -2205 1915 0
-2066 -2206 1916 0
-2066 -2207 1917 0
-2066 -2208 1918 0
-2066 -2209 1919 0
-2066 -2210 1920 0
-2066 -2211 1921 0
-2066 -2212 1922 0
-2066 -2213 1923 0
-2066 -2214 1924 0
-2066 -2215 1925 0
-2066 -2216 1926 0
-2066 -2217 1927 0
-2066 -2218 1928 0
-2066 -2219 1929 0
-2066 -2220 1930 0
-2066 -2221 1931 0
-2066 -2222 1932 0
-2066 -2223 1933 0
-2066 -2224 1934 0
-2066 -2225 1935 0
-2066 -2226 1936 0
-2066 -2227 1937 0
-2066 -2228 1938 0
-2066 -2229 1939 0
-2066 -2230 1940 0
-2066 -2231 1941 0
-2066 -2232 1942 0
-2066 -2233 1943 0
-2066 -2234 1944 0
-2066 -2235 1945 0
-2066 -2236 1946 0
-2066 -2237 1947 0
-2066 -2238 1948 0
-2066 -2239 1949 0
-2066 -2240 1950 0
-2067 -2125 1836 0
-2067 -2126 1837 0
-2067 -2127 1838 0
-2067 -2128 1839 0
-2067 -2129 1840 0
-2067 -2130 1841 0
-2067 -2131 1842 0
-2067 -2132 1843 0
-2067 -2133 1844 0
-2067 -2134 1845 0
-2067 -2135 1846 0
-2067 -2136 1847 0
-2067 -2137 1848 0
-2067 -2138 1849 0
-2067 -2139 1850 0
-2067 -2140 1851 0
-2067 -2141 1852 0
-2067 -2142 1853 0
-2067 -2143 1854 0
-2067 -2144 1855 0
-2067 -2145 1856 0
-2067 -2146 1857 0
-2067 -2147 1858 0
-2067 -2148 1859 0
-2067 -2149 1860 0
-2067 -2150 1861 0
-2067 -2151 1862 0
-2067 -2152 1863 0
-2067 -2153 1864 0
-2067 -2154 1865 0
-2067 -2155 1866 0
-2067 -2156 1867 0
-2067 -2157 1868 0
-2067 -2158 1869 0
-2067 -2159 1870 0
-2067 -2160 1871 0
-2067 -2161 1872 0
-2067 -2162 1873 0
-2067 -2163 1874 0
-2067 -2164 1875 0
-2067 -2165 1876 0
-2067 -2166 1877 0
-2067 -2167 1878 0
-2067 -2168 1879 0
-2067 -2169 1880 0
-2067 -2170 1881 0
-2067 -2171 1882 0
-2067 -2172 1883 0
-2067 -2173 1884 0
-2067 -2174 1885 0
-2067 -2175 1886 0
-2067 -2176 1887 0
-2067 -2177 1888 0
-2067 -2178 1889 0
-2067 -2179 1890 0
-2067 -2180 1891 0
-2067 -2181 1892 0
-2067 -2182 1893 0
-2067 -2183 1894 0
-2067 -2184 1895 0
-2067 -2185 1896 0
-2067 -2186 1897 0
-2067 -2187 1898 0
-2067 -2188 1899 0
-2067 -2189 1900 0
-2067 -2190 1901 0
-2067 -2191 1902 0
-2067 -2192 1903 0
-2067 -2193 1904 0
-2067 -2194 1905 0
-2067 -2195 1906 0
-2067 -2196 1907 0
-2067 -2197 1908 0
-2067 -2198 1909 0
-2067 -2199 1910 0
-2067 -2200 1911 0
-2067 -2201 1912 0
-2067 -2202 1913 0
-2067 -2203 1914 0
-2067 -2204 1915 0
-2067 -2205 1916 0
-2067 -2206 1917 0
-2067 -2207 1918 0
-2067 -2208 1919 0
-2067 -2209 1920 0
-2067 -2210 1921 0
-2067 -2211 1922 0
-2067 -2212 1923 0
-2067 -2213 1924 0
-2067 -2214 1925 0
-2067 -2215 1926 0
-2067 -2216 1927 0
-2067 -2217 1928 0
-2067 -2218 1929 0
-2067 -2219 1930 0
-2067 -2220 1931 0
-2067 -2221 1932 0
-2067 -2222 1933 0
-2067 -2223 1934 0
-2067 -2224 1935 0
-2067 -2225 1936 0
-2067 -2226 1937 0
-2067 -2227 1938 0
-2067 -2228 1939 0
-2067 -2229 1940 0
-2067 -2230 1941 0
-2067 -2231 1942 0
-2067 -2232 1943 0
-2067 -2233 1944 0
-2067 -2234 1945 0
-2067 -2235 1946 0
-2067 -2236 1947 0
-2067 -2237 1948 0
-2067 -2238 1949 0
-2067 -2239 1950 0
-2067 -2240 1951 0
-2068 -2125 1837 0
-2068 -2126 1838 0
-2068 -2127 1839 0
-2068 -2128 1840 0
-2068 -2129 1841 0
-2068 -2130 1842 0
-2068 -2131 1843 0
-2068 -2132 1844 0
-2068 -2133 1845 0
-2068 -2134 1846 0
-2068 -2135 1847 0
-2068 -2136 1848 0
-2068 -2137 1849 0
-2068 -2138 1850 0
-2068 -2139 1851 0
-2068 -2140 1852 0
-2068 -2141 1853 0
-2068 -2142 1854 0
-2068 -2143 1855 0
-2068 -2144 1856 0
-2068 -2145 1857 0
-2068 -2146 1858 0
-2068 -2147 1859 0
-2068 -2148 1860 0
-2068 -2149 1861 0
-2068 -2150 1862 0
-2068 -2151 1863 0
-2068 -2152 1864 0
-2068 -2153 1865 0
-2068 -2154 1866 0
-2068 -2155 1867 0
-2068 -2156 1868 0
-2068 -2157 1869 0
-2068 -2158 1870 0
-2068 -2159 1871 0
-2068 -2160 1872 0
-2068 -2161 1873 0
-2068 -2162 1874 0
-2068 -2163 1875 0
-2068 -2164 1876 0
-2068 -2165 1877 0
-2068 -2166 1878 0
-2068 -2167 1879 0
-2068 -2168 1880 0
-2068 -2169 1881 0
-2068 -2170 1882 0
-2068 -2171 1883 0
-2068 -2172 1884 0
-2068 -2173 1885 0
-2068 -2174 1886 0
-2068 -2175 1887 0
-2068 -2176 1888 0
-2068 -2177 1889 0
-2068 -2178 1890 0
-2068 -2179 1891 0
-2068 -2180 1892 0
-2068 -2181 1893 0
-2068 -2182 1894 0
-2068 -2183 1895 0
-2068 -2184 1896 0
-2068 -2185 1897 0
-2068 -2186 1898 0
-2068 -2187 1899 0
-2068 -2188 1900 0
-2068 -2189 1901 0
-2068 -2190 1902 0
-2068 -2191 1903 0
-2068 -2192 1904 0
-2068 -2193 1905 0
-2068 -2194 1906 0
-2068 -2195 1907 0
-2068 -2196 1908 0
-2068 -2197 1909 0
-2068 -2198 1910 0
-2068 -2199 1911 0
-2068 -2200 1912 0
-2068 -2201 1913 0
-2068 -2202 1914 0
-2068 -2203 1915 0
-2068 -2204 1916 0
-2068 -2205 1917 0
-2068 -2206 1918 0
-2068 -2207 1919 0
-2068 -2208 1920 0
-2068 -2209 1921 0
-2068 -2210 1922 0
-2068 -2211 1923 0
-2068 -2212 1924 0
-2068 -2213 1925 0
-2068 -2214 1926 0
-2068 -2215 1927 0
-2068 -2216 1928 0
-2068 -2217 1929 0
-2068 -2218 1930 0
-2068 -2219 1931 0
-2068 -2220 1932 0
-2068 -2221 1933 0
-2068 -2222 1934 0
-2068 -2223 1935 0
-2068 -2224 1936 0
-2068 -2225 1937 0
-2068 -2226 1938 0
-2068 -2227 1939 0
-2068 -2228 1940 0
-2068 -2229 1941 0
-2068 -2230 1942 0
-2068 -2231 1943 0
-2068 -2232 1944 0
-2068 -2233 1945 0
-2068 -2234 1946 0
-2068 -2235 1947 0
-2068 -2236 1948 0
-2068 -2237 1949 0
-2068 -2238 1950 0
-2068 -2239 1951 0
-2068 -2240 1952 0
-2069 -2125 1838 0
-2069 -2126 1839 0
-2069 -2127 1840 0
-2069 -2128 1841 0
-2069 -2129 1842 0
-2069 -2130 1843 0
-2069 -2131 1844 0
-2069 -2132 1845 0
-2069 -2133 1846 0
-2069 -2134 1847 0
-2069 -2135 1848 0
-2069 -2136 1849 0
-2069 -2137 1850 0
-2069 -2138 1851 0
-2069 -2139 1852 0
-2069 -2140 1853 0
-2069 -2141 1854 0
-2069 -2142 1855 0
-2069 -2143 1856 0
-2069 -2144 1857 0
-2069 -2145 1858 0
-2069 -2146 1859 0
-2069 -2147 1860 0
-2069 -2148 1861 0
-2069 -2149 1862 0
-2069 -2150 1863 0
-2069 -2151 1864 0
-2069 -2152 1865 0
-2069 -2153 1866 0
-2069 -2154 1867 0
-2069 -2155 1868 0
-2069 -2156 1869 0
-2069 -2157 1870 0
-2069 -2158 1871 0
-2069 -2159 1872 0
-2069 -2160 1873 0
-2069 -2161 1874 0
-2069 -2162 1875 0
-2069 -2163 1876 0
-2069 -2164 1877 0
-2069 -2165 1878 0
-2069 -2166 1879 0
-2069 -2167 1880 0
-2069 -2168 1881 0
-2069 -2169 1882 0
-2069 -2170 1883 0
-2069 -2171 1884 0
-2069 -2172 1885 0
-2069 -2173 1886 0
-2069 -2174 1887 0
-2069 -2175 1888 0
-2069 -2176 1889 0
-2069 -2177 1890 0
-2069 -2178 1891 0
-2069 -2179 1892 0
-2069 -2180 1893 0
-2069 -2181 1894 0
-2069 -2182 1895 0
-2069 -2183 1896 0
-2069 -2184 1897 0
-2069 -2185 1898 0
-2069 -2186 1899 0
-2069 -2187 1900 0
-2069 -2188 1901 0
-2069 -2189 1902 0
-2069 -2190 1903 0
-2069 -2191 1904 0
-2069 -2192 1905 0
-2069 -2193 1906 0
-2069 -2194 1907 0
-2069 -2195 1908 0
-2069 -2196 1909 0
-2069 -2197 1910 0
-2069 -2198 1911 0
-2069 -2199 1912 0
-2069 -2200 1913 0
-2069 -2201 1914 0
-2069 -2202 1915 0
-2069 -2203 1916 0
-2069 -2204 1917 0
-2069 -2205 1918 0
-2069 -2206 1919 0
-2069 -2207 1920 0
-2069 -2208 1921 0
-2069 -2209 1922 0
-2069 -2210 1923 0
-2069 -2211 1924 0
-2069 -2212 1925 0
-2069 -2213 1926 0
-2069 -2214 1927 0
-2069 -2215 1928 0
-2069 -2216 1929 0
-2069 -2217 1930 0
-2069 -2218 1931 0
-2069 -2219 1932 0
-2069 -2220 1933 0
-2069 -2221 1934 0
-2069 -2222 1935 0
-2069 -2223 1936 0
-2069 -2224 1937 0
-2069 -2225 1938 0
-2069 -2226 1939 0
-2069 -2227 1940 0
-2069 -2228 1941 0
-2069 -2229 1942 0
-2069 -2230 1943 0
-2069 -2231 1944 0
-2069 -2232 1945 0
-2069 -2233 1946 0
-2069 -2234 1947 0
-2069 -2235 1948 0
-2069 -2236 1949 0
-2069 -2237 1950 0
-2069 -2238 1951 0
-2069 -2239 1952 0
-2069 -2240 1953 0
-2070 -2125 1839 0
-2070 -2126 1840 0
-2070 -2127 1841 0
-2070 -2128 1842 0
-2070 -2129 1843 0
-2070 -2130 1844 0
-2070 -2131 1845 0
-2070 -2132 1846 0
-2070 -2133 1847 0
-2070 -2134 1848 0
-2070 -2135 1849 0
-2070 -2136 1850 0
-2070 -2137 1851 0
-2070 -2138 1852 0
-2070 -2139 1853 0
-2070 -2140 1854 0
-2070 -2141 1855 0
-2070 -2142 1856 0
-2070 -2143 1857 0
-2070 -2144 1858 0
-2070 -2145 1859 0
-2070 -2146 1860 0
-2070 -2147 1861 0
-2070 -2148 1862 0
-2070 -2149 1863 0
-2070 -2150 1864 0
-2070 -2151 1865 0
-2070 -2152 1866 0
-2070 -2153 1867 0
-2070 -2154 1868 0
-2070 -2155 1869 0
-2070 -2156 1870 0
-2070 -2157 1871 0
-2070 -2158 1872 0
-2070 -2159 1873 0
-2070 -2160 1874 0
-2070 -2161 1875 0
-2070 -2162 1876 0
-2070 -2163 1877 0
-2070 -2164 1878 0
-2070 -2165 1879 0
-2070 -2166 1880 0
-2070 -2167 1881 0
-2070 -2168 1882 0
-2070 -2169 1883 0
-2070 -2170 1884 0
-2070 -2171 1885 0
-2070 -2172 1886 0
-2070 -2173 1887 0
-2070 -2174 1888 0
-2070 -2175 1889 0
-2070 -2176 1890 0
-2070 -2177 1891 0
-2070 -2178 1892 0
-2070 -2179 1893 0
-2070 -2180 1894 0
-2070 -2181 1895 0
-2070 -2182 1896 0
-2070 -2183 1897 0
-2070 -2184 1898 0
-2070 -2185 1899 0
-2070 -2186 1900 0
-2070 -2187 1901 0
-2070 -2188 1902 0
-2070 -2189 1903 0
-2070 -2190 1904 0
-2070 -2191 1905 0
-2070 -2192 1906 0
-2070 -2193 1907 0
-2070 -2194 1908 0
-2070 -2195 1909 0
-2070 -2196 1910 0
-2070 -2197 1911 0
-2070 -2198 1912 0
-2070 -2199 1913 0
-2070 -2200 1914 0
-2070 -2201 1915 0
-2070 -2202 1916 0
-2070 -2203 1917 0
-2070 -2204 1918 0
-2070 -2205 1919 0
-2070 -2206 1920 0
-2070 -2207 1921 0
-2070 -2208 1922 0
-2070 -2209 1923 0
-2070 -2210 1924 0
-2070 -2211 1925 0
-2070 -2212 1926 0
-2070 -2213 1927 0
-2070 -2214 1928 0
-2070 -2215 1929 0
-2070 -2216 1930 0
-2070 -2217 1931 0
-2070 -2218 1932 0
-2070 -2219 1933 0
-2070 -2220 1934 0
-2070 -2221 1935 0
-2070 -2222 1936 0
-2070 -2223 1937 0
-2070 -2224 1938 0
-2070 -2225 1939 0
-2070 -2226 1940 0
-2070 -2227 1941 0
-2070 -2228 1942 0
-2070 -2229 1943 0
-2070 -2230 1944 0
-2070 -2231 1945 0
-2070 -2232 1946 0
-2070 -2233 1947 0
-2070 -2234 1948 0
-2070 -2235 1949 0
-2070 -2236 1950 0
-2070 -2237 1951 0
-2070 -2238 1952 0
-2070 -2239 1953 0
-2070 -2240 1954 0
-2071 -2125 1840 0
-2071 -2126 1841 0
-2071 -2127 1842 0
-2071 -2128 1843 0
-2071 -2129 1844 0
-2071 -2130 1845 0
-2071 -2131 1846 0
-2071 -2132 1847 0
-2071 -2133 1848 0
-2071 -2134 1849 0
-2071 -2135 1850 0
-2071 -2136 1851 0
-2071 -2137 1852 0
-2071 -2138 1853 0
-2071 -2139 1854 0
-2071 -2140 1855 0
-2071 -2141 1856 0
-2071 -2142 1857 0
-2071 -2143 1858 0
-2071 -2144 1859 0
-2071 -2145 1860 0
-2071 -2146 1861 0
-2071 -2147 1862 0
-2071 -2148 1863 0
-2071 -2149 1864 0
-2071 -2150 1865 0
-2071 -2151 1866 0
-2071 -2152 1867 0
-2071 -2153 1868 0
-2071 -2154 1869 0
-2071 -2155 1870 0
-2071 -2156 1871 0
-2071 -2157 1872 0
-2071 -2158 1873 0
-2071 -2159 1874 0
-2071 -2160 1875 0
-2071 -2161 1876 0
-2071 -2162 1877 0
-2071 -2163 1878 0
-2071 -2164 1879 0
-2071 -2165 1880 0
-2071 -2166 1881 0
-2071 -2167 1882 0
-2071 -2168 1883 0
-2071 -2169 1884 0
-2071 -2170 1885 0
-2071 -2171 1886 0
-2071 -2172 1887 0
-2071 -2173 1888 0
-2071 -2174 1889 0
-2071 -2175 1890 0
-2071 -2176 1891 0
-2071 -2177 1892 0
-2071 -2178 1893 0
-2071 -2179 1894 0
-2071 -2180 1895 0
-2071 -2181 1896 0
-2071 -2182 1897 0
-2071 -2183 1898 0
-2071 -2184 1899 0
-2071 -2185 1900 0
-2071 -2186 1901 0
-2071 -2187 1902 0
-2071 -2188 1903 0
-2071 -2189 1904 0
-2071 -2190 1905 0
-2071 -2191 1906 0
-2071 -2192 1907 0
-2071 -2193 1908 0
-2071 -2194 1909 0
-2071 -2195 1910 0
-2071 -2196 1911 0
-2071 -2197 1912 0
-2071 -2198 1913 0
-2071 -2199 1914 0
-2071 -2200 1915 0
-2071 -2201 1916 0
-2071 -2202 1917 0
-2071 -2203 1918 0
-2071 -2204 1919 0
-2071 -2205 1920 0
-2071 -2206 1921 0
-2071 -2207 1922 0
-2071 -2208 1923 0
-2071 -2209 1924 0
-2071 -2210 1925 0
-2071 -2211 1926 0
-2071 -2212 1927 0
-2071 -2213 1928 0
-2071 -2214 1929 0
-2071 -2215 1930 0
-2071 -2216 1931 0
-2071 -2217 1932 0
-2071 -2218 1933 0
-2071 -2219 1934 0
-2071 -2220 1935 0
-2071 -2221 1936 0
-2071 -2222 1937 0
-2071 -2223 1938 0
-2071 -2224 1939 0
-2071 -2225 1940 0
-2071 -2226 1941 0
-2071 -2227 1942 0
-2071 -2228 1943 0
-2071 -2229 1944 0
-2071 -2230 1945 0
-2071 -2231 1946 0
-2071 -2232 1947 0
-2071 -2233 1948 0
-2071 -2234 1949 0
-2071 -2235 1950 0
-2071 -2236 1951 0
-2071 -2237 1952 0
-2071 -2238 1953 0
-2071 -2239 1954 0
-2071 -2240 1955 0
-2072 -2125 1841 0
-2072 -2126 1842 0
-2072 -2127 1843 0
-2072 -2128 1844 0
-2072 -2129 1845 0
-2072 -2130 1846 0
-2072 -2131 1847 0
-2072 -2132 1848 0
-2072 -2133 1849 0
-2072 -2134 1850 0
-2072 -2135 1851 0
-2072 -2136 1852 0
-2072 -2137 1853 0
-2072 -2138 1854 0
-2072 -2139 1855 0
-2072 -2140 1856 0
-2072 -2141 1857 0
-2072 -2142 1858 0
-2072 -2143 1859 0
-2072 -2144 1860 0
-2072 -2145 1861 0
-2072 -2146 1862 0
-2072 -2147 1863 0
-2072 -2148 1864 0
-2072 -2149 1865 0
-2072 -2150 1866 0
-2072 -2151 1867 0
-2072 -2152 1868 0
-2072 -2153 1869 0
-2072 -2154 1870 0
-2072 -2155 1871 0
-2072 -2156 1872 0
-2072 -2157 1873 0
-2072 -2158 1874 0
-2072 -2159 1875 0
-2072 -2160 1876 0
-2072 -2161 1877 0
-2072 -2162 1878 0
-2072 -2163 1879 0
-2072 -2164 1880 0
-2072 -2165 1881 0
-2072 -2166 1882 0
-2072 -2167 1883 0
-2072 -2168 1884 0
-2072 -2169 1885 0
-2072 -2170 1886 0
-2072 -2171 1887 0
-2072 -2172 1888 0
-2072 -2173 1889 0
-2072 -2174 1890 0
-2072 -2175 1891 0
-2072 -2176 1892 0
-2072 -2177 1893 0
-2072 -2178 1894 0
-2072 -2179 1895 0
-2072 -2180 1896 0
-2072 -2181 1897 0
-2072 -2182 1898 0
-2072 -2183 1899 0
-2072 -2184 1900 0
-2072 -2185 1901 0
-2072 -2186 1902 0
-2072 -2187 1903 0
-2072 -2188 1904 0
-2072 -2189 1905 0
-2072 -2190 1906 0
-2072 -2191 1907 0
-2072 -2192 1908 0
-2072 -2193 1909 0
-2072 -2194 1910 0
-2072 -2195 1911 0
-2072 -2196 1912 0
-2072 -2197 1913 0
-2072 -2198 1914 0
-2072 -2199 1915 0
-2072 -2200 1916 0
-2072 -2201 1917 0
-2072 -2202 1918 0
-2072 -2203 1919 0
-2072 -2204 1920 0
-2072 -2205 1921 0
-2072 -2206 1922 0
-2072 -2207 1923 0
-2072 -2208 1924 0
-2072 -2209 1925 0
-2072 -2210 1926 0
-2072 -2211 1927 0
-2072 -2212 1928 0
-2072 -2213 1929 0
-2072 -2214 1930 0
-2072 -2215 1931 0
-2072 -2216 1932 0
-2072 -2217 1933 0
-2072 -2218 1934 0
-2072 -2219 1935 0
-2072 -2220 1936 0
-2072 -2221 1937 0
-2072 -2222 1938 0
-2072 -2223 1939 0
-2072 -2224 1940 0
-2072 -2225 1941 0
-2072 -2226 1942 0
-2072 -2227 1943 0
-2072 -2228 1944 0
-2072 -2229 1945 0
-2072 -2230 1946 0
-2072 -2231 1947 0
-2072 -2232 1948 0
-2072 -2233 1949 0
-2072 -2234 1950 0
-2072 -2235 1951 0
-2072 -2236 1952 0
-2072 -2237 1953 0
-2072 -2238 1954 0
-2072 -2239 1955 0
-2072 -2240 1956 0
-2073 -2125 1842 0
-2073 -2126 1843 0
-2073 -2127 1844 0
-2073 -2128 1845 0
-2073 -2129 1846 0
-2073 -2130 1847 0
-2073 -2131 1848 0
-2073 -2132 1849 0
-2073 -2133 1850 0
-2073 -2134 1851 0
-2073 -2135 1852 0
-2073 -2136 1853 0
-2073 -2137 1854 0
-2073 -2138 1855 0
-2073 -2139 1856 0
-2073 -2140 1857 0
-2073 -2141 1858 0
-2073 -2142 1859 0
-2073 -2143 1860 0
-2073 -2144 1861 0
-2073 -2145 1862 0
-2073 -2146 1863 0
-2073 -2147 1864 0
-2073 -2148 1865 0
-2073 -2149 1866 0
-2073 -2150 1867 0
-2073 -2151 1868 0
-2073 -2152 1869 0
-2073 -2153 1870 0
-2073 -2154 1871 0
-2073 -2155 1872 0
-2073 -2156 1873 0
-2073 -2157 1874 0
-2073 -2158 1875 0
-2073 -2159 1876 0
-2073 -2160 1877 0
-2073 -2161 1878 0
-2073 -2162 1879 0
-2073 -2163 1880 0
-2073 -2164 1881 0
-2073 -2165 1882 0
-2073 -2166 1883 0
-2073 -2167 1884 0
-2073 -2168 1885 0
-2073 -2169 1886 0
-2073 -2170 1887 0
-2073 -2171 1888 0
-2073 -2172 1889 0
-2073 -2173 1890 0
-2073 -2174 1891 0
-2073 -2175 1892 0
-2073 -2176 1893 0
-2073 -2177 1894 0
-2073 -2178 1895 0
-2073 -2179 1896 0
-2073 -2180 1897 0
-2073 -2181 1898 0
-2073 -2182 1899 0
-2073 -2183 1900 0
-2073 -2184 1901 0
-2073 -2185 1902 0
-2073 -2186 1903 0
-2073 -2187 1904 0
-2073 -2188 1905 0
-2073 -2189 1906 0
-2073 -2190 1907 0
-2073 -2191 1908 0
-2073 -2192 1909 0
-2073 -2193 1910 0
-2073 -2194 1911 0
-2073 -2195 1912 0
-2073 -2196 1913 0
-2073 -2197 1914 0
-2073 -2198 1915 0
-2073 -2199 1916 0
-2073 -2200 1917 0
-2073 -2201 1918 0
-2073 -2202 1919 0
-2073 -2203 1920 0
-2073 -2204 1921 0
-2073 -2205 1922 0
-2073 -2206 1923 0
-2073 -2207 1924 0
-2073 -2208 1925 0
-2073 -2209 1926 0
-2073 -2210 1927 0
-2073 -2211 1928 0
-2073 -2212 1929 0
-2073 -2213 1930 0
-2073 -2214 1931 0
-2073 -2215 1932 0
-2073 -2216 1933 0
-2073 -2217 1934 0
-2073 -2218 1935 0
-2073 -2219 1936 0
-2073 -2220 1937 0
-2073 -2221 1938 0
-2073 -2222 1939 0
-2073 -2223 1940 0
-2073 -2224 1941 0
-2073 -2225 1942 0
-2073 -2226 1943 0
-2073 -2227 1944 0
-2073 -2228 1945 0
-2073 -2229 1946 0
-2073 -2230 1947 0
-2073 -2231 1948 0
-2073 -2232 1949 0
-2073 -2233 1950 0
-2073 -2234 1951 0
-2073 -2235 1952 0
-2073 -2236 1953 0
-2073 -2237 1954 0
-2073 -2238 1955 0
-2073 -2239 1956 0
-2073 -2240 1957 0
-2074 -2125 1843 0
-2074 -2126 1844 0
-2074 -2127 1845 0
-2074 -2128 1846 0
-2074 -2129 1847 0
-2074 -2130 1848 0
-2074 -2131 1849 0
-2074 -2132 1850 0
-2074 -2133 1851 0
-2074 -2134 1852 0
-2074 -2135 1853 0
-2074 -2136 1854 0
-2074 -2137 1855 0
-2074 -2138 1856 0
-2074 -2139 1857 0
-2074 -2140 1858 0
-2074 -2141 1859 0
-2074 -2142 1860 0
-2074 -2143 1861 0
-2074 -2144 1862 0
-2074 -2145 1863 0
-2074 -2146 1864 0
-2074 -2147 1865 0
-2074 -2148 1866 0
-2074 -2149 1867 0
-2074 -2150 1868 0
-2074 -2151 1869 0
-2074 -2152 1870 0
-2074 -2153 1871 0
-2074 -2154 1872 0
-2074 -2155 1873 0
-2074 -2156 1874 0
-2074 -2157 1875 0
-2074 -2158 1876 0
-2074 -2159 1877 0
-2074 -2160 1878 0
-2074 -2161 1879 0
-2074 -2162 1880 0
-2074 -2163 1881 0
-2074 -2164 1882 0
-2074 -2165 1883 0
-2074 -2166 1884 0
-2074 -2167 1885 0
-2074 -2168 1886 0
-2074 -2169 1887 0
-2074 -2170 1888 0
-2074 -2171 1889 0
-2074 -2172 1890 0
-2074 -2173 1891 0
-2074 -2174 1892 0
-2074 -2175 1893 0
-2074 -2176 1894 0
-2074 -2177 1895 0
-2074 -2178 1896 0
-2074 -2179 1897 0
-2074 -2180 1898 0
-2074 -2181 1899 0
-2074 -2182 1900 0
-2074 -2183 1901 0
-2074 -2184 1902 0
-2074 -2185 1903 0
-2074 -2186 1904 0
-2074 -2187 1905 0
-2074 -2188 1906 0
-2074 -2189 1907 0
-2074 -2190 1908 0
-2074 -2191 1909 0
-2074 -2192 1910 0
-2074 -2193 1911 0
-2074 -2194 1912 0
-2074 -2195 1913 0
-2074 -2196 1914 0
-2074 -2197 1915 0
-2074 -2198 1916 0
-2074 -2199 1917 0
-2074 -2200 1918 0
-2074 -2201 1919 0
-2074 -2202 1920 0
-2074 -2203 1921 0
-2074 -2204 1922 0
-2074 -2205 1923 0
-2074 -2206 1924 0
-2074 -2207 1925 0
-2074 -2208 1926 0
-2074 -2209 1927 0
-2074 -2210 1928 0
-2074 -2211 1929 0
-2074 -2212 1930 0
-2074 -2213 1931 0
-2074 -2214 1932 0
-2074 -2215 1933 0
-2074 -2216 1934 0
-2074 -2217 1935 0
-2074 -2218 1936 0
-2074 -2219 1937 0
-2074 -2220 1938 0
-2074 -2221 1939 0
-2074 -2222 1940 0
-2074 -2223 1941 0
-2074 -2224 1942 0
-2074 -2225 1943 0
-2074 -2226 1944 0
-2074 -2227 1945 0
-2074 -2228 1946 0
-2074 -2229 1947 0
-2074 -2230 1948 0
-2074 -2231 1949 0
-2074 -2232 1950 0
-2074 -2233 1951 0
-2074 -2234 1952 0
-2074 -2235 1953 0
-2074 -2236 1954 0
-2074 -2237 1955 0
-2074 -2238 1956 0
-2074 -2239 1957 0
-2074 -2240 1958 0
-2075 -2125 1844 0
-2075 -2126 1845 0
-2075 -2127 1846 0
-2075 -2128 1847 0
-2075 -2129 1848 0
-2075 -2130 1849 0
-2075 -2131 1850 0
-2075 -2132 1851 0
-2075 -2133 1852 0
-2075 -2134 1853 0
-2075 -2135 1854 0
-2075 -2136 1855 0
-2075 -2137 1856 0
-2075 -2138 1857 0
-2075 -2139 1858 0
-2075 -2140 1859 0
-2075 -2141 1860 0
-2075 -2142 1861 0
-2075 -2143 1862 0
-2075 -2144 1863 0
-2075 -2145 1864 0
-2075 -2146 1865 0
-2075 -2147 1866 0
-2075 -2148 1867 0
-2075 -2149 1868 0
-2075 -2150 1869 0
-2075 -2151 1870 0
-2075 -2152 1871 0
-2075 -2153 1872 0
-2075 -2154 1873 0
-2075 -2155 1874 0
-2075 -2156 1875 0
-2075 -2157 1876 0
-2075 -2158 1877 0
-2075 -2159 1878 0
-2075 -2160 1879 0
-2075 -2161 1880 0
-2075 -2162 1881 0
-2075 -2163 1882 0
-2075 -2164 1883 0
-2075 -2165 1884 0
-2075 -2166 1885 0
-2075 -2167 1886 0
-2075 -2168 1887 0
-2075 -2169 1888 0
-2075 -2170 1889 0
-2075 -2171 1890 0
-2075 -2172 1891 0
-2075 -2173 1892 0
-2075 -2174 1893 0
-2075 -2175 1894 0
-2075 -2176 1895 0
-2075 -2177 1896 0
-2075 -2178 1897 0
-2075 -2179 1898 0
-2075 -2180 1899 0
-2075 -2181 1900 0
-2075 -2182 1901 0
-2075 -2183 1902 0
-2075 -2184 1903 0
-2075 -2185 1904 0
-2075 -2186 1905 0
-2075 -2187 1906 0
-2075 -2188 1907 0
-2075 -2189 1908 0
-2075 -2190 1909 0
-2075 -2191 1910 0
-2075 -2192 1911 0
-2075 -2193 1912 0
-2075 -2194 1913 0
-2075 -2195 1914 0
-2075 -2196 1915 0
-2075 -2197 1916 0
-2075 -2198 1917 0
-2075 -2199 1918 0
-2075 -2200 1919 0
-2075 -2201 1920 0
-2075 -2202 1921 0
-2075 -2203 1922 0
-2075 -2204 1923 0
-2075 -2205 1924 0
-2075 -2206 1925 0
-2075 -2207 1926 0
-2075 -2208 1927 0
-2075 -2209 1928 0
-2075 -2210 1929 0
-2075 -2211 1930 0
-2075 -2212 1931 0
-2075 -2213 1932 0
-2075 -2214 1933 0
-2075 -2215 1934 0
-2075 -2216 1935 0
-2075 -2217 1936 0
-2075 -2218 1937 0
-2075 -2219 1938 0
-2075 -2220 1939 0
-2075 -2221 1940 0
-2075 -2222 1941 0
-2075 -2223 1942 0
-2075 -2224 1943 0
-2075 -2225 1944 0
-2075 -2226 1945 0
-2075 -2227 1946 0
-2075 -2228 1947 0
-2075 -2229 1948 0
-2075 -2230 1949 0
-2075 -2231 1950 0
-2075 -2232 1951 0
-2075 -2233 1952 0
-2075 -2234 1953 0
-2075 -2235 1954 0
-2075 -2236 1955 0
-2075 -2237 1956 0
-2075 -2238 1957 0
-2075 -2239 1958 0
-2075 -2240 1959 0
-2076 -2125 1845 0
-2076 -2126 1846 0
-2076 -2127 1847 0
-2076 -2128 1848 0
-2076 -2129 1849 0
-2076 -2130 1850 0
-2076 -2131 1851 0
-2076 -2132 1852 0
-2076 -2133 1853 0
-2076 -2134 1854 0
-2076 -2135 1855 0
-2076 -2136 1856 0
-2076 -2137 1857 0
-2076 -2138 1858 0
-2076 -2139 1859 0
-2076 -2140 1860 0
-2076 -2141 1861 0
-2076 -2142 1862 0
-2076 -2143 1863 0
-2076 -2144 1864 0
-2076 -2145 1865 0
-2076 -2146 1866 0
-2076 -2147 1867 0
-2076 -2148 1868 0
-2076 -2149 1869 0
-2076 -2150 1870 0
-2076 -2151 1871 0
-2076 -2152 1872 0
-2076 -2153 1873 0
-2076 -2154 1874 0
-2076 -2155 1875 0
-2076 -2156 1876 0
-2076 -2157 1877 0
-2076 -2158 1878 0
-2076 -2159 1879 0
-2076 -2160 1880 0
-2076 -2161 1881 0
-2076 -2162 1882 0
-2076 -2163 1883 0
-2076 -2164 1884 0
-2076 -2165 1885 0
-2076 -2166 1886 0
-2076 -2167 1887 0
-2076 -2168 1888 0
-2076 -2169 1889 0
-2076 -2170 1890 0
-2076 -2171 1891 0
-2076 -2172 1892 0
-2076 -2173 1893 0
-2076 -2174 1894 0
-2076 -2175 1895 0
-2076 -2176 1896 0
-2076 -2177 1897 0
-2076 -2178 1898 0
-2076 -2179 1899 0
-2076 -2180 1900 0
-2076 -2181 1901 0
-2076 -2182 1902 0
-2076 -2183 1903 0
-2076 -2184 1904 0
-2076 -2185 1905 0
-2076 -2186 1906 0
-2076 -2187 1907 0
-2076 -2188 1908 0
-2076 -2189 1909 0
-2076 -2190 1910 0
-2076 -2191 1911 0
-2076 -2192 1912 0
-2076 -2193 1913 0
-2076 -2194 1914 0
-2076 -2195 1915 0
-2076 -2196 1916 0
-2076 -2197 1917 0
-2076 -2198 1918 0
-2076 -2199 1919 0
-2076 -2200 1920 0
-2076 -2201 1921 0
-2076 -2202 1922 0
-2076 -2203 1923 0
-2076 -2204 1924 0
-2076 -2205 1925 0
-2076 -2206 1926 0
-2076 -2207 1927 0
-2076 -2208 1928 0
-2076 -2209 1929 0
-2076 -2210 1930 0
-2076 -2211 1931 0
-2076 -2212 1932 0
-2076 -2213 1933 0
-2076 -2214 1934 0
-2076 -2215 1935 0
-2076 -2216 1936 0
-2076 -2217 1937 0
-2076 -2218 1938 0
-2076 -2219 1939 0
-2076 -2220 1940 0
-2076 -2221 1941 0
-2076 -2222 1942 0
-2076 -2223 1943 0
-2076 -2224 1944 0
-2076 -2225 1945 0
-2076 -2226 1946 0
-2076 -2227 1947 0
-2076 -2228 1948 0
-2076 -2229 1949 0
-2076 -2230 1950 0
-2076 -2231 1951 0
-2076 -2232 1952 0
-2076 -2233 1953 0
-2076 -2234 1954 0
-2076 -2235 1955 0
-2076 -2236 1956 0
-2076 -2237 1957 0
-2076 -2238 1958 0
-2076 -2239 1959 0
-2076 -2240 1960 0
-2077 -2125 1846 0
-2077 -2126 1847 0
-2077 -2127 1848 0
-2077 -2128 1849 0
-2077 -2129 1850 0
-2077 -2130 1851 0
-2077 -2131 1852 0
-2077 -2132 1853 0
-2077 -2133 1854 0
-2077 -2134 1855 0
-2077 -2135 1856 0
-2077 -2136 1857 0
-2077 -2137 1858 0
-2077 -2138 1859 0
-2077 -2139 1860 0
-2077 -2140 1861 0
-2077 -2141 1862 0
-2077 -2142 1863 0
-2077 -2143 1864 0
-2077 -2144 1865 0
-2077 -2145 1866 0
-2077 -2146 1867 0
-2077 -2147 1868 0
-2077 -2148 1869 0
-2077 -2149 1870 0
-2077 -2150 1871 0
-2077 -2151 1872 0
-2077 -2152 1873 0
-2077 -2153 1874 0
-2077 -2154 1875 0
-2077 -2155 1876 0
-2077 -2156 1877 0
-2077 -2157 1878 0
-2077 -2158 1879 0
-2077 -2159 1880 0
-2077 -2160 1881 0
-2077 -2161 1882 0
-2077 -2162 1883 0
-2077 -2163 1884 0
-2077 -2164 1885 0
-2077 -2165 1886 0
-2077 -2166 1887 0
-2077 -2167 1888 0
-2077 -2168 1889 0
-2077 -2169 1890 0
-2077 -2170 1891 0
-2077 -2171 1892 0
-2077 -2172 1893 0
-2077 -2173 1894 0
-2077 -2174 1895 0
-2077 -2175 1896 0
-2077 -2176 1897 0
-2077 -2177 1898 0
-2077 -2178 1899 0
-2077 -2179 1900 0
-2077 -2180 1901 0
-2077 -2181 1902 0
-2077 -2182 1903 0
-2077 -2183 1904 0
-2077 -2184 1905 0
-2077 -2185 1906 0
-2077 -2186 1907 0
-2077 -2187 1908 0
-2077 -2188 1909 0
-2077 -2189 1910 0
-2077 -2190 1911 0
-2077 -2191 1912 0
-2077 -2192 1913 0
-2077 -2193 1914 0
-2077 -2194 1915 0
-2077 -2195 1916 0
-2077 -2196 1917 0
-2077 -2197 1918 0
-2077 -2198 1919 0
-2077 -2199 1920 0
-2077 -2200 1921 0
-2077 -2201 1922 0
-2077 -2202 1923 0
-2077 -2203 1924 0
-2077 -2204 1925 0
-2077 -2205 1926 0
-2077 -2206 1927 0
-2077 -2207 1928 0
-2077 -2208 1929 0
-2077 -2209 1930 0
-2077 -2210 1931 0
-2077 -2211 1932 0
-2077 -2212 1933 0
-2077 -2213 1934 0
-2077 -2214 1935 0
-2077 -2215 1936 0
-2077 -2216 1937 0
-2077 -2217 1938 0
-2077 -2218 1939 0
-2077 -2219 1940 0
-2077 -2220 1941 0
-2077 -2221 1942 0
-2077 -2222 1943 0
-2077 -2223 1944 0
-2077 -2224 1945 0
-2077 -2225 1946 0
-2077 -2226 1947 0
-2077 -2227 1948 0
-2077 -2228 1949 0
-2077 -2229 1950 0
-2077 -2230 1951 0
-2077 -2231 1952 0
-2077 -2232 1953 0
-2077 -2233 1954 0
-2077 -2234 1955 0
-2077 -2235 1956 0
-2077 -2236 1957 0
-2077 -2237 1958 0
-2077 -2238 1959 0
-2077 -2239 1960 0
-2077 -2240 1961 0
-2078 -2125 1847 0
-2078 -2126 1848 0
-2078 -2127 1849 0
-2078 -2128 1850 0
-2078 -2129 1851 0
-2078 -2130 1852 0
-2078 -2131 1853 0
-2078 -2132 1854 0
-2078 -2133 1855 0
-2078 -2134 1856 0
-2078 -2135 1857 0
-2078 -2136 1858 0
-2078 -2137 1859 0
-2078 -2138 1860 0
-2078 -2139 1861 0
-2078 -2140 1862 0
-2078 -2141 1863 0
-2078 -2142 1864 0
-2078 -2143 1865 0
-2078 -2144 1866 0
-2078 -2145 1867 0
-2078 -2146 1868 0
-2078 -2147 1869 0
-2078 -2148 1870 0
-2078 -2149 1871 0
-2078 -2150 1872 0
-2078 -2151 1873 0
-2078 -2152 1874 0
-2078 -2153 1875 0
-2078 -2154 1876 0
-2078 -2155 1877 0
-2078 -2156 1878 0
-2078 -2157 1879 0
-2078 -2158 1880 0
-2078 -2159 1881 0
-2078 -2160 1882 0
-2078 -2161 1883 0
-2078 -2162 1884 0
-2078 -2163 1885 0
-2078 -2164 1886 0
-2078 -2165 1887 0
-2078 -2166 1888 0
-2078 -2167 1889 0
-2078 -2168 1890 0
-2078 -2169 1891 0
-2078 -2170 1892 0
-2078 -2171 1893 0
-2078 -2172 1894 0
-2078 -2173 1895 0
-2078 -2174 1896 0
-2078 -2175 1897 0
-2078 -2176 1898 0
-2078 -2177 1899 0
-2078 -2178 1900 0
-2078 -2179 1901 0
-2078 -2180 1902 0
-2078 -2181 1903 0
-2078 -2182 1904 0
-2078 -2183 1905 0
-2078 -2184 1906 0
-2078 -2185 1907 0
-2078 -2186 1908 0
-2078 -2187 1909 0
-2078 -2188 1910 0
-2078 -2189 1911 0
-2078 -2190 1912 0
-2078 -2191 1913 0
-2078 -2192 1914 0
-2078 -2193 1915 0
-2078 -2194 1916 0
-2078 -2195 1917 0
-2078 -2196 1918 0
-2078 -2197 1919 0
-2078 -2198 1920 0
-2078 -2199 1921 0
-2078 -2200 1922 0
-2078 -2201 1923 0
-2078 -2202 1924 0
-2078 -2203 1925 0
-2078 -2204 1926 0
-2078 -2205 1927 0
-2078 -2206 1928 0
-2078 -2207 1929 0
-2078 -2208 1930 0
-2078 -2209 1931 0
-2078 -2210 1932 0
-2078 -2211 1933 0
-2078 -2212 1934 0
-2078 -2213 1935 0
-2078 -2214 1936 0
-2078 -2215 1937 0
-2078 -2216 1938 0
-2078 -2217 1939 0
-2078 -2218 1940 0
-2078 -2219 1941 0
-2078 -2220 1942 0
-2078 -2221 1943 0
-2078 -2222 1944 0
-2078 -2223 1945 0
-2078 -2224 1946 0
-2078 -2225 1947 0
-2078 -2226 1948 0
-2078 -2227 1949 0
-2078 -2228 1950 0
-2078 -2229 1951 0
-2078 -2230 1952 0
-2078 -2231 1953 0
-2078 -2232 1954 0
-2078 -2233 1955 0
-2078 -2234 1956 0
-2078 -2235 1957 0
-2078 -2236 1958 0
-2078 -2237 1959 0
-2078 -2238 1960 0
-2078 -2239 1961 0
-2078 -2240 1962 0
-2079 -2125 1848 0
-2079 -2126 1849 0
-2079 -2127 1850 0
-2079 -2128 1851 0
-2079 -2129 1852 0
-2079 -2130 1853 0
-2079 -2131 1854 0
-2079 -2132 1855 0
-2079 -2133 1856 0
-2079 -2134 1857 0
-2079 -2135 1858 0
-2079 -2136 1859 0
-2079 -2137 1860 0
-2079 -2138 1861 0
-2079 -2139 1862 0
-2079 -2140 1863 0
-2079 -2141 1864 0
-2079 -2142 1865 0
-2079 -2143 1866 0
-2079 -2144 1867 0
-2079 -2145 1868 0
-2079 -2146 1869 0
-2079 -2147 1870 0
-2079 -2148 1871 0
-2079 -2149 1872 0
-2079 -2150 1873 0
-2079 -2151 1874 0
-2079 -2152 1875 0
-2079 -2153 1876 0
-2079 -2154 1877 0
-2079 -2155 1878 0
-2079 -2156 1879 0
-2079 -2157 1880 0
-2079 -2158 1881 0
-2079 -2159 1882 0
-2079 -2160 1883 0
-2079 -2161 1884 0
-2079 -2162 1885 0
-2079 -2163 1886 0
-2079 -2164 1887 0
-2079 -2165 1888 0
-2079 -2166 1889 0
-2079 -2167 1890 0
-2079 -2168 1891 0
-2079 -2169 1892 0
-2079 -2170 1893 0
-2079 -2171 1894 0
-2079 -2172 1895 0
-2079 -2173 1896 0
-2079 -2174 1897 0
-2079 -2175 1898 0
-2079 -2176 1899 0
-2079 -2177 1900 0
-2079 -2178 1901 0
-2079 -2179 1902 0
-2079 -2180 1903 0
-2079 -2181 1904 0
-2079 -2182 1905 0
-2079 -2183 1906 0
-2079 -2184 1907 0
-2079 -2185 1908 0
-2079 -2186 1909 0
-2079 -2187 1910 0
-2079 -2188 1911 0
-2079 -2189 1912 0
-2079 -2190 1913 0
-2079 -2191 1914 0
-2079 -2192 1915 0
-2079 -2193 1916 0
-2079 -2194 1917 0
-2079 -2195 1918 0
-2079 -2196 1919 0
-2079 -2197 1920 0
-2079 -2198 1921 0
-2079 -2199 1922 0
-2079 -2200 1923 0
-2079 -2201 1924 0
-2079 -2202 1925 0
-2079 -2203 1926 0
-2079 -2204 1927 0
-2079 -2205 1928 0
-2079 -2206 1929 0
-2079 -2207 1930 0
-2079 -2208 1931 0
-2079 -2209 1932 0
-2079 -2210 1933 0
-2079 -2211 1934 0
-2079 -2212 1935 0
-2079 -2213 1936 0
-2079 -2214 1937 0
-2079 -2215 1938 0
-2079 -2216 1939 0
-2079 -2217 1940 0
-2079 -2218 1941 0
-2079 -2219 1942 0
-2079 -2220 1943 0
-2079 -2221 1944 0
-2079 -2222 1945 0
-2079 -2223 1946 0
-2079 -2224 1947 0
-2079 -2225 1948 0
-2079 -2226 1949 0
-2079 -2227 1950 0
-2079 -2228 1951 0
-2079 -2229 1952 0
-2079 -2230 1953 0
-2079 -2231 1954 0
-2079 -2232 1955 0
-2079 -2233 1956 0
-2079 -2234 1957 0
-2079 -2235 1958 0
-2079 -2236 1959 0
-2079 -2237 1960 0
-2079 -2238 1961 0
-2079 -2239 1962 0
-2079 -2240 1963 0
-2080 -2125 1849 0
-2080 -2126 1850 0
-2080 -2127 1851 0
-2080 -2128 1852 0
-2080 -2129 1853 0
-2080 -2130 1854 0
-2080 -2131 1855 0
-2080 -2132 1856 0
-2080 -2133 1857 0
-2080 -2134 1858 0
-2080 -2135 1859 0
-2080 -2136 1860 0
-2080 -2137 1861 0
-2080 -2138 1862 0
-2080 -2139 1863 0
-2080 -2140 1864 0
-2080 -2141 1865 0
-2080 -2142 1866 0
-2080 -2143 1867 0
-2080 -2144 1868 0
-2080 -2145 1869 0
-2080 -2146 1870 0
-2080 -2147 1871 0
-2080 -2148 1872 0
-2080 -2149 1873 0
-2080 -2150 1874 0
-2080 -2151 1875 0
-2080 -2152 1876 0
-2080 -2153 1877 0
-2080 -2154 1878 0
-2080 -2155 1879 0
-2080 -2156 1880 0
-2080 -2157 1881 0
-2080 -2158 1882 0
-2080 -2159 1883 0
-2080 -2160 1884 0
-2080 -2161 1885 0
-2080 -2162 1886 0
-2080 -2163 1887 0
-2080 -2164 1888 0
-2080 -2165 1889 0
-2080 -2166 1890 0
-2080 -2167 1891 0
-2080 -2168 1892 0
-2080 -2169 1893 0
-2080 -2170 1894 0
-2080 -2171 1895 0
-2080 -2172 1896 0
-2080 -2173 1897 0
-2080 -2174 1898 0
-2080 -2175 1899 0
-2080 -2176 1900 0
-2080 -2177 1901 0
-2080 -2178 1902 0
-2080 -2179 1903 0
-2080 -2180 1904 0
-2080 -2181 1905 0
-2080 -2182 1906 0
-2080 -2183 1907 0
-2080 -2184 1908 0
-2080 -2185 1909 0
-2080 -2186 1910 0
-2080 -2187 1911 0
-2080 -2188 1912 0
-2080 -2189 1913 0
-2080 -2190 1914 0
-2080 -2191 1915 0
-2080 -2192 1916 0
-2080 -2193 1917 0
-2080 -2194 1918 0
-2080 -2195 1919 0
-2080 -2196 1920 0
-2080 -2197 1921 0
-2080 -2198 1922 0
-2080 -2199 1923 0
-2080 -2200 1924 0
-2080 -2201 1925 0
-2080 -2202 1926 0
-2080 -2203 1927 0
-2080 -2204 1928 0
-2080 -2205 1929 0
-2080 -2206 1930 0
-2080 -2207 1931 0
-2080 -2208 1932 0
-2080 -2209 1933 0
-2080 -2210 1934 0
-2080 -2211 1935 0
-2080 -2212 1936 0
-2080 -2213 1937 0
-2080 -2214 1938 0
-2080 -2215 1939 0
-2080 -2216 1940 0
-2080 -2217 1941 0
-2080 -2218 1942 0
-2080 -2219 1943 0
-2080 -2220 1944 0
-2080 -2221 1945 0
-2080 -2222 1946 0
-2080 -2223 1947 0
-2080 -2224 1948 0
-2080 -2225 1949 0
-2080 -2226 1950 0
-2080 -2227 1951 0
-2080 -2228 1952 0
-2080 -2229 1953 0
-2080 -2230 1954 0
-2080 -2231 1955 0
-2080 -2232 1956 0
-2080 -2233 1957 0
-2080 -2234 1958 0
-2080 -2235 1959 0
-2080 -2236 1960 0
-2080 -2237 1961 0
-2080 -2238 1962 0
-2080 -2239 1963 0
-2080 -2240 1964 0
-2081 -2125 1850 0
-2081 -2126 1851 0
-2081 -2127 1852 0
-2081 -2128 1853 0
-2081 -2129 1854 0
-2081 -2130 1855 0
-2081 -2131 1856 0
-2081 -2132 1857 0
-2081 -2133 1858 0
-2081 -2134 1859 0
-2081 -2135 1860 0
-2081 -2136 1861 0
-2081 -2137 1862 0
-2081 -2138 1863 0
-2081 -2139 1864 0
-2081 -2140 1865 0
-2081 -2141 1866 0
-2081 -2142 1867 0
-2081 -2143 1868 0
-2081 -2144 1869 0
-2081 -2145 1870 0
-2081 -2146 1871 0
-2081 -2147 1872 0
-2081 -2148 1873 0
-2081 -2149 1874 0
-2081 -2150 1875 0
-2081 -2151 1876 0
-2081 -2152 1877 0
-2081 -2153 1878 0
-2081 -2154 1879 0
-2081 -2155 1880 0
-2081 -2156 1881 0
-2081 -2157 1882 0
-2081 -2158 1883 0
-2081 -2159 1884 0
-2081 -2160 1885 0
-2081 -2161 1886 0
-2081 -2162 1887 0
-2081 -2163 1888 0
-2081 -2164 1889 0
-2081 -2165 1890 0
-2081 -2166 1891 0
-2081 -2167 1892 0
-2081 -2168 1893 0
-2081 -2169 1894 0
-2081 -2170 1895 0
-2081 -2171 1896 0
-2081 -2172 1897 0
-2081 -2173 1898 0
-2081 -2174 1899 0
-2081 -2175 1900 0
-2081 -2176 1901 0
-2081 -2177 1902 0
-2081 -2178 1903 0
-2081 -2179 1904 0
-2081 -2180 1905 0
-2081 -2181 1906 0
-2081 -2182 1907 0
-2081 -2183 1908 0
-2081 -2184 1909 0
-2081 -2185 1910 0
-2081 -2186 1911 0
-2081 -2187 1912 0
-2081 -2188 1913 0
-2081 -2189 1914 0
-2081 -2190 1915 0
-2081 -2191 1916 0
-2081 -2192 1917 0
-2081 -2193 1918 0
-2081 -2194 1919 0
-2081 -2195 1920 0
-2081 -2196 1921 0
-2081 -2197 1922 0
-2081 -2198 1923 0
-2081 -2199 1924 0
-2081 -2200 1925 0
-2081 -2201 1926 0
-2081 -2202 1927 0
-2081 -2203 1928 0
-2081 -2204 1929 0
-2081 -2205 1930 0
-2081 -2206 1931 0
-2081 -2207 1932 0
-2081 -2208 1933 0
-2081 -2209 1934 0
-2081 -2210 1935 0
-2081 -2211 1936 0
-2081 -2212 1937 0
-2081 -2213 1938 0
-2081 -2214 1939 0
-2081 -2215 1940 0
-2081 -2216 1941 0
-2081 -2217 1942 0
-2081 -2218 1943 0
-2081 -2219 1944 0
-2081 -2220 1945 0
-2081 -2221 1946 0
-2081 -2222 1947 0
-2081 -2223 1948 0
-2081 -2224 1949 0
-2081 -2225 1950 0
-2081 -2226 1951 0
-2081 -2227 1952 0
-2081 -2228 1953 0
-2081 -2229 1954 0
-2081 -2230 1955 0
-2081 -2231 1956 0
-2081 -2232 1957 0
-2081 -2233 1958 0
-2081 -2234 1959 0
-2081 -2235 1960 0
-2081 -2236 1961 0
-2081 -2237 1962 0
-2081 -2238 1963 0
-2081 -2239 1964 0
-2081 -2240 1965 0
-2082 -2125 1851 0
-2082 -2126 1852 0
-2082 -2127 1853 0
-2082 -2128 1854 0
-2082 -2129 1855 0
-2082 -2130 1856 0
-2082 -2131 1857 0
-2082 -2132 1858 0
-2082 -2133 1859 0
-2082 -2134 1860 0
-2082 -2135 1861 0
-2082 -2136 1862 0
-2082 -2137 1863 0
-2082 -2138 1864 0
-2082 -2139 1865 0
-2082 -2140 1866 0
-2082 -2141 1867 0
-2082 -2142 1868 0
-2082 -2143 1869 0
-2082 -2144 1870 0
-2082 -2145 1871 0
-2082 -2146 1872 0
-2082 -2147 1873 0
-2082 -2148 1874 0
-2082 -2149 1875 0
-2082 -2150 1876 0
-2082 -2151 1877 0
-2082 -2152 1878 0
-2082 -2153 1879 0
-2082 -2154 1880 0
-2082 -2155 1881 0
-2082 -2156 1882 0
-2082 -2157 1883 0
-2082 -2158 1884 0
-2082 -2159 1885 0
-2082 -2160 1886 0
-2082 -2161 1887 0
-2082 -2162 1888 0
-2082 -2163 1889 0
-2082 -2164 1890 0
-2082 -2165 1891 0
-2082 -2166 1892 0
-2082 -2167 1893 0
-2082 -2168 1894 0
-2082 -2169 1895 0
-2082 -2170 1896 0
-2082 -2171 1897 0
-2082 -2172 1898 0
-2082 -2173 1899 0
-2082 -2174 1900 0
-2082 -2175 1901 0
-2082 -2176 1902 0
-2082 -2177 1903 0
-2082 -2178 1904 0
-2082 -2179 1905 0
-2082 -2180 1906 0
-2082 -2181 1907 0
-2082 -2182 1908 0
-2082 -2183 1909 0
-2082 -2184 1910 0
-2082 -2185 1911 0
-2082 -2186 1912 0
-2082 -2187 1913 0
-2082 -2188 1914 0
-2082 -2189 1915 0
-2082 -2190 1916 0
-2082 -2191 1917 0
-2082 -2192 1918 0
-2082 -2193 1919 0
-2082 -2194 1920 0
-2082 -2195 1921 0
-2082 -2196 1922 0
-2082 -2197 1923 0
-2082 -2198 1924 0
-2082 -2199 1925 0
-2082 -2200 1926 0
-2082 -2201 1927 0
-2082 -2202 1928 0
-2082 -2203 1929 0
-2082 -2204 1930 0
-2082 -2205 1931 0
-2082 -2206 1932 0
-2082 -2207 1933 0
-2082 -2208 1934 0
-2082 -2209 1935 0
-2082 -2210 1936 0
-2082 -2211 1937 0
-2082 -2212 1938 0
-2082 -2213 1939 0
-2082 -2214 1940 0
-2082 -2215 1941 0
-2082 -2216 1942 0
-2082 -2217 1943 0
-2082 -2218 1944 0
-2082 -2219 1945 0
-2082 -2220 1946 0
-2082 -2221 1947 0
-2082 -2222 1948 0
-2082 -2223 1949 0
-2082 -2224 1950 0
-2082 -2225 1951 0
-2082 -2226 1952 0
-2082 -2227 1953 0
-2082 -2228 1954 0
-2082 -2229 1955 0
-2082 -2230 1956 0
-2082 -2231 1957 0
-2082 -2232 1958 0
-2082 -2233 1959 0
-2082 -2234 1960 0
-2082 -2235 1961 0
-2082 -2236 1962 0
-2082 -2237 1963 0
-2082 -2238 1964 0
-2082 -2239 1965 0
-2082 -2240 1966 0
-2083 -2125 1852 0
-2083 -2126 1853 0
-2083 -2127 1854 0
-2083 -2128 1855 0
-2083 -2129 1856 0
-2083 -2130 1857 0
-2083 -2131 1858 0
-2083 -2132 1859 0
-2083 -2133 1860 0
-2083 -2134 1861 0
-2083 -2135 1862 0
-2083 -2136 1863 0
-2083 -2137 1864 0
-2083 -2138 1865 0
-2083 -2139 1866 0
-2083 -2140 1867 0
-2083 -2141 1868 0
-2083 -2142 1869 0
-2083 -2143 1870 0
-2083 -2144 1871 0
-2083 -2145 1872 0
-2083 -2146 1873 0
-2083 -2147 1874 0
-2083 -2148 1875 0
-2083 -2149 1876 0
-2083 -2150 1877 0
-2083 -2151 1878 0
-2083 -2152 1879 0
-2083 -2153 1880 0
-2083 -2154 1881 0
-2083 -2155 1882 0
-2083 -2156 1883 0
-2083 -2157 1884 0
-2083 -2158 1885 0
-2083 -2159 1886 0
-2083 -2160 1887 0
-2083 -2161 1888 0
-2083 -2162 1889 0
-2083 -2163 1890 0
-2083 -2164 1891 0
-2083 -2165 1892 0
-2083 -2166 1893 0
-2083 -2167 1894 0
-2083 -2168 1895 0
-2083 -2169 1896 0
-2083 -2170 1897 0
-2083 -2171 1898 0
-2083 -2172 1899 0
-2083 -2173 1900 0
-2083 -2174 1901 0
-2083 -2175 1902 0
-2083 -2176 1903 0
-2083 -2177 1904 0
-2083 -2178 1905 0
-2083 -2179 1906 0
-2083 -2180 1907 0
-2083 -2181 1908 0
-2083 -2182 1909 0
-2083 -2183 1910 0
-2083 -2184 1911 0
-2083 -2185 1912 0
-2083 -2186 1913 0
-2083 -2187 1914 0
-2083 -2188 1915 0
-2083 -2189 1916 0
-2083 -2190 1917 0
-2083 -2191 1918 0
-2083 -2192 1919 0
-2083 -2193 1920 0
-2083 -2194 1921 0
-2083 -2195 1922 0
-2083 -2196 1923 0
-2083 -2197 1924 0
-2083 -2198 1925 0
-2083 -2199 1926 0
-2083 -2200 1927 0
-2083 -2201 1928 0
-2083 -2202 1929 0
-2083 -2203 1930 0
-2083 -2204 1931 0
-2083 -2205 1932 0
-2083 -2206 1933 0
-2083 -2207 1934 0
-2083 -2208 1935 0
-2083 -2209 1936 0
-2083 -2210 1937 0
-2083 -2211 1938 0
-2083 -2212 1939 0
-2083 -2213 1940 0
-2083 -2214 1941 0
-2083 -2215 1942 0
-2083 -2216 1943 0
-2083 -2217 1944 0
-2083 -2218 1945 0
-2083 -2219 1946 0
-2083 -2220 1947 0
-2083 -2221 1948 0
-2083 -2222 1949 0
-2083 -2223 1950 0
-2083 -2224 1951 0
-2083 -2225 1952 0
-2083 -2226 1953 0
-2083 -2227 1954 0
-2083 -2228 1955 0
-2083 -2229 1956 0
-2083 -2230 1957 0
-2083 -2231 1958 0
-2083 -2232 1959 0
-2083 -2233 1960 0
-2083 -2234 1961 0
-2083 -2235 1962 0
-2083 -2236 1963 0
-2083 -2237 1964 0
-2083 -2238 1965 0
-2083 -2239 1966 0
-2083 -2240 1967 0
-2084 -2125 1853 0
-2084 -2126 1854 0
-2084 -2127 1855 0
-2084 -2128 1856 0
-2084 -2129 1857 0
-2084 -2130 1858 0
-2084 -2131 1859 0
-2084 -2132 1860 0
-2084 -2133 1861 0
-2084 -2134 1862 0
-2084 -2135 1863 0
-2084 -2136 1864 0
-2084 -2137 1865 0
-2084 -2138 1866 0
-2084 -2139 1867 0
-2084 -2140 1868 0
-2084 -2141 1869 0
-2084 -2142 1870 0
-2084 -2143 1871 0
-2084 -2144 1872 0
-2084 -2145 1873 0
-2084 -2146 1874 0
-2084 -2147 1875 0
-2084 -2148 1876 0
-2084 -2149 1877 0
-2084 -2150 1878 0
-2084 -2151 1879 0
-2084 -2152 1880 0
-2084 -2153 1881 0
-2084 -2154 1882 0
-2084 -2155 1883 0
-2084 -2156 1884 0
-2084 -2157 1885 0
-2084 -2158 1886 0
-2084 -2159 1887 0
-2084 -2160 1888 0
-2084 -2161 1889 0
-2084 -2162 1890 0
-2084 -2163 1891 0
-2084 -2164 1892 0
-2084 -2165 1893 0
-2084 -2166 1894 0
-2084 -2167 1895 0
-2084 -2168 1896 0
-2084 -2169 1897 0
-2084 -2170 1898 0
-2084 -2171 1899 0
-2084 -2172 1900 0
-2084 -2173 1901 0
-2084 -2174 1902 0
-2084 -2175 1903 0
-2084 -2176 1904 0
-2084 -2177 1905 0
-2084 -2178 1906 0
-2084 -2179 1907 0
-2084 -2180 1908 0
-2084 -2181 1909 0
-2084 -2182 1910 0
-2084 -2183 1911 0
-2084 -2184 1912 0
-2084 -2185 1913 0
-2084 -2186 1914 0
-2084 -2187 1915 0
-2084 -2188 1916 0
-2084 -2189 1917 0
-2084 -2190 1918 0
-2084 -2191 1919 0
-2084 -2192 1920 0
-2084 -2193 1921 0
-2084 -2194 1922 0
-2084 -2195 1923 0
-2084 -2196 1924 0
-2084 -2197 1925 0
-2084 -2198 1926 0
-2084 -2199 1927 0
-2084 -2200 1928 0
-2084 -2201 1929 0
-2084 -2202 1930 0
-2084 -2203 1931 0
-2084 -2204 1932 0
-2084 -2205 1933 0
-2084 -2206 1934 0
-2084 -2207 1935 0
-2084 -2208 1936 0
-2084 -2209 1937 0
-2084 -2210 1938 0
-2084 -2211 1939 0
-2084 -2212 1940 0
-2084 -2213 1941 0
-2084 -2214 1942 0
-2084 -2215 1943 0
-2084 -2216 1944 0
-2084 -2217 1945 0
-2084 -2218 1946 0
-2084 -2219 1947 0
-2084 -2220 1948 0
-2084 -2221 1949 0
-2084 -2222 1950 0
-2084 -2223 1951 0
-2084 -2224 1952 0
-2084 -2225 1953 0
-2084 -2226 1954 0
-2084 -2227 1955 0
-2084 -2228 1956 0
-2084 -2229 1957 0
-2084 -2230 1958 0
-2084 -2231 1959 0
-2084 -2232 1960 0
-2084 -2233 1961 0
-2084 -2234 1962 0
-2084 -2235 1963 0
-2084 -2236 1964 0
-2084 -2237 1965 0
-2084 -2238 1966 0
-2084 -2239 1967 0
-2084 -2240 1968 0
-2085 -2125 1854 0
-2085 -2126 1855 0
-2085 -2127 1856 0
-2085 -2128 1857 0
-2085 -2129 1858 0
-2085 -2130 1859 0
-2085 -2131 1860 0
-2085 -2132 1861 0
-2085 -2133 1862 0
-2085 -2134 1863 0
-2085 -2135 1864 0
-2085 -2136 1865 0
-2085 -2137 1866 0
-2085 -2138 1867 0
-2085 -2139 1868 0
-2085 -2140 1869 0
-2085 -2141 1870 0
-2085 -2142 1871 0
-2085 -2143 1872 0
-2085 -2144 1873 0
-2085 -2145 1874 0
-2085 -2146 1875 0
-2085 -2147 1876 0
-2085 -2148 1877 0
-2085 -2149 1878 0
-2085 -2150 1879 0
-2085 -2151 1880 0
-2085 -2152 1881 0
-2085 -2153 1882 0
-2085 -2154 1883 0
-2085 -2155 1884 0
-2085 -2156 1885 0
-2085 -2157 1886 0
-2085 -2158 1887 0
-2085 -2159 1888 0
-2085 -2160 1889 0
-2085 -2161 1890 0
-2085 -2162 1891 0
-2085 -2163 1892 0
-2085 -2164 1893 0
-2085 -2165 1894 0
-2085 -2166 1895 0
-2085 -2167 1896 0
-2085 -2168 1897 0
-2085 -2169 1898 0
-2085 -2170 1899 0
-2085 -2171 1900 0
-2085 -2172 1901 0
-2085 -2173 1902 0
-2085 -2174 1903 0
-2085 -2175 1904 0
-2085 -2176 1905 0
-2085 -2177 1906 0
-2085 -2178 1907 0
-2085 -2179 1908 0
-2085 -2180 1909 0
-2085 -2181 1910 0
-2085 -2182 1911 0
-2085 -2183 1912 0
-2085 -2184 1913 0
-2085 -2185 1914 0
-2085 -2186 1915 0
-2085 -2187 1916 0
-2085 -2188 1917 0
-2085 -2189 1918 0
-2085 -2190 1919 0
-2085 -2191 1920 0
-2085 -2192 1921 0
-2085 -2193 1922 0
-2085 -2194 1923 0
-2085 -2195 1924 0
-2085 -2196 1925 0
-2085 -2197 1926 0
-2085 -2198 1927 0
-2085 -2199 1928 0
-2085 -2200 1929 0
-2085 -2201 1930 0
-2085 -2202 1931 0
-2085 -2203 1932 0
-2085 -2204 1933 0
-2085 -2205 1934 0
-2085 -2206 1935 0
-2085 -2207 1936 0
-2085 -2208 1937 0
-2085 -2209 1938 0
-2085 -2210 1939 0
-2085 -2211 1940 0
-2085 -2212 1941 0
-2085 -2213 1942 0
-2085 -2214 1943 0
-2085 -2215 1944 0
-2085 -2216 1945 0
-2085 -2217 1946 0
-2085 -2218 1947 0
-2085 -2219 1948 0
-2085 -2220 1949 0
-2085 -2221 1950 0
-2085 -2222 1951 0
-2085 -2223 1952 0
-2085 -2224 1953 0
-2085 -2225 1954 0
-2085 -2226 1955 0
-2085 -2227 1956 0
-2085 -2228 1957 0
-2085 -2229 1958 0
-2085 -2230 1959 0
-2085 -2231 1960 0
-2085 -2232 1961 0
-2085 -2233 1962 0
-2085 -2234 1963 0
-2085 -2235 1964 0
-2085 -2236 1965 0
-2085 -2237 1966 0
-2085 -2238 1967 0
-2085 -2239 1968 0
-2085 -2240 1969 0
-2086 -2125 1855 0
-2086 -2126 1856 0
-2086 -2127 1857 0
-2086 -2128 1858 0
-2086 -2129 1859 0
-2086 -2130 1860 0
-2086 -2131 1861 0
-2086 -2132 1862 0
-2086 -2133 1863 0
-2086 -2134 1864 0
-2086 -2135 1865 0
-2086 -2136 1866 0
-2086 -2137 1867 0
-2086 -2138 1868 0
-2086 -2139 1869 0
-2086 -2140 1870 0
-2086 -2141 1871 0
-2086 -2142 1872 0
-2086 -2143 1873 0
-2086 -2144 1874 0
-2086 -2145 1875 0
-2086 -2146 1876 0
-2086 -2147 1877 0
-2086 -2148 1878 0
-2086 -2149 1879 0
-2086 -2150 1880 0
-2086 -2151 1881 0
-2086 -2152 1882 0
-2086 -2153 1883 0
-2086 -2154 1884 0
-2086 -2155 1885 0
-2086 -2156 1886 0
-2086 -2157 1887 0
-2086 -2158 1888 0
-2086 -2159 1889 0
-2086 -2160 1890 0
-2086 -2161 1891 0
-2086 -2162 1892 0
-2086 -2163 1893 0
-2086 -2164 1894 0
-2086 -2165 1895 0
-2086 -2166 1896 0
-2086 -2167 1897 0
-2086 -2168 1898 0
-2086 -2169 1899 0
-2086 -2170 1900 0
-2086 -2171 1901 0
-2086 -2172 1902 0
-2086 -2173 1903 0
-2086 -2174 1904 0
-2086 -2175 1905 0
-2086 -2176 1906 0
-2086 -2177 1907 0
-2086 -2178 1908 0
-2086 -2179 1909 0
-2086 -2180 1910 0
-2086 -2181 1911 0
-2086 -2182 1912 0
-2086 -2183 1913 0
-2086 -2184 1914 0
-2086 -2185 1915 0
-2086 -2186 1916 0
-2086 -2187 1917 0
-2086 -2188 1918 0
-2086 -2189 1919 0
-2086 -2190 1920 0
-2086 -2191 1921 0
-2086 -2192 1922 0
-2086 -2193 1923 0
-2086 -2194 1924 0
-2086 -2195 1925 0
-2086 -2196 1926 0
-2086 -2197 1927 0
-2086 -2198 1928 0
-2086 -2199 1929 0
-2086 -2200 1930 0
-2086 -2201 1931 0
-2086 -2202 1932 0
-2086 -2203 1933 0
-2086 -2204 1934 0
-2086 -2205 1935 0
-2086 -2206 1936 0
-2086 -2207 1937 0
-2086 -2208 1938 0
-2086 -2209 1939 0
-2086 -2210 1940 0
-2086 -2211 1941 0
-2086 -2212 1942 0
-2086 -2213 1943 0
-2086 -2214 1944 0
-2086 -2215 1945 0
-2086 -2216 1946 0
-2086 -2217 1947 0
-2086 -2218 1948 0
-2086 -2219 1949 0
-2086 -2220 1950 0
-2086 -2221 1951 0
-2086 -2222 1952 0
-2086 -2223 1953 0
-2086 -2224 1954 0
-2086 -2225 1955 0
-2086 -2226 1956 0
-2086 -2227 1957 0
-2086 -2228 1958 0
-2086 -2229 1959 0
-2086 -2230 1960 0
-2086 -2231 1961 0
-2086 -2232 1962 0
-2086 -2233 1963 0
-2086 -2234 1964 0
-2086 -2235 1965 0
-2086 -2236 1966 0
-2086 -2237 1967 0
-2086 -2238 1968 0
-2086 -2239 1969 0
-2086 -2240 1970 0
-2087 -2125 1856 0
-2087 -2126 1857 0
-2087 -2127 1858 0
-2087 -2128 1859 0
-2087 -2129 1860 0
-2087 -2130 1861 0
-2087 -2131 1862 0
-2087 -2132 1863 0
-2087 -2133 1864 0
-2087 -2134 1865 0
-2087 -2135 1866 0
-2087 -2136 1867 0
-2087 -2137 1868 0
-2087 -2138 1869 0
-2087 -2139 1870 0
-2087 -2140 1871 0
-2087 -2141 1872 0
-2087 -2142 1873 0
-2087 -2143 1874 0
-2087 -2144 1875 0
-2087 -2145 1876 0
-2087 -2146 1877 0
-2087 -2147 1878 0
-2087 -2148 1879 0
-2087 -2149 1880 0
-2087 -2150 1881 0
-2087 -2151 1882 0
-2087 -2152 1883 0
-2087 -2153 1884 0
-2087 -2154 1885 0
-2087 -2155 1886 0
-2087 -2156 1887 0
-2087 -2157 1888 0
-2087 -2158 1889 0
-2087 -2159 1890 0
-2087 -2160 1891 0
-2087 -2161 1892 0
-2087 -2162 1893 0
-2087 -2163 1894 0
-2087 -2164 1895 0
-2087 -2165 1896 0
-2087 -2166 1897 0
-2087 -2167 1898 0
-2087 -2168 1899 0
-2087 -2169 1900 0
-2087 -2170 1901 0
-2087 -2171 1902 0
-2087 -2172 1903 0
-2087 -2173 1904 0
-2087 -2174 1905 0
-2087 -2175 1906 0
-2087 -2176 1907 0
-2087 -2177 1908 0
-2087 -2178 1909 0
-2087 -2179 1910 0
-2087 -2180 1911 0
-2087 -2181 1912 0
-2087 -2182 1913 0
-2087 -2183 1914 0
-2087 -2184 1915 0
-2087 -2185 1916 0
-2087 -2186 1917 0
-2087 -2187 1918 0
-2087 -2188 1919 0
-2087 -2189 1920 0
-2087 -2190 1921 0
-2087 -2191 1922 0
-2087 -2192 1923 0
-2087 -2193 1924 0
-2087 -2194 1925 0
-2087 -2195 1926 0
-2087 -2196 1927 0
-2087 -2197 1928 0
-2087 -2198 1929 0
-2087 -2199 1930 0
-2087 -2200 1931 0
-2087 -2201 1932 0
-2087 -2202 1933 0
-2087 -2203 1934 0
-2087 -2204 1935 0
-2087 -2205 1936 0
-2087 -2206 1937 0
-2087 -2207 1938 0
-2087 -2208 1939 0
-2087 -2209 1940 0
-2087 -2210 1941 0
-2087 -2211 1942 0
-2087 -2212 1943 0
-2087 -2213 1944 0
-2087 -2214 1945 0
-2087 -2215 1946 0
-2087 -2216 1947 0
-2087 -2217 1948 0
-2087 -2218 1949 0
-2087 -2219 1950 0
-2087 -2220 1951 0
-2087 -2221 1952 0
-2087 -2222 1953 0
-2087 -2223 1954 0
-2087 -2224 1955 0
-2087 -2225 1956 0
-2087 -2226 1957 0
-2087 -2227 1958 0
-2087 -2228 1959 0
-2087 -2229 1960 0
-2087 -2230 1961 0
-2087 -2231 1962 0
-2087 -2232 1963 0
-2087 -2233 1964 0
-2087 -2234 1965 0
-2087 -2235 1966 0
-2087 -2236 1967 0
-2087 -2237 1968 0
-2087 -2238 1969 0
-2087 -2239 1970 0
-2087 -2240 1971 0
-2088 -2125 1857 0
-2088 -2126 1858 0
-2088 -2127 1859 0
-2088 -2128 1860 0
-2088 -2129 1861 0
-2088 -2130 1862 0
-2088 -2131 1863 0
-2088 -2132 1864 0
-2088 -2133 1865 0
-2088 -2134 1866 0
-2088 -2135 1867 0
-2088 -2136 1868 0
-2088 -2137 1869 0
-2088 -2138 1870 0
-2088 -2139 1871 0
-2088 -2140 1872 0
-2088 -2141 1873 0
-2088 -2142 1874 0
-2088 -2143 1875 0
-2088 -2144 1876 0
-2088 -2145 1877 0
-2088 -2146 1878 0
-2088 -2147 1879 0
-2088 -2148 1880 0
-2088 -2149 1881 0
-2088 -2150 1882 0
-2088 -2151 1883 0
-2088 -2152 1884 0
-2088 -2153 1885 0
-2088 -2154 1886 0
-2088 -2155 1887 0
-2088 -2156 1888 0
-2088 -2157 1889 0
-2088 -2158 1890 0
-2088 -2159 1891 0
-2088 -2160 1892 0
-2088 -2161 1893 0
-2088 -2162 1894 0
-2088 -2163 1895 0
-2088 -2164 1896 0
-2088 -2165 1897 0
-2088 -2166 1898 0
-2088 -2167 1899 0
-2088 -2168 1900 0
-2088 -2169 1901 0
-2088 -2170 1902 0
-2088 -2171 1903 0
-2088 -2172 1904 0
-2088 -2173 1905 0
-2088 -2174 1906 0
-2088 -2175 1907 0
-2088 -2176 1908 0
-2088 -2177 1909 0
-2088 -2178 1910 0
-2088 -2179 1911 0
-2088 -2180 1912 0
-2088 -2181 1913 0
-2088 -2182 1914 0
-2088 -2183 1915 0
-2088 -2184 1916 0
-2088 -2185 1917 0
-2088 -2186 1918 0
-2088 -2187 1919 0
-2088 -2188 1920 0
-2088 -2189 1921 0
-2088 -2190 1922 0
-2088 -2191 1923 0
-2088 -2192 1924 0
-2088 -2193 1925 0
-2088 -2194 1926 0
-2088 -2195 1927 0
-2088 -2196 1928 0
-2088 -2197 1929 0
-2088 -2198 1930 0
-2088 -2199 1931 0
-2088 -2200 1932 0
-2088 -2201 1933 0
-2088 -2202 1934 0
-2088 -2203 1935 0
-2088 -2204 1936 0
-2088 -2205 1937 0
-2088 -2206 1938 0
-2088 -2207 1939 0
-2088 -2208 1940 0
-2088 -2209 1941 0
-2088 -2210 1942 0
-2088 -2211 1943 0
-2088 -2212 1944 0
-2088 -2213 1945 0
-2088 -2214 1946 0
-2088 -2215 1947 0
-2088 -2216 1948 0
-2088 -2217 1949 0
-2088 -2218 1950 0
-2088 -2219 1951 0
-2088 -2220 1952 0
-2088 -2221 1953 0
-2088 -2222 1954 0
-2088 -2223 1955 0
-2088 -2224 1956 0
-2088 -2225 1957 0
-2088 -2226 1958 0
-2088 -2227 1959 0
-2088 -2228 1960 0
-2088 -2229 1961 0
-2088 -2230 1962 0
-2088 -2231 1963 0
-2088 -2232 1964 0
-2088 -2233 1965 0
-2088 -2234 1966 0
-2088 -2235 1967 0
-2088 -2236 1968 0
-2088 -2237 1969 0
-2088 -2238 1970 0
-2088 -2239 1971 0
-2088 -2240 1972 0
-2089 -2125 1858 0
-2089 -2126 1859 0
-2089 -2127 1860 0
-2089 -2128 1861 0
-2089 -2129 1862 0
-2089 -2130 1863 0
-2089 -2131 1864 0
-2089 -2132 1865 0
-2089 -2133 1866 0
-2089 -2134 1867 0
-2089 -2135 1868 0
-2089 -2136 1869 0
-2089 -2137 1870 0
-2089 -2138 1871 0
-2089 -2139 1872 0
-2089 -2140 1873 0
-2089 -2141 1874 0
-2089 -2142 1875 0
-2089 -2143 1876 0
-2089 -2144 1877 0
-2089 -2145 1878 0
-2089 -2146 1879 0
-2089 -2147 1880 0
-2089 -2148 1881 0
-2089 -2149 1882 0
-2089 -2150 1883 0
-2089 -2151 1884 0
-2089 -2152 1885 0
-2089 -2153 1886 0
-2089 -2154 1887 0
-2089 -2155 1888 0
-2089 -2156 1889 0
-2089 -2157 1890 0
-2089 -2158 1891 0
-2089 -2159 1892 0
-2089 -2160 1893 0
-2089 -2161 1894 0
-2089 -2162 1895 0
-2089 -2163 1896 0
-2089 -2164 1897 0
-2089 -2165 1898 0
-2089 -2166 1899 0
-2089 -2167 1900 0
-2089 -2168 1901 0
-2089 -2169 1902 0
-2089 -2170 1903 0
-2089 -2171 1904 0
-2089 -2172 1905 0
-2089 -2173 1906 0
-2089 -2174 1907 0
-2089 -2175 1908 0
-2089 -2176 1909 0
-2089 -2177 1910 0
-2089 -2178 1911 0
-2089 -2179 1912 0
-2089 -2180 1913 0
-2089 -2181 1914 0
-2089 -2182 1915 0
-2089 -2183 1916 0
-2089 -2184 1917 0
-2089 -2185 1918 0
-2089 -2186 1919 0
-2089 -2187 1920 0
-2089 -2188 1921 0
-2089 -2189 1922 0
-2089 -2190 1923 0
-2089 -2191 1924 0
-2089 -2192 1925 0
-2089 -2193 1926 0
-2089 -2194 1927 0
-2089 -2195 1928 0
-2089 -2196 1929 0
-2089 -2197 1930 0
-2089 -2198 1931 0
-2089 -2199 1932 0
-2089 -2200 1933 0
-2089 -2201 1934 0
-2089 -2202 1935 0
-2089 -2203 1936 0
-2089 -2204 1937 0
-2089 -2205 1938 0
-2089 -2206 1939 0
-2089 -2207 1940 0
-2089 -2208 1941 0
-2089 -2209 1942 0
-2089 -2210 1943 0
-2089 -2211 1944 0
-2089 -2212 1945 0
-2089 -2213 1946 0
-2089 -2214 1947 0
-2089 -2215 1948 0
-2089 -2216 1949 0
-2089 -2217 1950 0
-2089 -2218 1951 0
-2089 -2219 1952 0
-2089 -2220 1953 0
-2089 -2221 1954 0
-2089 -2222 1955 0
-2089 -2223 1956 0
-2089 -2224 1957 0
-2089 -2225 1958 0
-2089 -2226 1959 0
-2089 -2227 1960 0
-2089 -2228 1961 0
-2089 -2229 1962 0
-2089 -2230 1963 0
-2089 -2231 1964 0
-2089 -2232 1965 0
-2089 -2233 1966 0
-2089 -2234 1967 0
-2089 -2235 1968 0
-2089 -2236 1969 0
-2089 -2237 1970 0
-2089 -2238 1971 0
-2089 -2239 1972 0
-2089 -2240 1973 0
-2090 -2125 1859 0
-2090 -2126 1860 0
-2090 -2127 1861 0
-2090 -2128 1862 0
-2090 -2129 1863 0
-2090 -2130 1864 0
-2090 -2131 1865 0
-2090 -2132 1866 0
-2090 -2133 1867 0
-2090 -2134 1868 0
-2090 -2135 1869 0
-2090 -2136 1870 0
-2090 -2137 1871 0
-2090 -2138 1872 0
-2090 -2139 1873 0
-2090 -2140 1874 0
-2090 -2141 1875 0
-2090 -2142 1876 0
-2090 -2143 1877 0
-2090 -2144 1878 0
-2090 -2145 1879 0
-2090 -2146 1880 0
-2090 -2147 1881 0
-2090 -2148 1882 0
-2090 -2149 1883 0
-2090 -2150 1884 0
-2090 -2151 1885 0
-2090 -2152 1886 0
-2090 -2153 1887 0
-2090 -2154 1888 0
-2090 -2155 1889 0
-2090 -2156 1890 0
-2090 -2157 1891 0
-2090 -2158 1892 0
-2090 -2159 1893 0
-2090 -2160 1894 0
-2090 -2161 1895 0
-2090 -2162 1896 0
-2090 -2163 1897 0
-2090 -2164 1898 0
-2090 -2165 1899 0
-2090 -2166 1900 0
-2090 -2167 1901 0
-2090 -2168 1902 0
-2090 -2169 1903 0
-2090 -2170 1904 0
-2090 -2171 1905 0
-2090 -2172 1906 0
-2090 -2173 1907 0
-2090 -2174 1908 0
-2090 -2175 1909 0
-2090 -2176 1910 0
-2090 -2177 1911 0
-2090 -2178 1912 0
-2090 -2179 1913 0
-2090 -2180 1914 0
-2090 -2181 1915 0
-2090 -2182 1916 0
-2090 -2183 1917 0
-2090 -2184 1918 0
-2090 -2185 1919 0
-2090 -2186 1920 0
-2090 -2187 1921 0
-2090 -2188 1922 0
-2090 -2189 1923 0
-2090 -2190 1924 0
-2090 -2191 1925 0
-2090 -2192 1926 0
-2090 -2193 1927 0
-2090 -2194 1928 0
-2090 -2195 1929 0
-2090 -2196 1930 0
-2090 -2197 1931 0
-2090 -2198 1932 0
-2090 -2199 1933 0
-2090 -2200 1934 0
-2090 -2201 1935 0
-2090 -2202 1936 0
-2090 -2203 1937 0
-2090 -2204 1938 0
-2090 -2205 1939 0
-2090 -2206 1940 0
-2090 -2207 1941 0
-2090 -2208 1942 0
-2090 -2209 1943 0
-2090 -2210 1944 0
-2090 -2211 1945 0
-2090 -2212 1946 0
-2090 -2213 1947 0
-2090 -2214 1948 0
-2090 -2215 1949 0
-2090 -2216 1950 0
-2090 -2217 1951 0
-2090 -2218 1952 0
-2090 -2219 1953 0
-2090 -2220 1954 0
-2090 -2221 1955 0
-2090 -2222 1956 0
-2090 -2223 1957 0
-2090 -2224 1958 0
-2090 -2225 1959 0
-2090 -2226 1960 0
-2090 -2227 1961 0
-2090 -2228 1962 0
-2090 -2229 1963 0
-2090 -2230 1964 0
-2090 -2231 1965 0
-2090 -2232 1966 0
-2090 -2233 1967 0
-2090 -2234 1968 0
-2090 -2235 1969 0
-2090 -2236 1970 0
-2090 -2237 1971 0
-2090 -2238 1972 0
-2090 -2239 1973 0
-2090 -2240 1974 0
-2091 -2125 1860 0
-2091 -2126 1861 0
-2091 -2127 1862 0
-2091 -2128 1863 0
-2091 -2129 1864 0
-2091 -2130 1865 0
-2091 -2131 1866 0
-2091 -2132 1867 0
-2091 -2133 1868 0
-2091 -2134 1869 0
-2091 -2135 1870 0
-2091 -2136 1871 0
-2091 -2137 1872 0
-2091 -2138 1873 0
-2091 -2139 1874 0
-2091 -2140 1875 0
-2091 -2141 1876 0
-2091 -2142 1877 0
-2091 -2143 1878 0
-2091 -2144 1879 0
-2091 -2145 1880 0
-2091 -2146 1881 0
-2091 -2147 1882 0
-2091 -2148 1883 0
-2091 -2149 1884 0
-2091 -2150 1885 0
-2091 -2151 1886 0
-2091 -2152 1887 0
-2091 -2153 1888 0
-2091 -2154 1889 0
-2091 -2155 1890 0
-2091 -2156 1891 0
-2091 -2157 1892 0
-2091 -2158 1893 0
-2091 -2159 1894 0
-2091 -2160 1895 0
-2091 -2161 1896 0
-2091 -2162 1897 0
-2091 -2163 1898 0
-2091 -2164 1899 0
-2091 -2165 1900 0
-2091 -2166 1901 0
-2091 -2167 1902 0
-2091 -2168 1903 0
-2091 -2169 1904 0
-2091 -2170 1905 0
-2091 -2171 1906 0
-2091 -2172 1907 0
-2091 -2173 1908 0
-2091 -2174 1909 0
-2091 -2175 1910 0
-2091 -2176 1911 0
-2091 -2177 1912 0
-2091 -2178 1913 0
-2091 -2179 1914 0
-2091 -2180 1915 0
-2091 -2181 1916 0
-2091 -2182 1917 0
-2091 -2183 1918 0
-2091 -2184 1919 0
-2091 -2185 1920 0
-2091 -2186 1921 0
-2091 -2187 1922 0
-2091 -2188 1923 0
-2091 -2189 1924 0
-2091 -2190 1925 0
-2091 -2191 1926 0
-2091 -2192 1927 0
-2091 -2193 1928 0
-2091 -2194 1929 0
-2091 -2195 1930 0
-2091 -2196 1931 0
-2091 -2197 1932 0
-2091 -2198 1933 0
-2091 -2199 1934 0
-2091 -2200 1935 0
-2091 -2201 1936 0
-2091 -2202 1937 0
-2091 -2203 1938 0
-2091 -2204 1939 0
-2091 -2205 1940 0
-2091 -2206 1941 0
-2091 -2207 1942 0
-2091 -2208 1943 0
-2091 -2209 1944 0
-2091 -2210 1945 0
-2091 -2211 1946 0
-2091 -2212 1947 0
-2091 -2213 1948 0
-2091 -2214 1949 0
-2091 -2215 1950 0
-2091 -2216 1951 0
-2091 -2217 1952 0
-2091 -2218 1953 0
-2091 -2219 1954 0
-2091 -2220 1955 0
-2091 -2221 1956 0
-2091 -2222 1957 0
-2091 -2223 1958 0
-2091 -2224 1959 0
-2091 -2225 1960 0
-2091 -2226 1961 0
-2091 -2227 1962 0
-2091 -2228 1963 0
-2091 -2229 1964 0
-2091 -2230 1965 0
-2091 -2231 1966 0
-2091 -2232 1967 0
-2091 -2233 1968 0
-2091 -2234 1969 0
-2091 -2235 1970 0
-2091 -2236 1971 0
-2091 -2237 1972 0
-2091 -2238 1973 0
-2091 -2239 1974 0
-2091 -2240 1975 0
-2092 -2125 1861 0
-2092 -2126 1862 0
-2092 -2127 1863 0
-2092 -2128 1864 0
-2092 -2129 1865 0
-2092 -2130 1866 0
-2092 -2131 1867 0
-2092 -2132 1868 0
-2092 -2133 1869 0
-2092 -2134 1870 0
-2092 -2135 1871 0
-2092 -2136 1872 0
-2092 -2137 1873 0
-2092 -2138 1874 0
-2092 -2139 1875 0
-2092 -2140 1876 0
-2092 -2141 1877 0
-2092 -2142 1878 0
-2092 -2143 1879 0
-2092 -2144 1880 0
-2092 -2145 1881 0
-2092 -2146 1882 0
-2092 -2147 1883 0
-2092 -2148 1884 0
-2092 -2149 1885 0
-2092 -2150 1886 0
-2092 -2151 1887 0
-2092 -2152 1888 0
-2092 -2153 1889 0
-2092 -2154 1890 0
-2092 -2155 1891 0
-2092 -2156 1892 0
-2092 -2157 1893 0
-2092 -2158 1894 0
-2092 -2159 1895 0
-2092 -2160 1896 0
-2092 -2161 1897 0
-2092 -2162 1898 0
-2092 -2163 1899 0
-2092 -2164 1900 0
-2092 -2165 1901 0
-2092 -2166 1902 0
-2092 -2167 1903 0
-2092 -2168 1904 0
-2092 -2169 1905 0
-2092 -2170 1906 0
-2092 -2171 1907 0
-2092 -2172 1908 0
-2092 -2173 1909 0
-2092 -2174 1910 0
-2092 -2175 1911 0
-2092 -2176 1912 0
-2092 -2177 1913 0
-2092 -2178 1914 0
-2092 -2179 1915 0
-2092 -2180 1916 0
-2092 -2181 1917 0
-2092 -2182 1918 0
-2092 -2183 1919 0
-2092 -2184 1920 0
-2092 -2185 1921 0
-2092 -2186 1922 0
-2092 -2187 1923 0
-2092 -2188 1924 0
-2092 -2189 1925 0
-2092 -2190 1926 0
-2092 -2191 1927 0
-2092 -2192 1928 0
-2092 -2193 1929 0
-2092 -2194 1930 0
-2092 -2195 1931 0
-2092 -2196 1932 0
-2092 -2197 1933 0
-2092 -2198 1934 0
-2092 -2199 1935 0
-2092 -2200 1936 0
-2092 -2201 1937 0
-2092 -2202 1938 0
-2092 -2203 1939 0
-2092 -2204 1940 0
-2092 -2205 1941 0
-2092 -2206 1942 0
-2092 -2207 1943 0
-2092 -2208 1944 0
-2092 -2209 1945 0
-2092 -2210 1946 0
-2092 -2211 1947 0
-2092 -2212 1948 0
-2092 -2213 1949 0
-2092 -2214 1950 0
-2092 -2215 1951 0
-2092 -2216 1952 0
-2092 -2217 1953 0
-2092 -2218 1954 0
-2092 -2219 1955 0
-2092 -2220 1956 0
-2092 -2221 1957 0
-2092 -2222 1958 0
-2092 -2223 1959 0
-2092 -2224 1960 0
-2092 -2225 1961 0
-2092 -2226 1962 0
-2092 -2227 1963 0
-2092 -2228 1964 0
-2092 -2229 1965 0
-2092 -2230 1966 0
-2092 -2231 1967 0
-2092 -2232 1968 0
-2092 -2233 1969 0
-2092 -2234 1970 0
-2092 -2235 1971 0
-2092 -2236 1972 0
-2092 -2237 1973 0
-2092 -2238 1974 0
-2092 -2239 1975 0
-2092 -2240 1976 0
-2093 -2125 1862 0
-2093 -2126 1863 0
-2093 -2127 1864 0
-2093 -2128 1865 0
-2093 -2129 1866 0
-2093 -2130 1867 0
-2093 -2131 1868 0
-2093 -2132 1869 0
-2093 -2133 1870 0
-2093 -2134 1871 0
-2093 -2135 1872 0
-2093 -2136 1873 0
-2093 -2137 1874 0
-2093 -2138 1875 0
-2093 -2139 1876 0
-2093 -2140 1877 0
-2093 -2141 1878 0
-2093 -2142 1879 0
-2093 -2143 1880 0
-2093 -2144 1881 0
-2093 -2145 1882 0
-2093 -2146 1883 0
-2093 -2147 1884 0
-2093 -2148 1885 0
-2093 -2149 1886 0
-2093 -2150 1887 0
-2093 -2151 1888 0
-2093 -2152 1889 0
-2093 -2153 1890 0
-2093 -2154 1891 0
-2093 -2155 1892 0
-2093 -2156 1893 0
-2093 -2157 1894 0
-2093 -2158 1895 0
-2093 -2159 1896 0
-2093 -2160 1897 0
-2093 -2161 1898 0
-2093 -2162 1899 0
-2093 -2163 1900 0
-2093 -2164 1901 0
-2093 -2165 1902 0
-2093 -2166 1903 0
-2093 -2167 1904 0
-2093 -2168 1905 0
-2093 -2169 1906 0
-2093 -2170 1907 0
-2093 -2171 1908 0
-2093 -2172 1909 0
-2093 -2173 1910 0
-2093 -2174 1911 0
-2093 -2175 1912 0
-2093 -2176 1913 0
-2093 -2177 1914 0
-2093 -2178 1915 0
-2093 -2179 1916 0
-2093 -2180 1917 0
-2093 -2181 1918 0
-2093 -2182 1919 0
-2093 -2183 1920 0
-2093 -2184 1921 0
-2093 -2185 1922 0
-2093 -2186 1923 0
-2093 -2187 1924 0
-2093 -2188 1925 0
-2093 -2189 1926 0
-2093 -2190 1927 0
-2093 -2191 1928 0
-2093 -2192 1929 0
-2093 -2193 1930 0
-2093 -2194 1931 0
-2093 -2195 1932 0
-2093 -2196 1933 0
-2093 -2197 1934 0
-2093 -2198 1935 0
-2093 -2199 1936 0
-2093 -2200 1937 0
-2093 -2201 1938 0
-2093 -2202 1939 0
-2093 -2203 1940 0
-2093 -2204 1941 0
-2093 -2205 1942 0
-2093 -2206 1943 0
-2093 -2207 1944 0
-2093 -2208 1945 0
-2093 -2209 1946 0
-2093 -2210 1947 0
-2093 -2211 1948 0
-2093 -2212 1949 0
-2093 -2213 1950 0
-2093 -2214 1951 0
-2093 -2215 1952 0
-2093 -2216 1953 0
-2093 -2217 1954 0
-2093 -2218 1955 0
-2093 -2219 1956 0
-2093 -2220 1957 0
-2093 -2221 1958 0
-2093 -2222 1959 0
-2093 -2223 1960 0
-2093 -2224 1961 0
-2093 -2225 1962 0
-2093 -2226 1963 0
-2093 -2227 1964 0
-2093 -2228 1965 0
-2093 -2229 1966 0
-2093 -2230 1967 0
-2093 -2231 1968 0
-2093 -2232 1969 0
-2093 -2233 1970 0
-2093 -2234 1971 0
-2093 -2235 1972 0
-2093 -2236 1973 0
-2093 -2237 1974 0
-2093 -2238 1975 0
-2093 -2239 1976 0
-2093 -2240 1977 0
-2094 -2125 1863 0
-2094 -2126 1864 0
-2094 -2127 1865 0
-2094 -2128 1866 0
-2094 -2129 1867 0
-2094 -2130 1868 0
-2094 -2131 1869 0
-2094 -2132 1870 0
-2094 -2133 1871 0
-2094 -2134 1872 0
-2094 -2135 1873 0
-2094 -2136 1874 0
-2094 -2137 1875 0
-2094 -2138 1876 0
-2094 -2139 1877 0
-2094 -2140 1878 0
-2094 -2141 1879 0
-2094 -2142 1880 0
-2094 -2143 1881 0
-2094 -2144 1882 0
-2094 -2145 1883 0
-2094 -2146 1884 0
-2094 -2147 1885 0
-2094 -2148 1886 0
-2094 -2149 1887 0
-2094 -2150 1888 0
-2094 -2151 1889 0
-2094 -2152 1890 0
-2094 -2153 1891 0
-2094 -2154 1892 0
-2094 -2155 1893 0
-2094 -2156 1894 0
-2094 -2157 1895 0
-2094 -2158 1896 0
-2094 -2159 1897 0
-2094 -2160 1898 0
-2094 -2161 1899 0
-2094 -2162 1900 0
-2094 -2163 1901 0
-2094 -2164 1902 0
-2094 -2165 1903 0
-2094 -2166 1904 0
-2094 -2167 1905 0
-2094 -2168 1906 0
-2094 -2169 1907 0
-2094 -2170 1908 0
-2094 -2171 1909 0
-2094 -2172 1910 0
-2094 -2173 1911 0
-2094 -2174 1912 0
-2094 -2175 1913 0
-2094 -2176 1914 0
-2094 -2177 1915 0
-2094 -2178 1916 0
-2094 -2179 1917 0
-2094 -2180 1918 0
-2094 -2181 1919 0
-2094 -2182 1920 0
-2094 -2183 1921 0
-2094 -2184 1922 0
-2094 -2185 1923 0
-2094 -2186 1924 0
-2094 -2187 1925 0
-2094 -2188 1926 0
-2094 -2189 1927 0
-2094 -2190 1928 0
-2094 -2191 1929 0
-2094 -2192 1930 0
-2094 -2193 1931 0
-2094 -2194 1932 0
-2094 -2195 1933 0
-2094 -2196 1934 0
-2094 -2197 1935 0
-2094 -2198 1936 0
-2094 -2199 1937 0
-2094 -2200 1938 0
-2094 -2201 1939 0
-2094 -2202 1940 0
-2094 -2203 1941 0
-2094 -2204 1942 0
-2094 -2205 1943 0
-2094 -2206 1944 0
-2094 -2207 1945 0
-2094 -2208 1946 0
-2094 -2209 1947 0
-2094 -2210 1948 0
-2094 -2211 1949 0
-2094 -2212 1950 0
-2094 -2213 1951 0
-2094 -2214 1952 0
-2094 -2215 1953 0
-2094 -2216 1954 0
-2094 -2217 1955 0
-2094 -2218 1956 0
-2094 -2219 1957 0
-2094 -2220 1958 0
-2094 -2221 1959 0
-2094 -2222 1960 0
-2094 -2223 1961 0
-2094 -2224 1962 0
-2094 -2225 1963 0
-2094 -2226 1964 0
-2094 -2227 1965 0
-2094 -2228 1966 0
-2094 -2229 1967 0
-2094 -2230 1968 0
-2094 -2231 1969 0
-2094 -2232 1970 0
-2094 -2233 1971 0
-2094 -2234 1972 0
-2094 -2235 1973 0
-2094 -2236 1974 0
-2094 -2237 1975 0
-2094 -2238 1976 0
-2094 -2239 1977 0
-2094 -2240 1978 0
-2095 -2125 1864 0
-2095 -2126 1865 0
-2095 -2127 1866 0
-2095 -2128 1867 0
-2095 -2129 1868 0
-2095 -2130 1869 0
-2095 -2131 1870 0
-2095 -2132 1871 0
-2095 -2133 1872 0
-2095 -2134 1873 0
-2095 -2135 1874 0
-2095 -2136 1875 0
-2095 -2137 1876 0
-2095 -2138 1877 0
-2095 -2139 1878 0
-2095 -2140 1879 0
-2095 -2141 1880 0
-2095 -2142 1881 0
-2095 -2143 1882 0
-2095 -2144 1883 0
-2095 -2145 1884 0
-2095 -2146 1885 0
-2095 -2147 1886 0
-2095 -2148 1887 0
-2095 -2149 1888 0
-2095 -2150 1889 0
-2095 -2151 1890 0
-2095 -2152 1891 0
-2095 -2153 1892 0
-2095 -2154 1893 0
-2095 -2155 1894 0
-2095 -2156 1895 0
-2095 -2157 1896 0
-2095 -2158 1897 0
-2095 -2159 1898 0
-2095 -2160 1899 0
-2095 -2161 1900 0
-2095 -2162 1901 0
-2095 -2163 1902 0
-2095 -2164 1903 0
-2095 -2165 1904 0
-2095 -2166 1905 0
-2095 -2167 1906 0
-2095 -2168 1907 0
-2095 -2169 1908 0
-2095 -2170 1909 0
-2095 -2171 1910 0
-2095 -2172 1911 0
-2095 -2173 1912 0
-2095 -2174 1913 0
-2095 -2175 1914 0
-2095 -2176 1915 0
-2095 -2177 1916 0
-2095 -2178 1917 0
-2095 -2179 1918 0
-2095 -2180 1919 0
-2095 -2181 1920 0
-2095 -2182 1921 0
-2095 -2183 1922 0
-2095 -2184 1923 0
-2095 -2185 1924 0
-2095 -2186 1925 0
-2095 -2187 1926 0
-2095 -2188 1927 0
-2095 -2189 1928 0
-2095 -2190 1929 0
-2095 -2191 1930 0
-2095 -2192 1931 0
-2095 -2193 1932 0
-2095 -2194 1933 0
-2095 -2195 1934 0
-2095 -2196 1935 0
-2095 -2197 1936 0
-2095 -2198 1937 0
-2095 -2199 1938 0
-2095 -2200 1939 0
-2095 -2201 1940 0
-2095 -2202 1941 0
-2095 -2203 1942 0
-2095 -2204 1943 0
-2095 -2205 1944 0
-2095 -2206 1945 0
-2095 -2207 1946 0
-2095 -2208 1947 0
-2095 -2209 1948 0
-2095 -2210 1949 0
-2095 -2211 1950 0
-2095 -2212 1951 0
-2095 -2213 1952 0
-2095 -2214 1953 0
-2095 -2215 1954 0
-2095 -2216 1955 0
-2095 -2217 1956 0
-2095 -2218 1957 0
-2095 -2219 1958 0
-2095 -2220 1959 0
-2095 -2221 1960 0
-2095 -2222 1961 0
-2095 -2223 1962 0
-2095 -2224 1963 0
-2095 -2225 1964 0
-2095 -2226 1965 0
-2095 -2227 1966 0
-2095 -2228 1967 0
-2095 -2229 1968 0
-2095 -2230 1969 0
-2095 -2231 1970 0
-2095 -2232 1971 0
-2095 -2233 1972 0
-2095 -2234 1973 0
-2095 -2235 1974 0
-2095 -2236 1975 0
-2095 -2237 1976 0
-2095 -2238 1977 0
-2095 -2239 1978 0
-2095 -2240 1979 0
-2096 -2125 1865 0
-2096 -2126 1866 0
-2096 -2127 1867 0
-2096 -2128 1868 0
-2096 -2129 1869 0
-2096 -2130 1870 0
-2096 -2131 1871 0
-2096 -2132 1872 0
-2096 -2133 1873 0
-2096 -2134 1874 0
-2096 -2135 1875 0
-2096 -2136 1876 0
-2096 -2137 1877 0
-2096 -2138 1878 0
-2096 -2139 1879 0
-2096 -2140 1880 0
-2096 -2141 1881 0
-2096 -2142 1882 0
-2096 -2143 1883 0
-2096 -2144 1884 0
-2096 -2145 1885 0
-2096 -2146 1886 0
-2096 -2147 1887 0
-2096 -2148 1888 0
-2096 -2149 1889 0
-2096 -2150 1890 0
-2096 -2151 1891 0
-2096 -2152 1892 0
-2096 -2153 1893 0
-2096 -2154 1894 0
-2096 -2155 1895 0
-2096 -2156 1896 0
-2096 -2157 1897 0
-2096 -2158 1898 0
-2096 -2159 1899 0
-2096 -2160 1900 0
-2096 -2161 1901 0
-2096 -2162 1902 0
-2096 -2163 1903 0
-2096 -2164 1904 0
-2096 -2165 1905 0
-2096 -2166 1906 0
-2096 -2167 1907 0
-2096 -2168 1908 0
-2096 -2169 1909 0
-2096 -2170 1910 0
-2096 -2171 1911 0
-2096 -2172 1912 0
-2096 -2173 1913 0
-2096 -2174 1914 0
-2096 -2175 1915 0
-2096 -2176 1916 0
-2096 -2177 1917 0
-2096 -2178 1918 0
-2096 -2179 1919 0
-2096 -2180 1920 0
-2096 -2181 1921 0
-2096 -2182 1922 0
-2096 -2183 1923 0
-2096 -2184 1924 0
-2096 -2185 1925 0
-2096 -2186 1926 0
-2096 -2187 1927 0
-2096 -2188 1928 0
-2096 -2189 1929 0
-2096 -2190 1930 0
-2096 -2191 1931 0
-2096 -2192 1932 0
-2096 -2193 1933 0
-2096 -2194 1934 0
-2096 -2195 1935 0
-2096 -2196 1936 0
-2096 -2197 1937 0
-2096 -2198 1938 0
-2096 -2199 1939 0
-2096 -2200 1940 0
-2096 -2201 1941 0
-2096 -2202 1942 0
-2096 -2203 1943 0
-2096 -2204 1944 0
-2096 -2205 1945 0
-2096 -2206 1946 0
-2096 -2207 1947 0
-2096 -2208 1948 0
-2096 -2209 1949 0
-2096 -2210 1950 0
-2096 -2211 1951 0
-2096 -2212 1952 0
-2096 -2213 1953 0
-2096 -2214 1954 0
-2096 -2215 1955 0
-2096 -2216 1956 0
-2096 -2217 1957 0
-2096 -2218 1958 0
-2096 -2219 1959 0
-2096 -2220 1960 0
-2096 -2221 1961 0
-2096 -2222 1962 0
-2096 -2223 1963 0
-2096 -2224 1964 0
-2096 -2225 1965 0
-2096 -2226 1966 0
-2096 -2227 1967 0
-2096 -2228 1968 0
-2096 -2229 1969 0
-2096 -2230 1970 0
-2096 -2231 1971 0
-2096 -2232 1972 0
-2096 -2233 1973 0
-2096 -2234 1974 0
-2096 -2235 1975 0
-2096 -2236 1976 0
-2096 -2237 1977 0
-2096 -2238 1978 0
-2096 -2239 1979 0
-2096 -2240 1980 0
-2097 -2125 1866 0
-2097 -2126 1867 0
-2097 -2127 1868 0
-2097 -2128 1869 0
-2097 -2129 1870 0
-2097 -2130 1871 0
-2097 -2131 1872 0
-2097 -2132 1873 0
-2097 -2133 1874 0
-2097 -2134 1875 0
-2097 -2135 1876 0
-2097 -2136 1877 0
-2097 -2137 1878 0
-2097 -2138 1879 0
-2097 -2139 1880 0
-2097 -2140 1881 0
-2097 -2141 1882 0
-2097 -2142 1883 0
-2097 -2143 1884 0
-2097 -2144 1885 0
-2097 -2145 1886 0
-2097 -2146 1887 0
-2097 -2147 1888 0
-2097 -2148 1889 0
-2097 -2149 1890 0
-2097 -2150 1891 0
-2097 -2151 1892 0
-2097 -2152 1893 0
-2097 -2153 1894 0
-2097 -2154 1895 0
-2097 -2155 1896 0
-2097 -2156 1897 0
-2097 -2157 1898 0
-2097 -2158 1899 0
-2097 -2159 1900 0
-2097 -2160 1901 0
-2097 -2161 1902 0
-2097 -2162 1903 0
-2097 -2163 1904 0
-2097 -2164 1905 0
-2097 -2165 1906 0
-2097 -2166 1907 0
-2097 -2167 1908 0
-2097 -2168 1909 0
-2097 -2169 1910 0
-2097 -2170 1911 0
-2097 -2171 1912 0
-2097 -2172 1913 0
-2097 -2173 1914 0
-2097 -2174 1915 0
-2097 -2175 1916 0
-2097 -2176 1917 0
-2097 -2177 1918 0
-2097 -2178 1919 0
-2097 -2179 1920 0
-2097 -2180 1921 0
-2097 -2181 1922 0
-2097 -2182 1923 0
-2097 -2183 1924 0
-2097 -2184 1925 0
-2097 -2185 1926 0
-2097 -2186 1927 0
-2097 -2187 1928 0
-2097 -2188 1929 0
-2097 -2189 1930 0
-2097 -2190 1931 0
-2097 -2191 1932 0
-2097 -2192 1933 0
-2097 -2193 1934 0
-2097 -2194 1935 0
-2097 -2195 1936 0
-2097 -2196 1937 0
-2097 -2197 1938 0
-2097 -2198 1939 0
-2097 -2199 1940 0
-2097 -2200 1941 0
-2097 -2201 1942 0
-2097 -2202 1943 0
-2097 -2203 1944 0
-2097 -2204 1945 0
-2097 -2205 1946 0
-2097 -2206 1947 0
-2097 -2207 1948 0
-2097 -2208 1949 0
-2097 -2209 1950 0
-2097 -2210 1951 0
-2097 -2211 1952 0
-2097 -2212 1953 0
-2097 -2213 1954 0
-2097 -2214 1955 0
-2097 -2215 1956 0
-2097 -2216 1957 0
-2097 -2217 1958 0
-2097 -2218 1959 0
-2097 -2219 1960 0
-2097 -2220 1961 0
-2097 -2221 1962 0
-2097 -2222 1963 0
-2097 -2223 1964 0
-2097 -2224 1965 0
-2097 -2225 1966 0
-2097 -2226 1967 0
-2097 -2227 1968 0
-2097 -2228 1969 0
-2097 -2229 1970 0
-2097 -2230 1971 0
-2097 -2231 1972 0
-2097 -2232 1973 0
-2097 -2233 1974 0
-2097 -2234 1975 0
-2097 -2235 1976 0
-2097 -2236 1977 0
-2097 -2237 1978 0
-2097 -2238 1979 0
-2097 -2239 1980 0
-2097 -2240 1981 0
-2098 -2125 1867 0
-2098 -2126 1868 0
-2098 -2127 1869 0
-2098 -2128 1870 0
-2098 -2129 1871 0
-2098 -2130 1872 0
-2098 -2131 1873 0
-2098 -2132 1874 0
-2098 -2133 1875 0
-2098 -2134 1876 0
-2098 -2135 1877 0
-2098 -2136 1878 0
-2098 -2137 1879 0
-2098 -2138 1880 0
-2098 -2139 1881 0
-2098 -2140 1882 0
-2098 -2141 1883 0
-2098 -2142 1884 0
-2098 -2143 1885 0
-2098 -2144 1886 0
-2098 -2145 1887 0
-2098 -2146 1888 0
-2098 -2147 1889 0
-2098 -2148 1890 0
-2098 -2149 1891 0
-2098 -2150 1892 0
-2098 -2151 1893 0
-2098 -2152 1894 0
-2098 -2153 1895 0
-2098 -2154 1896 0
-2098 -2155 1897 0
-2098 -2156 1898 0
-2098 -2157 1899 0
-2098 -2158 1900 0
-2098 -2159 1901 0
-2098 -2160 1902 0
-2098 -2161 1903 0
-2098 -2162 1904 0
-2098 -2163 1905 0
-2098 -2164 1906 0
-2098 -2165 1907 0
-2098 -2166 1908 0
-2098 -2167 1909 0
-2098 -2168 1910 0
-2098 -2169 1911 0
-2098 -2170 1912 0
-2098 -2171 1913 0
-2098 -2172 1914 0
-2098 -2173 1915 0
-2098 -2174 1916 0
-2098 -2175 1917 0
-2098 -2176 1918 0
-2098 -2177 1919 0
-2098 -2178 1920 0
-2098 -2179 1921 0
-2098 -2180 1922 0
-2098 -2181 1923 0
-2098 -2182 1924 0
-2098 -2183 1925 0
-2098 -2184 1926 0
-2098 -2185 1927 0
-2098 -2186 1928 0
-2098 -2187 1929 0
-2098 -2188 1930 0
-2098 -2189 1931 0
-2098 -2190 1932 0
-2098 -2191 1933 0
-2098 -2192 1934 0
-2098 -2193 1935 0
-2098 -2194 1936 0
-2098 -2195 1937 0
-2098 -2196 1938 0
-2098 -2197 1939 0
-2098 -2198 1940 0
-2098 -2199 1941 0
-2098 -2200 1942 0
-2098 -2201 1943 0
-2098 -2202 1944 0
-2098 -2203 1945 0
-2098 -2204 1946 0
-2098 -2205 1947 0
-2098 -2206 1948 0
-2098 -2207 1949 0
-2098 -2208 1950 0
-2098 -2209 1951 0
-2098 -2210 1952 0
-2098 -2211 1953 0
-2098 -2212 1954 0
-2098 -2213 1955 0
-2098 -2214 1956 0
-2098 -2215 1957 0
-2098 -2216 1958 0
-2098 -2217 1959 0
-2098 -2218 1960 0
-2098 -2219 1961 0
-2098 -2220 1962 0
-2098 -2221 1963 0
-2098 -2222 1964 0
-2098 -2223 1965 0
-2098 -2224 1966 0
-2098 -2225 1967 0
-2098 -2226 1968 0
-2098 -2227 1969 0
-2098 -2228 1970 0
-2098 -2229 1971 0
-2098 -2230 1972 0
-2098 -2231 1973 0
-2098 -2232 1974 0
-2098 -2233 1975 0
-2098 -2234 1976 0
-2098 -2235 1977 0
-2098 -2236 1978 0
-2098 -2237 1979 0
-2098 -2238 1980 0
-2098 -2239 1981 0
-2098 -2240 1982 0
-2099 -2125 1868 0
-2099 -2126 1869 0
-2099 -2127 1870 0
-2099 -2128 1871 0
-2099 -2129 1872 0
-2099 -2130 1873 0
-2099 -2131 1874 0
-2099 -2132 1875 0
-2099 -2133 1876 0
-2099 -2134 1877 0
-2099 -2135 1878 0
-2099 -2136 1879 0
-2099 -2137 1880 0
-2099 -2138 1881 0
-2099 -2139 1882 0
-2099 -2140 1883 0
-2099 -2141 1884 0
-2099 -2142 1885 0
-2099 -2143 1886 0
-2099 -2144 1887 0
-2099 -2145 1888 0
-2099 -2146 1889 0
-2099 -2147 1890 0
-2099 -2148 1891 0
-2099 -2149 1892 0
-2099 -2150 1893 0
-2099 -2151 1894 0
-2099 -2152 1895 0
-2099 -2153 1896 0
-2099 -2154 1897 0
-2099 -2155 1898 0
-2099 -2156 1899 0
-2099 -2157 1900 0
-2099 -2158 1901 0
-2099 -2159 1902 0
-2099 -2160 1903 0
-2099 -2161 1904 0
-2099 -2162 1905 0
-2099 -2163 1906 0
-2099 -2164 1907 0
-2099 -2165 1908 0
-2099 -2166 1909 0
-2099 -2167 1910 0
-2099 -2168 1911 0
-2099 -2169 1912 0
-2099 -2170 1913 0
-2099 -2171 1914 0
-2099 -2172 1915 0
-2099 -2173 1916 0
-2099 -2174 1917 0
-2099 -2175 1918 0
-2099 -2176 1919 0
-2099 -2177 1920 0
-2099 -2178 1921 0
-2099 -2179 1922 0
-2099 -2180 1923 0
-2099 -2181 1924 0
-2099 -2182 1925 0
-2099 -2183 1926 0
-2099 -2184 1927 0
-2099 -2185 1928 0
-2099 -2186 1929 0
-2099 -2187 1930 0
-2099 -2188 1931 0
-2099 -2189 1932 0
-2099 -2190 1933 0
-2099 -2191 1934 0
-2099 -2192 1935 0
-2099 -2193 1936 0
-2099 -2194 1937 0
-2099 -2195 1938 0
-2099 -2196 1939 0
-2099 -2197 1940 0
-2099 -2198 1941 0
-2099 -2199 1942 0
-2099 -2200 1943 0
-2099 -2201 1944 0
-2099 -2202 1945 0
-2099 -2203 1946 0
-2099 -2204 1947 0
-2099 -2205 1948 0
-2099 -2206 1949 0
-2099 -2207 1950 0
-2099 -2208 1951 0
-2099 -2209 1952 0
-2099 -2210 1953 0
-2099 -2211 1954 0
-2099 -2212 1955 0
-2099 -2213 1956 0
-2099 -2214 1957 0
-2099 -2215 1958 0
-2099 -2216 1959 0
-2099 -2217 1960 0
-2099 -2218 1961 0
-2099 -2219 1962 0
-2099 -2220 1963 0
-2099 -2221 1964 0
-2099 -2222 1965 0
-2099 -2223 1966 0
-2099 -2224 1967 0
-2099 -2225 1968 0
-2099 -2226 1969 0
-2099 -2227 1970 0
-2099 -2228 1971 0
-2099 -2229 1972 0
-2099 -2230 1973 0
-2099 -2231 1974 0
-2099 -2232 1975 0
-2099 -2233 1976 0
-2099 -2234 1977 0
-2099 -2235 1978 0
-2099 -2236 1979 0
-2099 -2237 1980 0
-2099 -2238 1981 0
-2099 -2239 1982 0
-2099 -2240 1983 0
-2100 -2125 1869 0
-2100 -2126 1870 0
-2100 -2127 1871 0
-2100 -2128 1872 0
-2100 -2129 1873 0
-2100 -2130 1874 0
-2100 -2131 1875 0
-2100 -2132 1876 0
-2100 -2133 1877 0
-2100 -2134 1878 0
-2100 -2135 1879 0
-2100 -2136 1880 0
-2100 -2137 1881 0
-2100 -2138 1882 0
-2100 -2139 1883 0
-2100 -2140 1884 0
-2100 -2141 1885 0
-2100 -2142 1886 0
-2100 -2143 1887 0
-2100 -2144 1888 0
-2100 -2145 1889 0
-2100 -2146 1890 0
-2100 -2147 1891 0
-2100 -2148 1892 0
-2100 -2149 1893 0
-2100 -2150 1894 0
-2100 -2151 1895 0
-2100 -2152 1896 0
-2100 -2153 1897 0
-2100 -2154 1898 0
-2100 -2155 1899 0
-2100 -2156 1900 0
-2100 -2157 1901 0
-2100 -2158 1902 0
-2100 -2159 1903 0
-2100 -2160 1904 0
-2100 -2161 1905 0
-2100 -2162 1906 0
-2100 -2163 1907 0
-2100 -2164 1908 0
-2100 -2165 1909 0
-2100 -2166 1910 0
-2100 -2167 1911 0
-2100 -2168 1912 0
-2100 -2169 1913 0
-2100 -2170 1914 0
-2100 -2171 1915 0
-2100 -2172 1916 0
-2100 -2173 1917 0
-2100 -2174 1918 0
-2100 -2175 1919 0
-2100 -2176 1920 0
-2100 -2177 1921 0
-2100 -2178 1922 0
-2100 -2179 1923 0
-2100 -2180 1924 0
-2100 -2181 1925 0
-2100 -2182 1926 0
-2100 -2183 1927 0
-2100 -2184 1928 0
-2100 -2185 1929 0
-2100 -2186 1930 0
-2100 -2187 1931 0
-2100 -2188 1932 0
-2100 -2189 1933 0
-2100 -2190 1934 0
-2100 -2191 1935 0
-2100 -2192 1936 0
-2100 -2193 1937 0
-2100 -2194 1938 0
-2100 -2195 1939 0
-2100 -2196 1940 0
-2100 -2197 1941 0
-2100 -2198 1942 0
-2100 -2199 1943 0
-2100 -2200 1944 0
-2100 -2201 1945 0
-2100 -2202 1946 0
-2100 -2203 1947 0
-2100 -2204 1948 0
-2100 -2205 1949 0
-2100 -2206 1950 0
-2100 -2207 1951 0
-2100 -2208 1952 0
-2100 -2209 1953 0
-2100 -2210 1954 0
-2100 -2211 1955 0
-2100 -2212 1956 0
-2100 -2213 1957 0
-2100 -2214 1958 0
-2100 -2215 1959 0
-2100 -2216 1960 0
-2100 -2217 1961 0
-2100 -2218 1962 0
-2100 -2219 1963 0
-2100 -2220 1964 0
-2100 -2221 1965 0
-2100 -2222 1966 0
-2100 -2223 1967 0
-2100 -2224 1968 0
-2100 -2225 1969 0
-2100 -2226 1970 0
-2100 -2227 1971 0
-2100 -2228 1972 0
-2100 -2229 1973 0
-2100 -2230 1974 0
-2100 -2231 1975 0
-2100 -2232 1976 0
-2100 -2233 1977 0
-2100 -2234 1978 0
-2100 -2235 1979 0
-2100 -2236 1980 0
-2100 -2237 1981 0
-2100 -2238 1982 0
-2100 -2239 1983 0
-2100 -2240 1984 0
-2101 -2125 1870 0
-2101 -2126 1871 0
-2101 -2127 1872 0
-2101 -2128 1873 0
-2101 -2129 1874 0
-2101 -2130 1875 0
-2101 -2131 1876 0
-2101 -2132 1877 0
-2101 -2133 1878 0
-2101 -2134 1879 0
-2101 -2135 1880 0
-2101 -2136 1881 0
-2101 -2137 1882 0
-2101 -2138 1883 0
-2101 -2139 1884 0
-2101 -2140 1885 0
-2101 -2141 1886 0
-2101 -2142 1887 0
-2101 -2143 1888 0
-2101 -2144 1889 0
-2101 -2145 1890 0
-2101 -2146 1891 0
-2101 -2147 1892 0
-2101 -2148 1893 0
-2101 -2149 1894 0
-2101 -2150 1895 0
-2101 -2151 1896 0
-2101 -2152 1897 0
-2101 -2153 1898 0
-2101 -2154 1899 0
-2101 -2155 1900 0
-2101 -2156 1901 0
-2101 -2157 1902 0
-2101 -2158 1903 0
-2101 -2159 1904 0
-2101 -2160 1905 0
-2101 -2161 1906 0
-2101 -2162 1907 0
-2101 -2163 1908 0
-2101 -2164 1909 0
-2101 -2165 1910 0
-2101 -2166 1911 0
-2101 -2167 1912 0
-2101 -2168 1913 0
-2101 -2169 1914 0
-2101 -2170 1915 0
-2101 -2171 1916 0
-2101 -2172 1917 0
-2101 -2173 1918 0
-2101 -2174 1919 0
-2101 -2175 1920 0
-2101 -2176 1921 0
-2101 -2177 1922 0
-2101 -2178 1923 0
-2101 -2179 1924 0
-2101 -2180 1925 0
-2101 -2181 1926 0
-2101 -2182 1927 0
-2101 -2183 1928 0
-2101 -2184 1929 0
-2101 -2185 1930 0
-2101 -2186 1931 0
-2101 -2187 1932 0
-2101 -2188 1933 0
-2101 -2189 1934 0
-2101 -2190 1935 0
-2101 -2191 1936 0
-2101 -2192 1937 0
-2101 -2193 1938 0
-2101 -2194 1939 0
-2101 -2195 1940 0
-2101 -2196 1941 0
-2101 -2197 1942 0
-2101 -2198 1943 0
-2101 -2199 1944 0
-2101 -2200 1945 0
-2101 -2201 1946 0
-2101 -2202 1947 0
-2101 -2203 1948 0
-2101 -2204 1949 0
-2101 -2205 1950 0
-2101 -2206 1951 0
-2101 -2207 1952 0
-2101 -2208 1953 0
-2101 -2209 1954 0
-2101 -2210 1955 0
-2101 -2211 1956 0
-2101 -2212 1957 0
-2101 -2213 1958 0
-2101 -2214 1959 0
-2101 -2215 1960 0
-2101 -2216 1961 0
-2101 -2217 1962 0
-2101 -2218 1963 0
-2101 -2219 1964 0
-2101 -2220 1965 0
-2101 -2221 1966 0
-2101 -2222 1967 0
-2101 -2223 1968 0
-2101 -2224 1969 0
-2101 -2225 1970 0
-2101 -2226 1971 0
-2101 -2227 1972 0
-2101 -2228 1973 0
-2101 -2229 1974 0
-2101 -2230 1975 0
-2101 -2231 1976 0
-2101 -2232 1977 0
-2101 -2233 1978 0
-2101 -2234 1979 0
-2101 -2235 1980 0
-2101 -2236 1981 0
-2101 -2237 1982 0
-2101 -2238 1983 0
-2101 -2239 1984 0
-2101 -2240 1985 0
-2102 -2125 1871 0
-2102 -2126 1872 0
-2102 -2127 1873 0
-2102 -2128 1874 0
-2102 -2129 1875 0
-2102 -2130 1876 0
-2102 -2131 1877 0
-2102 -2132 1878 0
-2102 -2133 1879 0
-2102 -2134 1880 0
-2102 -2135 1881 0
-2102 -2136 1882 0
-2102 -2137 1883 0
-2102 -2138 1884 0
-2102 -2139 1885 0
-2102 -2140 1886 0
-2102 -2141 1887 0
-2102 -2142 1888 0
-2102 -2143 1889 0
-2102 -2144 1890 0
-2102 -2145 1891 0
-2102 -2146 1892 0
-2102 -2147 1893 0
-2102 -2148 1894 0
-2102 -2149 1895 0
-2102 -2150 1896 0
-2102 -2151 1897 0
-2102 -2152 1898 0
-2102 -2153 1899 0
-2102 -2154 1900 0
-2102 -2155 1901 0
-2102 -2156 1902 0
-2102 -2157 1903 0
-2102 -2158 1904 0
-2102 -2159 1905 0
-2102 -2160 1906 0
-2102 -2161 1907 0
-2102 -2162 1908 0
-2102 -2163 1909 0
-2102 -2164 1910 0
-2102 -2165 1911 0
-2102 -2166 1912 0
-2102 -2167 1913 0
-2102 -2168 1914 0
-2102 -2169 1915 0
-2102 -2170 1916 0
-2102 -2171 1917 0
-2102 -2172 1918 0
-2102 -2173 1919 0
-2102 -2174 1920 0
-2102 -2175 1921 0
-2102 -2176 1922 0
-2102 -2177 1923 0
-2102 -2178 1924 0
-2102 -2179 1925 0
-2102 -2180 1926 0
-2102 -2181 1927 0
-2102 -2182 1928 0
-2102 -2183 1929 0
-2102 -2184 1930 0
-2102 -2185 1931 0
-2102 -2186 1932 0
-2102 -2187 1933 0
-2102 -2188 1934 0
-2102 -2189 1935 0
-2102 -2190 1936 0
-2102 -2191 1937 0
-2102 -2192 1938 0
-2102 -2193 1939 0
-2102 -2194 1940 0
-2102 -2195 1941 0
-2102 -2196 1942 0
-2102 -2197 1943 0
-2102 -2198 1944 0
-2102 -2199 1945 0
-2102 -2200 1946 0
-2102 -2201 1947 0
-2102 -2202 1948 0
-2102 -2203 1949 0
-2102 -2204 1950 0
-2102 -2205 1951 0
-2102 -2206 1952 0
-2102 -2207 1953 0
-2102 -2208 1954 0
-2102 -2209 1955 0
-2102 -2210 1956 0
-2102 -2211 1957 0
-2102 -2212 1958 0
-2102 -2213 1959 0
-2102 -2214 1960 0
-2102 -2215 1961 0
-2102 -2216 1962 0
-2102 -2217 1963 0
-2102 -2218 1964 0
-2102 -2219 1965 0
-2102 -2220 1966 0
-2102 -2221 1967 0
-2102 -2222 1968 0
-2102 -2223 1969 0
-2102 -2224 1970 0
-2102 -2225 1971 0
-2102 -2226 1972 0
-2102 -2227 1973 0
-2102 -2228 1974 0
-2102 -2229 1975 0
-2102 -2230 1976 0
-2102 -2231 1977 0
-2102 -2232 1978 0
-2102 -2233 1979 0
-2102 -2234 1980 0
-2102 -2235 1981 0
-2102 -2236 1982 0
-2102 -2237 1983 0
-2102 -2238 1984 0
-2102 -2239 1985 0
-2102 -2240 1986 0
-2103 -2125 1872 0
-2103 -2126 1873 0
-2103 -2127 1874 0
-2103 -2128 1875 0
-2103 -2129 1876 0
-2103 -2130 1877 0
-2103 -2131 1878 0
-2103 -2132 1879 0
-2103 -2133 1880 0
-2103 -2134 1881 0
-2103 -2135 1882 0
-2103 -2136 1883 0
-2103 -2137 1884 0
-2103 -2138 1885 0
-2103 -2139 1886 0
-2103 -2140 1887 0
-2103 -2141 1888 0
-2103 -2142 1889 0
-2103 -2143 1890 0
-2103 -2144 1891 0
-2103 -2145 1892 0
-2103 -2146 1893 0
-2103 -2147 1894 0
-2103 -2148 1895 0
-2103 -2149 1896 0
-2103 -2150 1897 0
-2103 -2151 1898 0
-2103 -2152 1899 0
-2103 -2153 1900 0
-2103 -2154 1901 0
-2103 -2155 1902 0
-2103 -2156 1903 0
-2103 -2157 1904 0
-2103 -2158 1905 0
-2103 -2159 1906 0
-2103 -2160 1907 0
-2103 -2161 1908 0
-2103 -2162 1909 0
-2103 -2163 1910 0
-2103 -2164 1911 0
-2103 -2165 1912 0
-2103 -2166 1913 0
-2103 -2167 1914 0
-2103 -2168 1915 0
-2103 -2169 1916 0
-2103 -2170 1917 0
-2103 -2171 1918 0
-2103 -2172 1919 0
-2103 -2173 1920 0
-2103 -2174 1921 0
-2103 -2175 1922 0
-2103 -2176 1923 0
-2103 -2177 1924 0
-2103 -2178 1925 0
-2103 -2179 1926 0
-2103 -2180 1927 0
-2103 -2181 1928 0
-2103 -2182 1929 0
-2103 -2183 1930 0
-2103 -2184 1931 0
-2103 -2185 1932 0
-2103 -2186 1933 0
-2103 -2187 1934 0
-2103 -2188 1935 0
-2103 -2189 1936 0
-2103 -2190 1937 0
-2103 -2191 1938 0
-2103 -2192 1939 0
-2103 -2193 1940 0
-2103 -2194 1941 0
-2103 -2195 1942 0
-2103 -2196 1943 0
-2103 -2197 1944 0
-2103 -2198 1945 0
-2103 -2199 1946 0
-2103 -2200 1947 0
-2103 -2201 1948 0
-2103 -2202 1949 0
-2103 -2203 1950 0
-2103 -2204 1951 0
-2103 -2205 1952 0
-2103 -2206 1953 0
-2103 -2207 1954 0
-2103 -2208 1955 0
-2103 -2209 1956 0
-2103 -2210 1957 0
-2103 -2211 1958 0
-2103 -2212 1959 0
-2103 -2213 1960 0
-2103 -2214 1961 0
-2103 -2215 1962 0
-2103 -2216 1963 0
-2103 -2217 1964 0
-2103 -2218 1965 0
-2103 -2219 1966 0
-2103 -2220 1967 0
-2103 -2221 1968 0
-2103 -2222 1969 0
-2103 -2223 1970 0
-2103 -2224 1971 0
-2103 -2225 1972 0
-2103 -2226 1973 0
-2103 -2227 1974 0
-2103 -2228 1975 0
-2103 -2229 1976 0
-2103 -2230 1977 0
-2103 -2231 1978 0
-2103 -2232 1979 0
-2103 -2233 1980 0
-2103 -2234 1981 0
-2103 -2235 1982 0
-2103 -2236 1983 0
-2103 -2237 1984 0
-2103 -2238 1985 0
-2103 -2239 1986 0
-2103 -2240 1987 0
-2104 -2125 1873 0
-2104 -2126 1874 0
-2104 -2127 1875 0
-2104 -2128 1876 0
-2104 -2129 1877 0
-2104 -2130 1878 0
-2104 -2131 1879 0
-2104 -2132 1880 0
-2104 -2133 1881 0
-2104 -2134 1882 0
-2104 -2135 1883 0
-2104 -2136 1884 0
-2104 -2137 1885 0
-2104 -2138 1886 0
-2104 -2139 1887 0
-2104 -2140 1888 0
-2104 -2141 1889 0
-2104 -2142 1890 0
-2104 -2143 1891 0
-2104 -2144 1892 0
-2104 -2145 1893 0
-2104 -2146 1894 0
-2104 -2147 1895 0
-2104 -2148 1896 0
-2104 -2149 1897 0
-2104 -2150 1898 0
-2104 -2151 1899 0
-2104 -2152 1900 0
-2104 -2153 1901 0
-2104 -2154 1902 0
-2104 -2155 1903 0
-2104 -2156 1904 0
-2104 -2157 1905 0
-2104 -2158 1906 0
-2104 -2159 1907 0
-2104 -2160 1908 0
-2104 -2161 1909 0
-2104 -2162 1910 0
-2104 -2163 1911 0
-2104 -2164 1912 0
-2104 -2165 1913 0
-2104 -2166 1914 0
-2104 -2167 1915 0
-2104 -2168 1916 0
-2104 -2169 1917 0
-2104 -2170 1918 0
-2104 -2171 1919 0
-2104 -2172 1920 0
-2104 -2173 1921 0
-2104 -2174 1922 0
-2104 -2175 1923 0
-2104 -2176 1924 0
-2104 -2177 1925 0
-2104 -2178 1926 0
-2104 -2179 1927 0
-2104 -2180 1928 0
-2104 -2181 1929 0
-2104 -2182 1930 0
-2104 -2183 1931 0
-2104 -2184 1932 0
-2104 -2185 1933 0
-2104 -2186 1934 0
-2104 -2187 1935 0
-2104 -2188 1936 0
-2104 -2189 1937 0
-2104 -2190 1938 0
-2104 -2191 1939 0
-2104 -2192 1940 0
-2104 -2193 1941 0
-2104 -2194 1942 0
-2104 -2195 1943 0
-2104 -2196 1944 0
-2104 -2197 1945 0
-2104 -2198 1946 0
-2104 -2199 1947 0
-2104 -2200 1948 0
-2104 -2201 1949 0
-2104 -2202 1950 0
-2104 -2203 1951 0
-2104 -2204 1952 0
-2104 -2205 1953 0
-2104 -2206 1954 0
-2104 -2207 1955 0
-2104 -2208 1956 0
-2104 -2209 1957 0
-2104 -2210 1958 0
-2104 -2211 1959 0
-2104 -2212 1960 0
-2104 -2213 1961 0
-2104 -2214 1962 0
-2104 -2215 1963 0
-2104 -2216 1964 0
-2104 -2217 1965 0
-2104 -2218 1966 0
-2104 -2219 1967 0
-2104 -2220 1968 0
-2104 -2221 1969 0
-2104 -2222 1970 0
-2104 -2223 1971 0
-2104 -2224 1972 0
-2104 -2225 1973 0
-2104 -2226 1974 0
-2104 -2227 1975 0
-2104 -2228 1976 0
-2104 -2229 1977 0
-2104 -2230 1978 0
-2104 -2231 1979 0
-2104 -2232 1980 0
-2104 -2233 1981 0
-2104 -2234 1982 0
-2104 -2235 1983 0
-2104 -2236 1984 0
-2104 -2237 1985 0
-2104 -2238 1986 0
-2104 -2239 1987 0
-2104 -2240 1988 0
-2105 -2125 1874 0
-2105 -2126 1875 0
-2105 -2127 1876 0
-2105 -2128 1877 0
-2105 -2129 1878 0
-2105 -2130 1879 0
-2105 -2131 1880 0
-2105 -2132 1881 0
-2105 -2133 1882 0
-2105 -2134 1883 0
-2105 -2135 1884 0
-2105 -2136 1885 0
-2105 -2137 1886 0
-2105 -2138 1887 0
-2105 -2139 1888 0
-2105 -2140 1889 0
-2105 -2141 1890 0
-2105 -2142 1891 0
-2105 -2143 1892 0
-2105 -2144 1893 0
-2105 -2145 1894 0
-2105 -2146 1895 0
-2105 -2147 1896 0
-2105 -2148 1897 0
-2105 -2149 1898 0
-2105 -2150 1899 0
-2105 -2151 1900 0
-2105 -2152 1901 0
-2105 -2153 1902 0
-2105 -2154 1903 0
-2105 -2155 1904 0
-2105 -2156 1905 0
-2105 -2157 1906 0
-2105 -2158 1907 0
-2105 -2159 1908 0
-2105 -2160 1909 0
-2105 -2161 1910 0
-2105 -2162 1911 0
-2105 -2163 1912 0
-2105 -2164 1913 0
-2105 -2165 1914 0
-2105 -2166 1915 0
-2105 -2167 1916 0
-2105 -2168 1917 0
-2105 -2169 1918 0
-2105 -2170 1919 0
-2105 -2171 1920 0
-2105 -2172 1921 0
-2105 -2173 1922 0
-2105 -2174 1923 0
-2105 -2175 1924 0
-2105 -2176 1925 0
-2105 -2177 1926 0
-2105 -2178 1927 0
-2105 -2179 1928 0
-2105 -2180 1929 0
-2105 -2181 1930 0
-2105 -2182 1931 0
-2105 -2183 1932 0
-2105 -2184 1933 0
-2105 -2185 1934 0
-2105 -2186 1935 0
-2105 -2187 1936 0
-2105 -2188 1937 0
-2105 -2189 1938 0
-2105 -2190 1939 0
-2105 -2191 1940 0
-2105 -2192 1941 0
-2105 -2193 1942 0
-2105 -2194 1943 0
-2105 -2195 1944 0
-2105 -2196 1945 0
-2105 -2197 1946 0
-2105 -2198 1947 0
-2105 -2199 1948 0
-2105 -2200 1949 0
-2105 -2201 1950 0
-2105 -2202 1951 0
-2105 -2203 1952 0
-2105 -2204 1953 0
-2105 -2205 1954 0
-2105 -2206 1955 0
-2105 -2207 1956 0
-2105 -2208 1957 0
-2105 -2209 1958 0
-2105 -2210 1959 0
-2105 -2211 1960 0
-2105 -2212 1961 0
-2105 -2213 1962 0
-2105 -2214 1963 0
-2105 -2215 1964 0
-2105 -2216 1965 0
-2105 -2217 1966 0
-2105 -2218 1967 0
-2105 -2219 1968 0
-2105 -2220 1969 0
-2105 -2221 1970 0
-2105 -2222 1971 0
-2105 -2223 1972 0
-2105 -2224 1973 0
-2105 -2225 1974 0
-2105 -2226 1975 0
-2105 -2227 1976 0
-2105 -2228 1977 0
-2105 -2229 1978 0
-2105 -2230 1979 0
-2105 -2231 1980 0
-2105 -2232 1981 0
-2105 -2233 1982 0
-2105 -2234 1983 0
-2105 -2235 1984 0
-2105 -2236 1985 0
-2105 -2237 1986 0
-2105 -2238 1987 0
-2105 -2239 1988 0
-2105 -2240 1989 0
-2106 -2125 1875 0
-2106 -2126 1876 0
-2106 -2127 1877 0
-2106 -2128 1878 0
-2106 -2129 1879 0
-2106 -2130 1880 0
-2106 -2131 1881 0
-2106 -2132 1882 0
-2106 -2133 1883 0
-2106 -2134 1884 0
-2106 -2135 1885 0
-2106 -2136 1886 0
-2106 -2137 1887 0
-2106 -2138 1888 0
-2106 -2139 1889 0
-2106 -2140 1890 0
-2106 -2141 1891 0
-2106 -2142 1892 0
-2106 -2143 1893 0
-2106 -2144 1894 0
-2106 -2145 1895 0
-2106 -2146 1896 0
-2106 -2147 1897 0
-2106 -2148 1898 0
-2106 -2149 1899 0
-2106 -2150 1900 0
-2106 -2151 1901 0
-2106 -2152 1902 0
-2106 -2153 1903 0
-2106 -2154 1904 0
-2106 -2155 1905 0
-2106 -2156 1906 0
-2106 -2157 1907 0
-2106 -2158 1908 0
-2106 -2159 1909 0
-2106 -2160 1910 0
-2106 -2161 1911 0
-2106 -2162 1912 0
-2106 -2163 1913 0
-2106 -2164 1914 0
-2106 -2165 1915 0
-2106 -2166 1916 0
-2106 -2167 1917 0
-2106 -2168 1918 0
-2106 -2169 1919 0
-2106 -2170 1920 0
-2106 -2171 1921 0
-2106 -2172 1922 0
-2106 -2173 1923 0
-2106 -2174 1924 0
-2106 -2175 1925 0
-2106 -2176 1926 0
-2106 -2177 1927 0
-2106 -2178 1928 0
-2106 -2179 1929 0
-2106 -2180 1930 0
-2106 -2181 1931 0
-2106 -2182 1932 0
-2106 -2183 1933 0
-2106 -2184 1934 0
-2106 -2185 1935 0
-2106 -2186 1936 0
-2106 -2187 1937 0
-2106 -2188 1938 0
-2106 -2189 1939 0
-2106 -2190 1940 0
-2106 -2191 1941 0
-2106 -2192 1942 0
-2106 -2193 1943 0
-2106 -2194 1944 0
-2106 -2195 1945 0
-2106 -2196 1946 0
-2106 -2197 1947 0
-2106 -2198 1948 0
-2106 -2199 1949 0
-2106 -2200 1950 0
-2106 -2201 1951 0
-2106 -2202 1952 0
-2106 -2203 1953 0
-2106 -2204 1954 0
-2106 -2205 1955 0
-2106 -2206 1956 0
-2106 -2207 1957 0
-2106 -2208 1958 0
-2106 -2209 1959 0
-2106 -2210 1960 0
-2106 -2211 1961 0
-2106 -2212 1962 0
-2106 -2213 1963 0
-2106 -2214 1964 0
-2106 -2215 1965 0
-2106 -2216 1966 0
-2106 -2217 1967 0
-2106 -2218 1968 0
-2106 -2219 1969 0
-2106 -2220 1970 0
-2106 -2221 1971 0
-2106 -2222 1972 0
-2106 -2223 1973 0
-2106 -2224 1974 0
-2106 -2225 1975 0
-2106 -2226 1976 0
-2106 -2227 1977 0
-2106 -2228 1978 0
-2106 -2229 1979 0
-2106 -2230 1980 0
-2106 -2231 1981 0
-2106 -2232 1982 0
-2106 -2233 1983 0
-2106 -2234 1984 0
-2106 -2235 1985 0
-2106 -2236 1986 0
-2106 -2237 1987 0
-2106 -2238 1988 0
-2106 -2239 1989 0
-2106 -2240 1990 0
-2107 -2125 1876 0
-2107 -2126 1877 0
-2107 -2127 1878 0
-2107 -2128 1879 0
-2107 -2129 1880 0
-2107 -2130 1881 0
-2107 -2131 1882 0
-2107 -2132 1883 0
-2107 -2133 1884 0
-2107 -2134 1885 0
-2107 -2135 1886 0
-2107 -2136 1887 0
-2107 -2137 1888 0
-2107 -2138 1889 0
-2107 -2139 1890 0
-2107 -2140 1891 0
-2107 -2141 1892 0
-2107 -2142 1893 0
-2107 -2143 1894 0
-2107 -2144 1895 0
-2107 -2145 1896 0
-2107 -2146 1897 0
-2107 -2147 1898 0
-2107 -2148 1899 0
-2107 -2149 1900 0
-2107 -2150 1901 0
-2107 -2151 1902 0
-2107 -2152 1903 0
-2107 -2153 1904 0
-2107 -2154 1905 0
-2107 -2155 1906 0
-2107 -2156 1907 0
-2107 -2157 1908 0
-2107 -2158 1909 0
-2107 -2159 1910 0
-2107 -2160 1911 0
-2107 -2161 1912 0
-2107 -2162 1913 0
-2107 -2163 1914 0
-2107 -2164 1915 0
-2107 -2165 1916 0
-2107 -2166 1917 0
-2107 -2167 1918 0
-2107 -2168 1919 0
-2107 -2169 1920 0
-2107 -2170 1921 0
-2107 -2171 1922 0
-2107 -2172 1923 0
-2107 -2173 1924 0
-2107 -2174 1925 0
-2107 -2175 1926 0
-2107 -2176 1927 0
-2107 -2177 1928 0
-2107 -2178 1929 0
-2107 -2179 1930 0
-2107 -2180 1931 0
-2107 -2181 1932 0
-2107 -2182 1933 0
-2107 -2183 1934 0
-2107 -2184 1935 0
-2107 -2185 1936 0
-2107 -2186 1937 0
-2107 -2187 1938 0
-2107 -2188 1939 0
-2107 -2189 1940 0
-2107 -2190 1941 0
-2107 -2191 1942 0
-2107 -2192 1943 0
-2107 -2193 1944 0
-2107 -2194 1945 0
-2107 -2195 1946 0
-2107 -2196 1947 0
-2107 -2197 1948 0
-2107 -2198 1949 0
-2107 -2199 1950 0
-2107 -2200 1951 0
-2107 -2201 1952 0
-2107 -2202 1953 0
-2107 -2203 1954 0
-2107 -2204 1955 0
-2107 -2205 1956 0
-2107 -2206 1957 0
-2107 -2207 1958 0
-2107 -2208 1959 0
-2107 -2209 1960 0
-2107 -2210 1961 0
-2107 -2211 1962 0
-2107 -2212 1963 0
-2107 -2213 1964 0
-2107 -2214 1965 0
-2107 -2215 1966 0
-2107 -2216 1967 0
-2107 -2217 1968 0
-2107 -2218 1969 0
-2107 -2219 1970 0
-2107 -2220 1971 0
-2107 -2221 1972 0
-2107 -2222 1973 0
-2107 -2223 1974 0
-2107 -2224 1975 0
-2107 -2225 1976 0
-2107 -2226 1977 0
-2107 -2227 1978 0
-2107 -2228 1979 0
-2107 -2229 1980 0
-2107 -2230 1981 0
-2107 -2231 1982 0
-2107 -2232 1983 0
-2107 -2233 1984 0
-2107 -2234 1985 0
-2107 -2235 1986 0
-2107 -2236 1987 0
-2107 -2237 1988 0
-2107 -2238 1989 0
-2107 -2239 1990 0
-2107 -2240 1991 0
-2108 -2125 1877 0
-2108 -2126 1878 0
-2108 -2127 1879 0
-2108 -2128 1880 0
-2108 -2129 1881 0
-2108 -2130 1882 0
-2108 -2131 1883 0
-2108 -2132 1884 0
-2108 -2133 1885 0
-2108 -2134 1886 0
-2108 -2135 1887 0
-2108 -2136 1888 0
-2108 -2137 1889 0
-2108 -2138 1890 0
-2108 -2139 1891 0
-2108 -2140 1892 0
-2108 -2141 1893 0
-2108 -2142 1894 0
-2108 -2143 1895 0
-2108 -2144 1896 0
-2108 -2145 1897 0
-2108 -2146 1898 0
-2108 -2147 1899 0
-2108 -2148 1900 0
-2108 -2149 1901 0
-2108 -2150 1902 0
-2108 -2151 1903 0
-2108 -2152 1904 0
-2108 -2153 1905 0
-2108 -2154 1906 0
-2108 -2155 1907 0
-2108 -2156 1908 0
-2108 -2157 1909 0
-2108 -2158 1910 0
-2108 -2159 1911 0
-2108 -2160 1912 0
-2108 -2161 1913 0
-2108 -2162 1914 0
-2108 -2163 1915 0
-2108 -2164 1916 0
-2108 -2165 1917 0
-2108 -2166 1918 0
-2108 -2167 1919 0
-2108 -2168 1920 0
-2108 -2169 1921 0
-2108 -2170 1922 0
-2108 -2171 1923 0
-2108 -2172 1924 0
-2108 -2173 1925 0
-2108 -2174 1926 0
-2108 -2175 1927 0
-2108 -2176 1928 0
-2108 -2177 1929 0
-2108 -2178 1930 0
-2108 -2179 1931 0
-2108 -2180 1932 0
-2108 -2181 1933 0
-2108 -2182 1934 0
-2108 -2183 1935 0
-2108 -2184 1936 0
-2108 -2185 1937 0
-2108 -2186 1938 0
-2108 -2187 1939 0
-2108 -2188 1940 0
-2108 -2189 1941 0
-2108 -2190 1942 0
-2108 -2191 1943 0
-2108 -2192 1944 0
-2108 -2193 1945 0
-2108 -2194 1946 0
-2108 -2195 1947 0
-2108 -2196 1948 0
-2108 -2197 1949 0
-2108 -2198 1950 0
-2108 -2199 1951 0
-2108 -2200 1952 0
-2108 -2201 1953 0
-2108 -2202 1954 0
-2108 -2203 1955 0
-2108 -2204 1956 0
-2108 -2205 1957 0
-2108 -2206 1958 0
-2108 -2207 1959 0
-2108 -2208 1960 0
-2108 -2209 1961 0
-2108 -2210 1962 0
-2108 -2211 1963 0
-2108 -2212 1964 0
-2108 -2213 1965 0
-2108 -2214 1966 0
-2108 -2215 1967 0
-2108 -2216 1968 0
-2108 -2217 1969 0
-2108 -2218 1970 0
-2108 -2219 1971 0
-2108 -2220 1972 0
-2108 -2221 1973 0
-2108 -2222 1974 0
-2108 -2223 1975 0
-2108 -2224 1976 0
-2108 -2225 1977 0
-2108 -2226 1978 0
-2108 -2227 1979 0
-2108 -2228 1980 0
-2108 -2229 1981 0
-2108 -2230 1982 0
-2108 -2231 1983 0
-2108 -2232 1984 0
-2108 -2233 1985 0
-2108 -2234 1986 0
-2108 -2235 1987 0
-2108 -2236 1988 0
-2108 -2237 1989 0
-2108 -2238 1990 0
-2108 -2239 1991 0
-2108 -2240 1992 0
-2109 -2125 1878 0
-2109 -2126 1879 0
-2109 -2127 1880 0
-2109 -2128 1881 0
-2109 -2129 1882 0
-2109 -2130 1883 0
-2109 -2131 1884 0
-2109 -2132 1885 0
-2109 -2133 1886 0
-2109 -2134 1887 0
-2109 -2135 1888 0
-2109 -2136 1889 0
-2109 -2137 1890 0
-2109 -2138 1891 0
-2109 -2139 1892 0
-2109 -2140 1893 0
-2109 -2141 1894 0
-2109 -2142 1895 0
-2109 -2143 1896 0
-2109 -2144 1897 0
-2109 -2145 1898 0
-2109 -2146 1899 0
-2109 -2147 1900 0
-2109 -2148 1901 0
-2109 -2149 1902 0
-2109 -2150 1903 0
-2109 -2151 1904 0
-2109 -2152 1905 0
-2109 -2153 1906 0
-2109 -2154 1907 0
-2109 -2155 1908 0
-2109 -2156 1909 0
-2109 -2157 1910 0
-2109 -2158 1911 0
-2109 -2159 1912 0
-2109 -2160 1913 0
-2109 -2161 1914 0
-2109 -2162 1915 0
-2109 -2163 1916 0
-2109 -2164 1917 0
-2109 -2165 1918 0
-2109 -2166 1919 0
-2109 -2167 1920 0
-2109 -2168 1921 0
-2109 -2169 1922 0
-2109 -2170 1923 0
-2109 -2171 1924 0
-2109 -2172 1925 0
-2109 -2173 1926 0
-2109 -2174 1927 0
-2109 -2175 1928 0
-2109 -2176 1929 0
-2109 -2177 1930 0
-2109 -2178 1931 0
-2109 -2179 1932 0
-2109 -2180 1933 0
-2109 -2181 1934 0
-2109 -2182 1935 0
-2109 -2183 1936 0
-2109 -2184 1937 0
-2109 -2185 1938 0
-2109 -2186 1939 0
-2109 -2187 1940 0
-2109 -2188 1941 0
-2109 -2189 1942 0
-2109 -2190 1943 0
-2109 -2191 1944 0
-2109 -2192 1945 0
-2109 -2193 1946 0
-2109 -2194 1947 0
-2109 -2195 1948 0
-2109 -2196 1949 0
-2109 -2197 1950 0
-2109 -2198 1951 0
-2109 -2199 1952 0
-2109 -2200 1953 0
-2109 -2201 1954 0
-2109 -2202 1955 0
-2109 -2203 1956 0
-2109 -2204 1957 0
-2109 -2205 1958 0
-2109 -2206 1959 0
-2109 -2207 1960 0
-2109 -2208 1961 0
-2109 -2209 1962 0
-2109 -2210 1963 0
-2109 -2211 1964 0
-2109 -2212 1965 0
-2109 -2213 1966 0
-2109 -2214 1967 0
-2109 -2215 1968 0
-2109 -2216 1969 0
-2109 -2217 1970 0
-2109 -2218 1971 0
-2109 -2219 1972 0
-2109 -2220 1973 0
-2109 -2221 1974 0
-2109 -2222 1975 0
-2109 -2223 1976 0
-2109 -2224 1977 0
-2109 -2225 1978 0
-2109 -2226 1979 0
-2109 -2227 1980 0
-2109 -2228 1981 0
-2109 -2229 1982 0
-2109 -2230 1983 0
-2109 -2231 1984 0
-2109 -2232 1985 0
-2109 -2233 1986 0
-2109 -2234 1987 0
-2109 -2235 1988 0
-2109 -2236 1989 0
-2109 -2237 1990 0
-2109 -2238 1991 0
-2109 -2239 1992 0
-2109 -2240 1993 0
-2110 -2125 1879 0
-2110 -2126 1880 0
-2110 -2127 1881 0
-2110 -2128 1882 0
-2110 -2129 1883 0
-2110 -2130 1884 0
-2110 -2131 1885 0
-2110 -2132 1886 0
-2110 -2133 1887 0
-2110 -2134 1888 0
-2110 -2135 1889 0
-2110 -2136 1890 0
-2110 -2137 1891 0
-2110 -2138 1892 0
-2110 -2139 1893 0
-2110 -2140 1894 0
-2110 -2141 1895 0
-2110 -2142 1896 0
-2110 -2143 1897 0
-2110 -2144 1898 0
-2110 -2145 1899 0
-2110 -2146 1900 0
-2110 -2147 1901 0
-2110 -2148 1902 0
-2110 -2149 1903 0
-2110 -2150 1904 0
-2110 -2151 1905 0
-2110 -2152 1906 0
-2110 -2153 1907 0
-2110 -2154 1908 0
-2110 -2155 1909 0
-2110 -2156 1910 0
-2110 -2157 1911 0
-2110 -2158 1912 0
-2110 -2159 1913 0
-2110 -2160 1914 0
-2110 -2161 1915 0
-2110 -2162 1916 0
-2110 -2163 1917 0
-2110 -2164 1918 0
-2110 -2165 1919 0
-2110 -2166 1920 0
-2110 -2167 1921 0
-2110 -2168 1922 0
-2110 -2169 1923 0
-2110 -2170 1924 0
-2110 -2171 1925 0
-2110 -2172 1926 0
-2110 -2173 1927 0
-2110 -2174 1928 0
-2110 -2175 1929 0
-2110 -2176 1930 0
-2110 -2177 1931 0
-2110 -2178 1932 0
-2110 -2179 1933 0
-2110 -2180 1934 0
-2110 -2181 1935 0
-2110 -2182 1936 0
-2110 -2183 1937 0
-2110 -2184 1938 0
-2110 -2185 1939 0
-2110 -2186 1940 0
-2110 -2187 1941 0
-2110 -2188 1942 0
-2110 -2189 1943 0
-2110 -2190 1944 0
-2110 -2191 1945 0
-2110 -2192 1946 0
-2110 -2193 1947 0
-2110 -2194 1948 0
-2110 -2195 1949 0
-2110 -2196 1950 0
-2110 -2197 1951 0
-2110 -2198 1952 0
-2110 -2199 1953 0
-2110 -2200 1954 0
-2110 -2201 1955 0
-2110 -2202 1956 0
-2110 -2203 1957 0
-2110 -2204 1958 0
-2110 -2205 1959 0
-2110 -2206 1960 0
-2110 -2207 1961 0
-2110 -2208 1962 0
-2110 -2209 1963 0
-2110 -2210 1964 0
-2110 -2211 1965 0
-2110 -2212 1966 0
-2110 -2213 1967 0
-2110 -2214 1968 0
-2110 -2215 1969 0
-2110 -2216 1970 0
-2110 -2217 1971 0
-2110 -2218 1972 0
-2110 -2219 1973 0
-2110 -2220 1974 0
-2110 -2221 1975 0
-2110 -2222 1976 0
-2110 -2223 1977 0
-2110 -2224 1978 0
-2110 -2225 1979 0
-2110 -2226 1980 0
-2110 -2227 1981 0
-2110 -2228 1982 0
-2110 -2229 1983 0
-2110 -2230 1984 0
-2110 -2231 1985 0
-2110 -2232 1986 0
-2110 -2233 1987 0
-2110 -2234 1988 0
-2110 -2235 1989 0
-2110 -2236 1990 0
-2110 -2237 1991 0
-2110 -2238 1992 0
-2110 -2239 1993 0
-2110 -2240 1994 0
-2111 -2125 1880 0
-2111 -2126 1881 0
-2111 -2127 1882 0
-2111 -2128 1883 0
-2111 -2129 1884 0
-2111 -2130 1885 0
-2111 -2131 1886 0
-2111 -2132 1887 0
-2111 -2133 1888 0
-2111 -2134 1889 0
-2111 -2135 1890 0
-2111 -2136 1891 0
-2111 -2137 1892 0
-2111 -2138 1893 0
-2111 -2139 1894 0
-2111 -2140 1895 0
-2111 -2141 1896 0
-2111 -2142 1897 0
-2111 -2143 1898 0
-2111 -2144 1899 0
-2111 -2145 1900 0
-2111 -2146 1901 0
-2111 -2147 1902 0
-2111 -2148 1903 0
-2111 -2149 1904 0
-2111 -2150 1905 0
-2111 -2151 1906 0
-2111 -2152 1907 0
-2111 -2153 1908 0
-2111 -2154 1909 0
-2111 -2155 1910 0
-2111 -2156 1911 0
-2111 -2157 1912 0
-2111 -2158 1913 0
-2111 -2159 1914 0
-2111 -2160 1915 0
-2111 -2161 1916 0
-2111 -2162 1917 0
-2111 -2163 1918 0
-2111 -2164 1919 0
-2111 -2165 1920 0
-2111 -2166 1921 0
-2111 -2167 1922 0
-2111 -2168 1923 0
-2111 -2169 1924 0
-2111 -2170 1925 0
-2111 -2171 1926 0
-2111 -2172 1927 0
-2111 -2173 1928 0
-2111 -2174 1929 0
-2111 -2175 1930 0
-2111 -2176 1931 0
-2111 -2177 1932 0
-2111 -2178 1933 0
-2111 -2179 1934 0
-2111 -2180 1935 0
-2111 -2181 1936 0
-2111 -2182 1937 0
-2111 -2183 1938 0
-2111 -2184 1939 0
-2111 -2185 1940 0
-2111 -2186 1941 0
-2111 -2187 1942 0
-2111 -2188 1943 0
-2111 -2189 1944 0
-2111 -2190 1945 0
-2111 -2191 1946 0
-2111 -2192 1947 0
-2111 -2193 1948 0
-2111 -2194 1949 0
-2111 -2195 1950 0
-2111 -2196 1951 0
-2111 -2197 1952 0
-2111 -2198 1953 0
-2111 -2199 1954 0
-2111 -2200 1955 0
-2111 -2201 1956 0
-2111 -2202 1957 0
-2111 -2203 1958 0
-2111 -2204 1959 0
-2111 -2205 1960 0
-2111 -2206 1961 0
-2111 -2207 1962 0
-2111 -2208 1963 0
-2111 -2209 1964 0
-2111 -2210 1965 0
-2111 -2211 1966 0
-2111 -2212 1967 0
-2111 -2213 1968 0
-2111 -2214 1969 0
-2111 -2215 1970 0
-2111 -2216 1971 0
-2111 -2217 1972 0
-2111 -2218 1973 0
-2111 -2219 1974 0
-2111 -2220 1975 0
-2111 -2221 1976 0
-2111 -2222 1977 0
-2111 -2223 1978 0
-2111 -2224 1979 0
-2111 -2225 1980 0
-2111 -2226 1981 0
-2111 -2227 1982 0
-2111 -2228 1983 0
-2111 -2229 1984 0
-2111 -2230 1985 0
-2111 -2231 1986 0
-2111 -2232 1987 0
-2111 -2233 1988 0
-2111 -2234 1989 0
-2111 -2235 1990 0
-2111 -2236 1991 0
-2111 -2237 1992 0
-2111 -2238 1993 0
-2111 -2239 1994 0
-2111 -2240 1995 0
-2112 -2125 1881 0
-2112 -2126 1882 0
-2112 -2127 1883 0
-2112 -2128 1884 0
-2112 -2129 1885 0
-2112 -2130 1886 0
-2112 -2131 1887 0
-2112 -2132 1888 0
-2112 -2133 1889 0
-2112 -2134 1890 0
-2112 -2135 1891 0
-2112 -2136 1892 0
-2112 -2137 1893 0
-2112 -2138 1894 0
-2112 -2139 1895 0
-2112 -2140 1896 0
-2112 -2141 1897 0
-2112 -2142 1898 0
-2112 -2143 1899 0
-2112 -2144 1900 0
-2112 -2145 1901 0
-2112 -2146 1902 0
-2112 -2147 1903 0
-2112 -2148 1904 0
-2112 -2149 1905 0
-2112 -2150 1906 0
-2112 -2151 1907 0
-2112 -2152 1908 0
-2112 -2153 1909 0
-2112 -2154 1910 0
-2112 -2155 1911 0
-2112 -2156 1912 0
-2112 -2157 1913 0
-2112 -2158 1914 0
-2112 -2159 1915 0
-2112 -2160 1916 0
-2112 -2161 1917 0
-2112 -2162 1918 0
-2112 -2163 1919 0
-2112 -2164 1920 0
-2112 -2165 1921 0
-2112 -2166 1922 0
-2112 -2167 1923 0
-2112 -2168 1924 0
-2112 -2169 1925 0
-2112 -2170 1926 0
-2112 -2171 1927 0
-2112 -2172 1928 0
-2112 -2173 1929 0
-2112 -2174 1930 0
-2112 -2175 1931 0
-2112 -2176 1932 0
-2112 -2177 1933 0
-2112 -2178 1934 0
-2112 -2179 1935 0
-2112 -2180 1936 0
-2112 -2181 1937 0
-2112 -2182 1938 0
-2112 -2183 1939 0
-2112 -2184 1940 0
-2112 -2185 1941 0
-2112 -2186 1942 0
-2112 -2187 1943 0
-2112 -2188 1944 0
-2112 -2189 1945 0
-2112 -2190 1946 0
-2112 -2191 1947 0
-2112 -2192 1948 0
-2112 -2193 1949 0
-2112 -2194 1950 0
-2112 -2195 1951 0
-2112 -2196 1952 0
-2112 -2197 1953 0
-2112 -2198 1954 0
-2112 -2199 1955 0
-2112 -2200 1956 0
-2112 -2201 1957 0
-2112 -2202 1958 0
-2112 -2203 1959 0
-2112 -2204 1960 0
-2112 -2205 1961 0
-2112 -2206 1962 0
-2112 -2207 1963 0
-2112 -2208 1964 0
-2112 -2209 1965 0
-2112 -2210 1966 0
-2112 -2211 1967 0
-2112 -2212 1968 0
-2112 -2213 1969 0
-2112 -2214 1970 0
-2112 -2215 1971 0
-2112 -2216 1972 0
-2112 -2217 1973 0
-2112 -2218 1974 0
-2112 -2219 1975 0
-2112 -2220 1976 0
-2112 -2221 1977 0
-2112 -2222 1978 0
-2112 -2223 1979 0
-2112 -2224 1980 0
-2112 -2225 1981 0
-2112 -2226 1982 0
-2112 -2227 1983 0
-2112 -2228 1984 0
-2112 -2229 1985 0
-2112 -2230 1986 0
-2112 -2231 1987 0
-2112 -2232 1988 0
-2112 -2233 1989 0
-2112 -2234 1990 0
-2112 -2235 1991 0
-2112 -2236 1992 0
-2112 -2237 1993 0
-2112 -2238 1994 0
-2112 -2239 1995 0
-2112 -2240 1996 0
-2113 -2125 1882 0
-2113 -2126 1883 0
-2113 -2127 1884 0
-2113 -2128 1885 0
-2113 -2129 1886 0
-2113 -2130 1887 0
-2113 -2131 1888 0
-2113 -2132 1889 0
-2113 -2133 1890 0
-2113 -2134 1891 0
-2113 -2135 1892 0
-2113 -2136 1893 0
-2113 -2137 1894 0
-2113 -2138 1895 0
-2113 -2139 1896 0
-2113 -2140 1897 0
-2113 -2141 1898 0
-2113 -2142 1899 0
-2113 -2143 1900 0
-2113 -2144 1901 0
-2113 -2145 1902 0
-2113 -2146 1903 0
-2113 -2147 1904 0
-2113 -2148 1905 0
-2113 -2149 1906 0
-2113 -2150 1907 0
-2113 -2151 1908 0
-2113 -2152 1909 0
-2113 -2153 1910 0
-2113 -2154 1911 0
-2113 -2155 1912 0
-2113 -2156 1913 0
-2113 -2157 1914 0
-2113 -2158 1915 0
-2113 -2159 1916 0
-2113 -2160 1917 0
-2113 -2161 1918 0
-2113 -2162 1919 0
-2113 -2163 1920 0
-2113 -2164 1921 0
-2113 -2165 1922 0
-2113 -2166 1923 0
-2113 -2167 1924 0
-2113 -2168 1925 0
-2113 -2169 1926 0
-2113 -2170 1927 0
-2113 -2171 1928 0
-2113 -2172 1929 0
-2113 -2173 1930 0
-2113 -2174 1931 0
-2113 -2175 1932 0
-2113 -2176 1933 0
-2113 -2177 1934 0
-2113 -2178 1935 0
-2113 -2179 1936 0
-2113 -2180 1937 0
-2113 -2181 1938 0
-2113 -2182 1939 0
-2113 -2183 1940 0
-2113 -2184 1941 0
-2113 -2185 1942 0
-2113 -2186 1943 0
-2113 -2187 1944 0
-2113 -2188 1945 0
-2113 -2189 1946 0
-2113 -2190 1947 0
-2113 -2191 1948 0
-2113 -2192 1949 0
-2113 -2193 1950 0
-2113 -2194 1951 0
-2113 -2195 1952 0
-2113 -2196 1953 0
-2113 -2197 1954 0
-2113 -2198 1955 0
-2113 -2199 1956 0
-2113 -2200 1957 0
-2113 -2201 1958 0
-2113 -2202 1959 0
-2113 -2203 1960 0
-2113 -2204 1961 0
-2113 -2205 1962 0
-2113 -2206 1963 0
-2113 -2207 1964 0
-2113 -2208 1965 0
-2113 -2209 1966 0
-2113 -2210 1967 0
-2113 -2211 1968 0
-2113 -2212 1969 0
-2113 -2213 1970 0
-2113 -2214 1971 0
-2113 -2215 1972 0
-2113 -2216 1973 0
-2113 -2217 1974 0
-2113 -2218 1975 0
-2113 -2219 1976 0
-2113 -2220 1977 0
-2113 -2221 1978 0
-2113 -2222 1979 0
-2113 -2223 1980 0
-2113 -2224 1981 0
-2113 -2225 1982 0
-2113 -2226 1983 0
-2113 -2227 1984 0
-2113 -2228 1985 0
-2113 -2229 1986 0
-2113 -2230 1987 0
-2113 -2231 1988 0
-2113 -2232 1989 0
-2113 -2233 1990 0
-2113 -2234 1991 0
-2113 -2235 1992 0
-2113 -2236 1993 0
-2113 -2237 1994 0
-2113 -2238 1995 0
-2113 -2239 1996 0
-2113 -2240 1997 0
-2114 -2125 1883 0
-2114 -2126 1884 0
-2114 -2127 1885 0
-2114 -2128 1886 0
-2114 -2129 1887 0
-2114 -2130 1888 0
-2114 -2131 1889 0
-2114 -2132 1890 0
-2114 -2133 1891 0
-2114 -2134 1892 0
-2114 -2135 1893 0
-2114 -2136 1894 0
-2114 -2137 1895 0
-2114 -2138 1896 0
-2114 -2139 1897 0
-2114 -2140 1898 0
-2114 -2141 1899 0
-2114 -2142 1900 0
-2114 -2143 1901 0
-2114 -2144 1902 0
-2114 -2145 1903 0
-2114 -2146 1904 0
-2114 -2147 1905 0
-2114 -2148 1906 0
-2114 -2149 1907 0
-2114 -2150 1908 0
-2114 -2151 1909 0
-2114 -2152 1910 0
-2114 -2153 1911 0
-2114 -2154 1912 0
-2114 -2155 1913 0
-2114 -2156 1914 0
-2114 -2157 1915 0
-2114 -2158 1916 0
-2114 -2159 1917 0
-2114 -2160 1918 0
-2114 -2161 1919 0
-2114 -2162 1920 0
-2114 -2163 1921 0
-2114 -2164 1922 0
-2114 -2165 1923 0
-2114 -2166 1924 0
-2114 -2167 1925 0
-2114 -2168 1926 0
-2114 -2169 1927 0
-2114 -2170 1928 0
-2114 -2171 1929 0
-2114 -2172 1930 0
-2114 -2173 1931 0
-2114 -2174 1932 0
-2114 -2175 1933 0
-2114 -2176 1934 0
-2114 -2177 1935 0
-2114 -2178 1936 0
-2114 -2179 1937 0
-2114 -2180 1938 0
-2114 -2181 1939 0
-2114 -2182 1940 0
-2114 -2183 1941 0
-2114 -2184 1942 0
-2114 -2185 1943 0
-2114 -2186 1944 0
-2114 -2187 1945 0
-2114 -2188 1946 0
-2114 -2189 1947 0
-2114 -2190 1948 0
-2114 -2191 1949 0
-2114 -2192 1950 0
-2114 -2193 1951 0
-2114 -2194 1952 0
-2114 -2195 1953 0
-2114 -2196 1954 0
-2114 -2197 1955 0
-2114 -2198 1956 0
-2114 -2199 1957 0
-2114 -2200 1958 0
-2114 -2201 1959 0
-2114 -2202 1960 0
-2114 -2203 1961 0
-2114 -2204 1962 0
-2114 -2205 1963 0
-2114 -2206 1964 0
-2114 -2207 1965 0
-2114 -2208 1966 0
-2114 -2209 1967 0
-2114 -2210 1968 0
-2114 -2211 1969 0
-2114 -2212 1970 0
-2114 -2213 1971 0
-2114 -2214 1972 0
-2114 -2215 1973 0
-2114 -2216 1974 0
-2114 -2217 1975 0
-2114 -2218 1976 0
-2114 -2219 1977 0
-2114 -2220 1978 0
-2114 -2221 1979 0
-2114 -2222 1980 0
-2114 -2223 1981 0
-2114 -2224 1982 0
-2114 -2225 1983 0
-2114 -2226 1984 0
-2114 -2227 1985 0
-2114 -2228 1986 0
-2114 -2229 1987 0
-2114 -2230 1988 0
-2114 -2231 1989 0
-2114 -2232 1990 0
-2114 -2233 1991 0
-2114 -2234 1992 0
-2114 -2235 1993 0
-2114 -2236 1994 0
-2114 -2237 1995 0
-2114 -2238 1996 0
-2114 -2239 1997 0
-2114 -2240 1998 0
-2115 -2125 1884 0
-2115 -2126 1885 0
-2115 -2127 1886 0
-2115 -2128 1887 0
-2115 -2129 1888 0
-2115 -2130 1889 0
-2115 -2131 1890 0
-2115 -2132 1891 0
-2115 -2133 1892 0
-2115 -2134 1893 0
-2115 -2135 1894 0
-2115 -2136 1895 0
-2115 -2137 1896 0
-2115 -2138 1897 0
-2115 -2139 1898 0
-2115 -2140 1899 0
-2115 -2141 1900 0
-2115 -2142 1901 0
-2115 -2143 1902 0
-2115 -2144 1903 0
-2115 -2145 1904 0
-2115 -2146 1905 0
-2115 -2147 1906 0
-2115 -2148 1907 0
-2115 -2149 1908 0
-2115 -2150 1909 0
-2115 -2151 1910 0
-2115 -2152 1911 0
-2115 -2153 1912 0
-2115 -2154 1913 0
-2115 -2155 1914 0
-2115 -2156 1915 0
-2115 -2157 1916 0
-2115 -2158 1917 0
-2115 -2159 1918 0
-2115 -2160 1919 0
-2115 -2161 1920 0
-2115 -2162 1921 0
-2115 -2163 1922 0
-2115 -2164 1923 0
-2115 -2165 1924 0
-2115 -2166 1925 0
-2115 -2167 1926 0
-2115 -2168 1927 0
-2115 -2169 1928 0
-2115 -2170 1929 0
-2115 -2171 1930 0
-2115 -2172 1931 0
-2115 -2173 1932 0
-2115 -2174 1933 0
-2115 -2175 1934 0
-2115 -2176 1935 0
-2115 -2177 1936 0
-2115 -2178 1937 0
-2115 -2179 1938 0
-2115 -2180 1939 0
-2115 -2181 1940 0
-2115 -2182 1941 0
-2115 -2183 1942 0
-2115 -2184 1943 0
-2115 -2185 1944 0
-2115 -2186 1945 0
-2115 -2187 1946 0
-2115 -2188 1947 0
-2115 -2189 1948 0
-2115 -2190 1949 0
-2115 -2191 1950 0
-2115 -2192 1951 0
-2115 -2193 1952 0
-2115 -2194 1953 0
-2115 -2195 1954 0
-2115 -2196 1955 0
-2115 -2197 1956 0
-2115 -2198 1957 0
-2115 -2199 1958 0
-2115 -2200 1959 0
-2115 -2201 1960 0
-2115 -2202 1961 0
-2115 -2203 1962 0
-2115 -2204 1963 0
-2115 -2205 1964 0
-2115 -2206 1965 0
-2115 -2207 1966 0
-2115 -2208 1967 0
-2115 -2209 1968 0
-2115 -2210 1969 0
-2115 -2211 1970 0
-2115 -2212 1971 0
-2115 -2213 1972 0
-2115 -2214 1973 0
-2115 -2215 1974 0
-2115 -2216 1975 0
-2115 -2217 1976 0
-2115 -2218 1977 0
-2115 -2219 1978 0
-2115 -2220 1979 0
-2115 -2221 1980 0
-2115 -2222 1981 0
-2115 -2223 1982 0
-2115 -2224 1983 0
-2115 -2225 1984 0
-2115 -2226 1985 0
-2115 -2227 1986 0
-2115 -2228 1987 0
-2115 -2229 1988 0
-2115 -2230 1989 0
-2115 -2231 1990 0
-2115 -2232 1991 0
-2115 -2233 1992 0
-2115 -2234 1993 0
-2115 -2235 1994 0
-2115 -2236 1995 0
-2115 -2237 1996 0
-2115 -2238 1997 0
-2115 -2239 1998 0
-2115 -2240 1999 0
-2116 -2125 1885 0
-2116 -2126 1886 0
-2116 -2127 1887 0
-2116 -2128 1888 0
-2116 -2129 1889 0
-2116 -2130 1890 0
-2116 -2131 1891 0
-2116 -2132 1892 0
-2116 -2133 1893 0
-2116 -2134 1894 0
-2116 -2135 1895 0
-2116 -2136 1896 0
-2116 -2137 1897 0
-2116 -2138 1898 0
-2116 -2139 1899 0
-2116 -2140 1900 0
-2116 -2141 1901 0
-2116 -2142 1902 0
-2116 -2143 1903 0
-2116 -2144 1904 0
-2116 -2145 1905 0
-2116 -2146 1906 0
-2116 -2147 1907 0
-2116 -2148 1908 0
-2116 -2149 1909 0
-2116 -2150 1910 0
-2116 -2151 1911 0
-2116 -2152 1912 0
-2116 -2153 1913 0
-2116 -2154 1914 0
-2116 -2155 1915 0
-2116 -2156 1916 0
-2116 -2157 1917 0
-2116 -2158 1918 0
-2116 -2159 1919 0
-2116 -2160 1920 0
-2116 -2161 1921 0
-2116 -2162 1922 0
-2116 -2163 1923 0
-2116 -2164 1924 0
-2116 -2165 1925 0
-2116 -2166 1926 0
-2116 -2167 1927 0
-2116 -2168 1928 0
-2116 -2169 1929 0
-2116 -2170 1930 0
-2116 -2171 1931 0
-2116 -2172 1932 0
-2116 -2173 1933 0
-2116 -2174 1934 0
-2116 -2175 1935 0
-2116 -2176 1936 0
-2116 -2177 1937 0
-2116 -2178 1938 0
-2116 -2179 1939 0
-2116 -2180 1940 0
-2116 -2181 1941 0
-2116 -2182 1942 0
-2116 -2183 1943 0
-2116 -2184 1944 0
-2116 -2185 1945 0
-2116 -2186 1946 0
-2116 -2187 1947 0
-2116 -2188 1948 0
-2116 -2189 1949 0
-2116 -2190 1950 0
-2116 -2191 1951 0
-2116 -2192 1952 0
-2116 -2193 1953 0
-2116 -2194 1954 0
-2116 -2195 1955 0
-2116 -2196 1956 0
-2116 -2197 1957 0
-2116 -2198 1958 0
-2116 -2199 1959 0
-2116 -2200 1960 0
-2116 -2201 1961 0
-2116 -2202 1962 0
-2116 -2203 1963 0
-2116 -2204 1964 0
-2116 -2205 1965 0
-2116 -2206 1966 0
-2116 -2207 1967 0
-2116 -2208 1968 0
-2116 -2209 1969 0
-2116 -2210 1970 0
-2116 -2211 1971 0
-2116 -2212 1972 0
-2116 -2213 1973 0
-2116 -2214 1974 0
-2116 -2215 1975 0
-2116 -2216 1976 0
-2116 -2217 1977 0
-2116 -2218 1978 0
-2116 -2219 1979 0
-2116 -2220 1980 0
-2116 -2221 1981 0
-2116 -2222 1982 0
-2116 -2223 1983 0
-2116 -2224 1984 0
-2116 -2225 1985 0
-2116 -2226 1986 0
-2116 -2227 1987 0
-2116 -2228 1988 0
-2116 -2229 1989 0
-2116 -2230 1990 0
-2116 -2231 1991 0
-2116 -2232 1992 0
-2116 -2233 1993 0
-2116 -2234 1994 0
-2116 -2235 1995 0
-2116 -2236 1996 0
-2116 -2237 1997 0
-2116 -2238 1998 0
-2116 -2239 1999 0
-2116 -2240 2000 0
-2117 -2125 1886 0
-2117 -2126 1887 0
-2117 -2127 1888 0
-2117 -2128 1889 0
-2117 -2129 1890 0
-2117 -2130 1891 0
-2117 -2131 1892 0
-2117 -2132 1893 0
-2117 -2133 1894 0
-2117 -2134 1895 0
-2117 -2135 1896 0
-2117 -2136 1897 0
-2117 -2137 1898 0
-2117 -2138 1899 0
-2117 -2139 1900 0
-2117 -2140 1901 0
-2117 -2141 1902 0
-2117 -2142 1903 0
-2117 -2143 1904 0
-2117 -2144 1905 0
-2117 -2145 1906 0
-2117 -2146 1907 0
-2117 -2147 1908 0
-2117 -2148 1909 0
-2117 -2149 1910 0
-2117 -2150 1911 0
-2117 -2151 1912 0
-2117 -2152 1913 0
-2117 -2153 1914 0
-2117 -2154 1915 0
-2117 -2155 1916 0
-2117 -2156 1917 0
-2117 -2157 1918 0
-2117 -2158 1919 0
-2117 -2159 1920 0
-2117 -2160 1921 0
-2117 -2161 1922 0
-2117 -2162 1923 0
-2117 -2163 1924 0
-2117 -2164 1925 0
-2117 -2165 1926 0
-2117 -2166 1927 0
-2117 -2167 1928 0
-2117 -2168 1929 0
-2117 -2169 1930 0
-2117 -2170 1931 0
-2117 -2171 1932 0
-2117 -2172 1933 0
-2117 -2173 1934 0
-2117 -2174 1935 0
-2117 -2175 1936 0
-2117 -2176 1937 0
-2117 -2177 1938 0
-2117 -2178 1939 0
-2117 -2179 1940 0
-2117 -2180 1941 0
-2117 -2181 1942 0
-2117 -2182 1943 0
-2117 -2183 1944 0
-2117 -2184 1945 0
-2117 -2185 1946 0
-2117 -2186 1947 0
-2117 -2187 1948 0
-2117 -2188 1949 0
-2117 -2189 1950 0
-2117 -2190 1951 0
-2117 -2191 1952 0
-2117 -2192 1953 0
-2117 -2193 1954 0
-2117 -2194 1955 0
-2117 -2195 1956 0
-2117 -2196 1957 0
-2117 -2197 1958 0
-2117 -2198 1959 0
-2117 -2199 1960 0
-2117 -2200 1961 0
-2117 -2201 1962 0
-2117 -2202 1963 0
-2117 -2203 1964 0
-2117 -2204 1965 0
-2117 -2205 1966 0
-2117 -2206 1967 0
-2117 -2207 1968 0
-2117 -2208 1969 0
-2117 -2209 1970 0
-2117 -2210 1971 0
-2117 -2211 1972 0
-2117 -2212 1973 0
-2117 -2213 1974 0
-2117 -2214 1975 0
-2117 -2215 1976 0
-2117 -2216 1977 0
-2117 -2217 1978 0
-2117 -2218 1979 0
-2117 -2219 1980 0
-2117 -2220 1981 0
-2117 -2221 1982 0
-2117 -2222 1983 0
-2117 -2223 1984 0
-2117 -2224 1985 0
-2117 -2225 1986 0
-2117 -2226 1987 0
-2117 -2227 1988 0
-2117 -2228 1989 0
-2117 -2229 1990 0
-2117 -2230 1991 0
-2117 -2231 1992 0
-2117 -2232 1993 0
-2117 -2233 1994 0
-2117 -2234 1995 0
-2117 -2235 1996 0
-2117 -2236 1997 0
-2117 -2237 1998 0
-2117 -2238 1999 0
-2117 -2239 2000 0
-2117 -2240 2001 0
-2118 -2125 1887 0
-2118 -2126 1888 0
-2118 -2127 1889 0
-2118 -2128 1890 0
-2118 -2129 1891 0
-2118 -2130 1892 0
-2118 -2131 1893 0
-2118 -2132 1894 0
-2118 -2133 1895 0
-2118 -2134 1896 0
-2118 -2135 1897 0
-2118 -2136 1898 0
-2118 -2137 1899 0
-2118 -2138 1900 0
-2118 -2139 1901 0
-2118 -2140 1902 0
-2118 -2141 1903 0
-2118 -2142 1904 0
-2118 -2143 1905 0
-2118 -2144 1906 0
-2118 -2145 1907 0
-2118 -2146 1908 0
-2118 -2147 1909 0
-2118 -2148 1910 0
-2118 -2149 1911 0
-2118 -2150 1912 0
-2118 -2151 1913 0
-2118 -2152 1914 0
-2118 -2153 1915 0
-2118 -2154 1916 0
-2118 -2155 1917 0
-2118 -2156 1918 0
-2118 -2157 1919 0
-2118 -2158 1920 0
-2118 -2159 1921 0
-2118 -2160 1922 0
-2118 -2161 1923 0
-2118 -2162 1924 0
-2118 -2163 1925 0
-2118 -2164 1926 0
-2118 -2165 1927 0
-2118 -2166 1928 0
-2118 -2167 1929 0
-2118 -2168 1930 0
-2118 -2169 1931 0
-2118 -2170 1932 0
-2118 -2171 1933 0
-2118 -2172 1934 0
-2118 -2173 1935 0
-2118 -2174 1936 0
-2118 -2175 1937 0
-2118 -2176 1938 0
-2118 -2177 1939 0
-2118 -2178 1940 0
-2118 -2179 1941 0
-2118 -2180 1942 0
-2118 -2181 1943 0
-2118 -2182 1944 0
-2118 -2183 1945 0
-2118 -2184 1946 0
-2118 -2185 1947 0
-2118 -2186 1948 0
-2118 -2187 1949 0
-2118 -2188 1950 0
-2118 -2189 1951 0
-2118 -2190 1952 0
-2118 -2191 1953 0
-2118 -2192 1954 0
-2118 -2193 1955 0
-2118 -2194 1956 0
-2118 -2195 1957 0
-2118 -2196 1958 0
-2118 -2197 1959 0
-2118 -2198 1960 0
-2118 -2199 1961 0
-2118 -2200 1962 0
-2118 -2201 1963 0
-2118 -2202 1964 0
-2118 -2203 1965 0
-2118 -2204 1966 0
-2118 -2205 1967 0
-2118 -2206 1968 0
-2118 -2207 1969 0
-2118 -2208 1970 0
-2118 -2209 1971 0
-2118 -2210 1972 0
-2118 -2211 1973 0
-2118 -2212 1974 0
-2118 -2213 1975 0
-2118 -2214 1976 0
-2118 -2215 1977 0
-2118 -2216 1978 0
-2118 -2217 1979 0
-2118 -2218 1980 0
-2118 -2219 1981 0
-2118 -2220 1982 0
-2118 -2221 1983 0
-2118 -2222 1984 0
-2118 -2223 1985 0
-2118 -2224 1986 0
-2118 -2225 1987 0
-2118 -2226 1988 0
-2118 -2227 1989 0
-2118 -2228 1990 0
-2118 -2229 1991 0
-2118 -2230 1992 0
-2118 -2231 1993 0
-2118 -2232 1994 0
-2118 -2233 1995 0
-2118 -2234 1996 0
-2118 -2235 1997 0
-2118 -2236 1998 0
-2118 -2237 1999 0
-2118 -2238 2000 0
-2118 -2239 2001 0
-2118 -2240 2002 0
-2119 -2125 1888 0
-2119 -2126 1889 0
-2119 -2127 1890 0
-2119 -2128 1891 0
-2119 -2129 1892 0
-2119 -2130 1893 0
-2119 -2131 1894 0
-2119 -2132 1895 0
-2119 -2133 1896 0
-2119 -2134 1897 0
-2119 -2135 1898 0
-2119 -2136 1899 0
-2119 -2137 1900 0
-2119 -2138 1901 0
-2119 -2139 1902 0
-2119 -2140 1903 0
-2119 -2141 1904 0
-2119 -2142 1905 0
-2119 -2143 1906 0
-2119 -2144 1907 0
-2119 -2145 1908 0
-2119 -2146 1909 0
-2119 -2147 1910 0
-2119 -2148 1911 0
-2119 -2149 1912 0
-2119 -2150 1913 0
-2119 -2151 1914 0
-2119 -2152 1915 0
-2119 -2153 1916 0
-2119 -2154 1917 0
-2119 -2155 1918 0
-2119 -2156 1919 0
-2119 -2157 1920 0
-2119 -2158 1921 0
-2119 -2159 1922 0
-2119 -2160 1923 0
-2119 -2161 1924 0
-2119 -2162 1925 0
-2119 -2163 1926 0
-2119 -2164 1927 0
-2119 -2165 1928 0
-2119 -2166 1929 0
-2119 -2167 1930 0
-2119 -2168 1931 0
-2119 -2169 1932 0
-2119 -2170 1933 0
-2119 -2171 1934 0
-2119 -2172 1935 0
-2119 -2173 1936 0
-2119 -2174 1937 0
-2119 -2175 1938 0
-2119 -2176 1939 0
-2119 -2177 1940 0
-2119 -2178 1941 0
-2119 -2179 1942 0
-2119 -2180 1943 0
-2119 -2181 1944 0
-2119 -2182 1945 0
-2119 -2183 1946 0
-2119 -2184 1947 0
-2119 -2185 1948 0
-2119 -2186 1949 0
-2119 -2187 1950 0
-2119 -2188 1951 0
-2119 -2189 1952 0
-2119 -2190 1953 0
-2119 -2191 1954 0
-2119 -2192 1955 0
-2119 -2193 1956 0
-2119 -2194 1957 0
-2119 -2195 1958 0
-2119 -2196 1959 0
-2119 -2197 1960 0
-2119 -2198 1961 0
-2119 -2199 1962 0
-2119 -2200 1963 0
-2119 -2201 1964 0
-2119 -2202 1965 0
-2119 -2203 1966 0
-2119 -2204 1967 0
-2119 -2205 1968 0
-2119 -2206 1969 0
-2119 -2207 1970 0
-2119 -2208 1971 0
-2119 -2209 1972 0
-2119 -2210 1973 0
-2119 -2211 1974 0
-2119 -2212 1975 0
-2119 -2213 1976 0
-2119 -2214 1977 0
-2119 -2215 1978 0
-2119 -2216 1979 0
-2119 -2217 1980 0
-2119 -2218 1981 0
-2119 -2219 1982 0
-2119 -2220 1983 0
-2119 -2221 1984 0
-2119 -2222 1985 0
-2119 -2223 1986 0
-2119 -2224 1987 0
-2119 -2225 1988 0
-2119 -2226 1989 0
-2119 -2227 1990 0
-2119 -2228 1991 0
-2119 -2229 1992 0
-2119 -2230 1993 0
-2119 -2231 1994 0
-2119 -2232 1995 0
-2119 -2233 1996 0
-2119 -2234 1997 0
-2119 -2235 1998 0
-2119 -2236 1999 0
-2119 -2237 2000 0
-2119 -2238 2001 0
-2119 -2239 2002 0
-2119 -2240 2003 0
-2120 -2125 1889 0
-2120 -2126 1890 0
-2120 -2127 1891 0
-2120 -2128 1892 0
-2120 -2129 1893 0
-2120 -2130 1894 0
-2120 -2131 1895 0
-2120 -2132 1896 0
-2120 -2133 1897 0
-2120 -2134 1898 0
-2120 -2135 1899 0
-2120 -2136 1900 0
-2120 -2137 1901 0
-2120 -2138 1902 0
-2120 -2139 1903 0
-2120 -2140 1904 0
-2120 -2141 1905 0
-2120 -2142 1906 0
-2120 -2143 1907 0
-2120 -2144 1908 0
-2120 -2145 1909 0
-2120 -2146 1910 0
-2120 -2147 1911 0
-2120 -2148 1912 0
-2120 -2149 1913 0
-2120 -2150 1914 0
-2120 -2151 1915 0
-2120 -2152 1916 0
-2120 -2153 1917 0
-2120 -2154 1918 0
-2120 -2155 1919 0
-2120 -2156 1920 0
-2120 -2157 1921 0
-2120 -2158 1922 0
-2120 -2159 1923 0
-2120 -2160 1924 0
-2120 -2161 1925 0
-2120 -2162 1926 0
-2120 -2163 1927 0
-2120 -2164 1928 0
-2120 -2165 1929 0
-2120 -2166 1930 0
-2120 -2167 1931 0
-2120 -2168 1932 0
-2120 -2169 1933 0
-2120 -2170 1934 0
-2120 -2171 1935 0
-2120 -2172 1936 0
-2120 -2173 1937 0
-2120 -2174 1938 0
-2120 -2175 1939 0
-2120 -2176 1940 0
-2120 -2177 1941 0
-2120 -2178 1942 0
-2120 -2179 1943 0
-2120 -2180 1944 0
-2120 -2181 1945 0
-2120 -2182 1946 0
-2120 -2183 1947 0
-2120 -2184 1948 0
-2120 -2185 1949 0
-2120 -2186 1950 0
-2120 -2187 1951 0
-2120 -2188 1952 0
-2120 -2189 1953 0
-2120 -2190 1954 0
-2120 -2191 1955 0
-2120 -2192 1956 0
-2120 -2193 1957 0
-2120 -2194 1958 0
-2120 -2195 1959 0
-2120 -2196 1960 0
-2120 -2197 1961 0
-2120 -2198 1962 0
-2120 -2199 1963 0
-2120 -2200 1964 0
-2120 -2201 1965 0
-2120 -2202 1966 0
-2120 -2203 1967 0
-2120 -2204 1968 0
-2120 -2205 1969 0
-2120 -2206 1970 0
-2120 -2207 1971 0
-2120 -2208 1972 0
-2120 -2209 1973 0
-2120 -2210 1974 0
-2120 -2211 1975 0
-2120 -2212 1976 0
-2120 -2213 1977 0
-2120 -2214 1978 0
-2120 -2215 1979 0
-2120 -2216 1980 0
-2120 -2217 1981 0
-2120 -2218 1982 0
-2120 -2219 1983 0
-2120 -2220 1984 0
-2120 -2221 1985 0
-2120 -2222 1986 0
-2120 -2223 1987 0
-2120 -2224 1988 0
-2120 -2225 1989 0
-2120 -2226 1990 0
-2120 -2227 1991 0
-2120 -2228 1992 0
-2120 -2229 1993 0
-2120 -2230 1994 0
-2120 -2231 1995 0
-2120 -2232 1996 0
-2120 -2233 1997 0
-2120 -2234 1998 0
-2120 -2235 1999 0
-2120 -2236 2000 0
-2120 -2237 2001 0
-2120 -2238 2002 0
-2120 -2239 2003 0
-2120 -2240 2004 0
-2121 -2125 1890 0
-2121 -2126 1891 0
-2121 -2127 1892 0
-2121 -2128 1893 0
-2121 -2129 1894 0
-2121 -2130 1895 0
-2121 -2131 1896 0
-2121 -2132 1897 0
-2121 -2133 1898 0
-2121 -2134 1899 0
-2121 -2135 1900 0
-2121 -2136 1901 0
-2121 -2137 1902 0
-2121 -2138 1903 0
-2121 -2139 1904 0
-2121 -2140 1905 0
-2121 -2141 1906 0
-2121 -2142 1907 0
-2121 -2143 1908 0
-2121 -2144 1909 0
-2121 -2145 1910 0
-2121 -2146 1911 0
-2121 -2147 1912 0
-2121 -2148 1913 0
-2121 -2149 1914 0
-2121 -2150 1915 0
-2121 -2151 1916 0
-2121 -2152 1917 0
-2121 -2153 1918 0
-2121 -2154 1919 0
-2121 -2155 1920 0
-2121 -2156 1921 0
-2121 -2157 1922 0
-2121 -2158 1923 0
-2121 -2159 1924 0
-2121 -2160 1925 0
-2121 -2161 1926 0
-2121 -2162 1927 0
-2121 -2163 1928 0
-2121 -2164 1929 0
-2121 -2165 1930 0
-2121 -2166 1931 0
-2121 -2167 1932 0
-2121 -2168 1933 0
-2121 -2169 1934 0
-2121 -2170 1935 0
-2121 -2171 1936 0
-2121 -2172 1937 0
-2121 -2173 1938 0
-2121 -2174 1939 0
-2121 -2175 1940 0
-2121 -2176 1941 0
-2121 -2177 1942 0
-2121 -2178 1943 0
-2121 -2179 1944 0
-2121 -2180 1945 0
-2121 -2181 1946 0
-2121 -2182 1947 0
-2121 -2183 1948 0
-2121 -2184 1949 0
-2121 -2185 1950 0
-2121 -2186 1951 0
-2121 -2187 1952 0
-2121 -2188 1953 0
-2121 -2189 1954 0
-2121 -2190 1955 0
-2121 -2191 1956 0
-2121 -2192 1957 0
-2121 -2193 1958 0
-2121 -2194 1959 0
-2121 -2195 1960 0
-2121 -2196 1961 0
-2121 -2197 1962 0
-2121 -2198 1963 0
-2121 -2199 1964 0
-2121 -2200 1965 0
-2121 -2201 1966 0
-2121 -2202 1967 0
-2121 -2203 1968 0
-2121 -2204 1969 0
-2121 -2205 1970 0
-2121 -2206 1971 0
-2121 -2207 1972 0
-2121 -2208 1973 0
-2121 -2209 1974 0
-2121 -2210 1975 0
-2121 -2211 1976 0
-2121 -2212 1977 0
-2121 -2213 1978 0
-2121 -2214 1979 0
-2121 -2215 1980 0
-2121 -2216 1981 0
-2121 -2217 1982 0
-2121 -2218 1983 0
-2121 -2219 1984 0
-2121 -2220 1985 0
-2121 -2221 1986 0
-2121 -2222 1987 0
-2121 -2223 1988 0
-2121 -2224 1989 0
-2121 -2225 1990 0
-2121 -2226 1991 0
-2121 -2227 1992 0
-2121 -2228 1993 0
-2121 -2229 1994 0
-2121 -2230 1995 0
-2121 -2231 1996 0
-2121 -2232 1997 0
-2121 -2233 1998 0
-2121 -2234 1999 0
-2121 -2235 2000 0
-2121 -2236 2001 0
-2121 -2237 2002 0
-2121 -2238 2003 0
-2121 -2239 2004 0
-2121 -2240 2005 0
-2122 -2125 1891 0
-2122 -2126 1892 0
-2122 -2127 1893 0
-2122 -2128 1894 0
-2122 -2129 1895 0
-2122 -2130 1896 0
-2122 -2131 1897 0
-2122 -2132 1898 0
-2122 -2133 1899 0
-2122 -2134 1900 0
-2122 -2135 1901 0
-2122 -2136 1902 0
-2122 -2137 1903 0
-2122 -2138 1904 0
-2122 -2139 1905 0
-2122 -2140 1906 0
-2122 -2141 1907 0
-2122 -2142 1908 0
-2122 -2143 1909 0
-2122 -2144 1910 0
-2122 -2145 1911 0
-2122 -2146 1912 0
-2122 -2147 1913 0
-2122 -2148 1914 0
-2122 -2149 1915 0
-2122 -2150 1916 0
-2122 -2151 1917 0
-2122 -2152 1918 0
-2122 -2153 1919 0
-2122 -2154 1920 0
-2122 -2155 1921 0
-2122 -2156 1922 0
-2122 -2157 1923 0
-2122 -2158 1924 0
-2122 -2159 1925 0
-2122 -2160 1926 0
-2122 -2161 1927 0
-2122 -2162 1928 0
-2122 -2163 1929 0
-2122 -2164 1930 0
-2122 -2165 1931 0
-2122 -2166 1932 0
-2122 -2167 1933 0
-2122 -2168 1934 0
-2122 -2169 1935 0
-2122 -2170 1936 0
-2122 -2171 1937 0
-2122 -2172 1938 0
-2122 -2173 1939 0
-2122 -2174 1940 0
-2122 -2175 1941 0
-2122 -2176 1942 0
-2122 -2177 1943 0
-2122 -2178 1944 0
-2122 -2179 1945 0
-2122 -2180 1946 0
-2122 -2181 1947 0
-2122 -2182 1948 0
-2122 -2183 1949 0
-2122 -2184 1950 0
-2122 -2185 1951 0
-2122 -2186 1952 0
-2122 -2187 1953 0
-2122 -2188 1954 0
-2122 -2189 1955 0
-2122 -2190 1956 0
-2122 -2191 1957 0
-2122 -2192 1958 0
-2122 -2193 1959 0
-2122 -2194 1960 0
-2122 -2195 1961 0
-2122 -2196 1962 0
-2122 -2197 1963 0
-2122 -2198 1964 0
-2122 -2199 1965 0
-2122 -2200 1966 0
-2122 -2201 1967 0
-2122 -2202 1968 0
-2122 -2203 1969 0
-2122 -2204 1970 0
-2122 -2205 1971 0
-2122 -2206 1972 0
-2122 -2207 1973 0
-2122 -2208 1974 0
-2122 -2209 1975 0
-2122 -2210 1976 0
-2122 -2211 1977 0
-2122 -2212 1978 0
-2122 -2213 1979 0
-2122 -2214 1980 0
-2122 -2215 1981 0
-2122 -2216 1982 0
-2122 -2217 1983 0
-2122 -2218 1984 0
-2122 -2219 1985 0
-2122 -2220 1986 0
-2122 -2221 1987 0
-2122 -2222 1988 0
-2122 -2223 1989 0
-2122 -2224 1990 0
-2122 -2225 1991 0
-2122 -2226 1992 0
-2122 -2227 1993 0
-2122 -2228 1994 0
-2122 -2229 1995 0
-2122 -2230 1996 0
-2122 -2231 1997 0
-2122 -2232 1998 0
-2122 -2233 1999 0
-2122 -2234 2000 0
-2122 -2235 2001 0
-2122 -2236 2002 0
-2122 -2237 2003 0
-2122 -2238 2004 0
-2122 -2239 2005 0
-2122 -2240 2006 0
-2123 -2125 1892 0
-2123 -2126 1893 0
-2123 -2127 1894 0
-2123 -2128 1895 0
-2123 -2129 1896 0
-2123 -2130 1897 0
-2123 -2131 1898 0
-2123 -2132 1899 0
-2123 -2133 1900 0
-2123 -2134 1901 0
-2123 -2135 1902 0
-2123 -2136 1903 0
-2123 -2137 1904 0
-2123 -2138 1905 0
-2123 -2139 1906 0
-2123 -2140 1907 0
-2123 -2141 1908 0
-2123 -2142 1909 0
-2123 -2143 1910 0
-2123 -2144 1911 0
-2123 -2145 1912 0
-2123 -2146 1913 0
-2123 -2147 1914 0
-2123 -2148 1915 0
-2123 -2149 1916 0
-2123 -2150 1917 0
-2123 -2151 1918 0
-2123 -2152 1919 0
-2123 -2153 1920 0
-2123 -2154 1921 0
-2123 -2155 1922 0
-2123 -2156 1923 0
-2123 -2157 1924 0
-2123 -2158 1925 0
-2123 -2159 1926 0
-2123 -2160 1927 0
-2123 -2161 1928 0
-2123 -2162 1929 0
-2123 -2163 1930 0
-2123 -2164 1931 0
-2123 -2165 1932 0
-2123 -2166 1933 0
-2123 -2167 1934 0
-2123 -2168 1935 0
-2123 -2169 1936 0
-2123 -2170 1937 0
-2123 -2171 1938 0
-2123 -2172 1939 0
-2123 -2173 1940 0
-2123 -2174 1941 0
-2123 -2175 1942 0
-2123 -2176 1943 0
-2123 -2177 1944 0
-2123 -2178 1945 0
-2123 -2179 1946 0
-2123 -2180 1947 0
-2123 -2181 1948 0
-2123 -2182 1949 0
-2123 -2183 1950 0
-2123 -2184 1951 0
-2123 -2185 1952 0
-2123 -2186 1953 0
-2123 -2187 1954 0
-2123 -2188 1955 0
-2123 -2189 1956 0
-2123 -2190 1957 0
-2123 -2191 1958 0
-2123 -2192 1959 0
-2123 -2193 1960 0
-2123 -2194 1961 0
-2123 -2195 1962 0
-2123 -2196 1963 0
-2123 -2197 1964 0
-2123 -2198 1965 0
-2123 -2199 1966 0
-2123 -2200 1967 0
-2123 -2201 1968 0
-2123 -2202 1969 0
-2123 -2203 1970 0
-2123 -2204 1971 0
-2123 -2205 1972 0
-2123 -2206 1973 0
-2123 -2207 1974 0
-2123 -2208 1975 0
-2123 -2209 1976 0
-2123 -2210 1977 0
-2123 -2211 1978 0
-2123 -2212 1979 0
-2123 -2213 1980 0
-2123 -2214 1981 0
-2123 -2215 1982 0
-2123 -2216 1983 0
-2123 -2217 1984 0
-2123 -2218 1985 0
-2123 -2219 1986 0
-2123 -2220 1987 0
-2123 -2221 1988 0
-2123 -2222 1989 0
-2123 -2223 1990 0
-2123 -2224 1991 0
-2123 -2225 1992 0
-2123 -2226 1993 0
-2123 -2227 1994 0
-2123 -2228 1995 0
-2123 -2229 1996 0
-2123 -2230 1997 0
-2123 -2231 1998 0
-2123 -2232 1999 0
-2123 -2233 2000 0
-2123 -2234 2001 0
-2123 -2235 2002 0
-2123 -2236 2003 0
-2123 -2237 2004 0
-2123 -2238 2005 0
-2123 -2239 2006 0
-2123 -2240 2007 0
-2124 -2125 1893 0
-2124 -2126 1894 0
-2124 -2127 1895 0
-2124 -2128 1896 0
-2124 -2129 1897 0
-2124 -2130 1898 0
-2124 -2131 1899 0
-2124 -2132 1900 0
-2124 -2133 1901 0
-2124 -2134 1902 0
-2124 -2135 1903 0
-2124 -2136 1904 0
-2124 -2137 1905 0
-2124 -2138 1906 0
-2124 -2139 1907 0
-2124 -2140 1908 0
-2124 -2141 1909 0
-2124 -2142 1910 0
-2124 -2143 1911 0
-2124 -2144 1912 0
-2124 -2145 1913 0
-2124 -2146 1914 0
-2124 -2147 1915 0
-2124 -2148 1916 0
-2124 -2149 1917 0
-2124 -2150 1918 0
-2124 -2151 1919 0
-2124 -2152 1920 0
-2124 -2153 1921 0
-2124 -2154 1922 0
-2124 -2155 1923 0
-2124 -2156 1924 0
-2124 -2157 1925 0
-2124 -2158 1926 0
-2124 -2159 1927 0
-2124 -2160 1928 0
-2124 -2161 1929 0
-2124 -2162 1930 0
-2124 -2163 1931 0
-2124 -2164 1932 0
-2124 -2165 1933 0
-2124 -2166 1934 0
-2124 -2167 1935 0
-2124 -2168 1936 0
-2124 -2169 1937 0
-2124 -2170 1938 0
-2124 -2171 1939 0
-2124 -2172 1940 0
-2124 -2173 1941 0
-2124 -2174 1942 0
-2124 -2175 1943 0
-2124 -2176 1944 0
-2124 -2177 1945 0
-2124 -2178 1946 0
-2124 -2179 1947 0
-2124 -2180 1948 0
-2124 -2181 1949 0
-2124 -2182 1950 0
-2124 -2183 1951 0
-2124 -2184 1952 0
-2124 -2185 1953 0
-2124 -2186 1954 0
-2124 -2187 1955 0
-2124 -2188 1956 0
-2124 -2189 1957 0
-2124 -2190 1958 0
-2124 -2191 1959 0
-2124 -2192 1960 0
-2124 -2193 1961 0
-2124 -2194 1962 0
-2124 -2195 1963 0
-2124 -2196 1964 0
-2124 -2197 1965 0
-2124 -2198 1966 0
-2124 -2199 1967 0
-2124 -2200 1968 0
-2124 -2201 1969 0
-2124 -2202 1970 0
-2124 -2203 1971 0
-2124 -2204 1972 0
-2124 -2205 1973 0
-2124 -2206 1974 0
-2124 -2207 1975 0
-2124 -2208 1976 0
-2124 -2209 1977 0
-2124 -2210 1978 0
-2124 -2211 1979 0
-2124 -2212 1980 0
-2124 -2213 1981 0
-2124 -2214 1982 0
-2124 -2215 1983 0
-2124 -2216 1984 0
-2124 -2217 1985 0
-2124 -2218 1986 0
-2124 -2219 1987 0
-2124 -2220 1988 0
-2124 -2221 1989 0
-2124 -2222 1990 0
-2124 -2223 1991 0
-2124 -2224 1992 0
-2124 -2225 1993 0
-2124 -2226 1994 0
-2124 -2227 1995 0
-2124 -2228 1996 0
-2124 -2229 1997 0
-2124 -2230 1998 0
-2124 -2231 1999 0
-2124 -2232 2000 0
-2124 -2233 2001 0
-2124 -2234 2002 0
-2124 -2235 2003 0
-2124 -2236 2004 0
-2124 -2237 2005 0
-2124 -2238 2006 0
-2124 -2239 2007 0
-2124 -2240 2008 0
-2299 2125 0
-2300 2126 0
-2301 2127 0
-2302 2128 0
-2303 2129 0
-2304 2130 0
-2305 2131 0
-2306 2132 0
-2307 2133 0
-2308 2134 0
-2309 2135 0
-2310 2136 0
-2311 2137 0
-2312 2138 0
-2313 2139 0
-2314 2140 0
-2315 2141 0
-2316 2142 0
-2317 2143 0
-2318 2144 0
-2319 2145 0
-2320 2146 0
-2321 2147 0
-2322 2148 0
-2323 2149 0
-2324 2150 0
-2325 2151 0
-2326 2152 0
-2327 2153 0
-2328 2154 0
-2329 2155 0
-2330 2156 0
-2331 2157 0
-2332 2158 0
-2333 2159 0
-2334 2160 0
-2335 2161 0
-2336 2162 0
-2337 2163 0
-2338 2164 0
-2339 2165 0
-2340 2166 0
-2341 2167 0
-2342 2168 0
-2343 2169 0
-2344 2170 0
-2345 2171 0
-2346 2172 0
-2347 2173 0
-2348 2174 0
-2349 2175 0
-2350 2176 0
-2351 2177 0
-2352 2178 0
-2353 2179 0
-2354 2180 0
-2355 2181 0
-2356 2182 0
-2241 2125 0
-2242 2126 0
-2243 2127 0
-2244 2128 0
-2245 2129 0
-2246 2130 0
-2247 2131 0
-2248 2132 0
-2249 2133 0
-2250 2134 0
-2251 2135 0
-2252 2136 0
-2253 2137 0
-2254 2138 0
-2255 2139 0
-2256 2140 0
-2257 2141 0
-2258 2142 0
-2259 2143 0
-2260 2144 0
-2261 2145 0
-2262 2146 0
-2263 2147 0
-2264 2148 0
-2265 2149 0
-2266 2150 0
-2267 2151 0
-2268 2152 0
-2269 2153 0
-2270 2154 0
-2271 2155 0
-2272 2156 0
-2273 2157 0
-2274 2158 0
-2275 2159 0
-2276 2160 0
-2277 2161 0
-2278 2162 0
-2279 2163 0
-2280 2164 0
-2281 2165 0
-2282 2166 0
-2283 2167 0
-2284 2168 0
-2285 2169 0
-2286 2170 0
-2287 2171 0
-2288 2172 0
-2289 2173 0
-2290 2174 0
-2291 2175 0
-2292 2176 0
-2293 2177 0
-2294 2178 0
-2295 2179 0
-2296 2180 0
-2297 2181 0
-2298 2182 0
-2241 -2299 2126 0
-2241 -2300 2127 0
-2241 -2301 2128 0
-2241 -2302 2129 0
-2241 -2303 2130 0
-2241 -2304 2131 0
-2241 -2305 2132 0
-2241 -2306 2133 0
-2241 -2307 2134 0
-2241 -2308 2135 0
-2241 -2309 2136 0
-2241 -2310 2137 0
-2241 -2311 2138 0
-2241 -2312 2139 0
-2241 -2313 2140 0
-2241 -2314 2141 0
-2241 -2315 2142 0
-2241 -2316 2143 0
-2241 -2317 2144 0
-2241 -2318 2145 0
-2241 -2319 2146 0
-2241 -2320 2147 0
-2241 -2321 2148 0
-2241 -2322 2149 0
-2241 -2323 2150 0
-2241 -2324 2151 0
-2241 -2325 2152 0
-2241 -2326 2153 0
-2241 -2327 2154 0
-2241 -2328 2155 0
-2241 -2329 2156 0
-2241 -2330 2157 0
-2241 -2331 2158 0
-2241 -2332 2159 0
-2241 -2333 2160 0
-2241 -2334 2161 0
-2241 -2335 2162 0
-2241 -2336 2163 0
-2241 -2337 2164 0
-2241 -2338 2165 0
-2241 -2339 2166 0
-2241 -2340 2167 0
-2241 -2341 2168 0
-2241 -2342 2169 0
-2241 -2343 2170 0
-2241 -2344 2171 0
-2241 -2345 2172 0
-2241 -2346 2173 0
-2241 -2347 2174 0
-2241 -2348 2175 0
-2241 -2349 2176 0
-2241 -2350 2177 0
-2241 -2351 2178 0
-2241 -2352 2179 0
-2241 -2353 2180 0
-2241 -2354 2181 0
-2241 -2355 2182 0
-2241 -2356 2183 0
-2242 -2299 2127 0
-2242 -2300 2128 0
-2242 -2301 2129 0
-2242 -2302 2130 0
-2242 -2303 2131 0
-2242 -2304 2132 0
-2242 -2305 2133 0
-2242 -2306 2134 0
-2242 -2307 2135 0
-2242 -2308 2136 0
-2242 -2309 2137 0
-2242 -2310 2138 0
-2242 -2311 2139 0
-2242 -2312 2140 0
-2242 -2313 2141 0
-2242 -2314 2142 0
-2242 -2315 2143 0
-2242 -2316 2144 0
-2242 -2317 2145 0
-2242 -2318 2146 0
-2242 -2319 2147 0
-2242 -2320 2148 0
-2242 -2321 2149 0
-2242 -2322 2150 0
-2242 -2323 2151 0
-2242 -2324 2152 0
-2242 -2325 2153 0
-2242 -2326 2154 0
-2242 -2327 2155 0
-2242 -2328 2156 0
-2242 -2329 2157 0
-2242 -2330 2158 0
-2242 -2331 2159 0
-2242 -2332 2160 0
-2242 -2333 2161 0
-2242 -2334 2162 0
-2242 -2335 2163 0
-2242 -2336 2164 0
-2242 -2337 2165 0
-2242 -2338 2166 0
-2242 -2339 2167 0
-2242 -2340 2168 0
-2242 -2341 2169 0
-2242 -2342 2170 0
-2242 -2343 2171 0
-2242 -2344 2172 0
-2242 -2345 2173 0
-2242 -2346 2174 0
-2242 -2347 2175 0
-2242 -2348 2176 0
-2242 -2349 2177 0
-2242 -2350 2178 0
-2242 -2351 2179 0
-2242 -2352 2180 0
-2242 -2353 2181 0
-2242 -2354 2182 0
-2242 -2355 2183 0
-2242 -2356 2184 0
-2243 -2299 2128 0
-2243 -2300 2129 0
-2243 -2301 2130 0
-2243 -2302 2131 0
-2243 -2303 2132 0
-2243 -2304 2133 0
-2243 -2305 2134 0
-2243 -2306 2135 0
-2243 -2307 2136 0
-2243 -2308 2137 0
-2243 -2309 2138 0
-2243 -2310 2139 0
-2243 -2311 2140 0
-2243 -2312 2141 0
-2243 -2313 2142 0
-2243 -2314 2143 0
-2243 -2315 2144 0
-2243 -2316 2145 0
-2243 -2317 2146 0
-2243 -2318 2147 0
-2243 -2319 2148 0
-2243 -2320 2149 0
-2243 -2321 2150 0
-2243 -2322 2151 0
-2243 -2323 2152 0
-2243 -2324 2153 0
-2243 -2325 2154 0
-2243 -2326 2155 0
-2243 -2327 2156 0
-2243 -2328 2157 0
-2243 -2329 2158 0
-2243 -2330 2159 0
-2243 -2331 2160 0
-2243 -2332 2161 0
-2243 -2333 2162 0
-2243 -2334 2163 0
-2243 -2335 2164 0
-2243 -2336 2165 0
-2243 -2337 2166 0
-2243 -2338 2167 0
-2243 -2339 2168 0
-2243 -2340 2169 0
-2243 -2341 2170 0
-2243 -2342 2171 0
-2243 -2343 2172 0
-2243 -2344 2173 0
-2243 -2345 2174 0
-2243 -2346 2175 0
-2243 -2347 2176 0
-2243 -2348 2177 0
-2243 -2349 2178 0
-2243 -2350 2179 0
-2243 -2351 2180 0
-2243 -2352 2181 0
-2243 -2353 2182 0
-2243 -2354 2183 0
-2243 -2355 2184 0
-2243 -2356 2185 0
-2244 -2299 2129 0
-2244 -2300 2130 0
-2244 -2301 2131 0
-2244 -2302 2132 0
-2244 -2303 2133 0
-2244 -2304 2134 0
-2244 -2305 2135 0
-2244 -2306 2136 0
-2244 -2307 2137 0
-2244 -2308 2138 0
-2244 -2309 2139 0
-2244 -2310 2140 0
-2244 -2311 2141 0
-2244 -2312 2142 0
-2244 -2313 2143 0
-2244 -2314 2144 0
-2244 -2315 2145 0
-2244 -2316 2146 0
-2244 -2317 2147 0
-2244 -2318 2148 0
-2244 -2319 2149 0
-2244 -2320 2150 0
-2244 -2321 2151 0
-2244 -2322 2152 0
-2244 -2323 2153 0
-2244 -2324 2154 0
-2244 -2325 2155 0
-2244 -2326 2156 0
-2244 -2327 2157 0
-2244 -2328 2158 0
-2244 -2329 2159 0
-2244 -2330 2160 0
-2244 -2331 2161 0
-2244 -2332 2162 0
-2244 -2333 2163 0
-2244 -2334 2164 0
-2244 -2335 2165 0
-2244 -2336 2166 0
-2244 -2337 2167 0
-2244 -2338 2168 0
-2244 -2339 2169 0
-2244 -2340 2170 0
-2244 -2341 2171 0
-2244 -2342 2172 0
-2244 -2343 2173 0
-2244 -2344 2174 0
-2244 -2345 2175 0
-2244 -2346 2176 0
-2244 -2347 2177 0
-2244 -2348 2178 0
-2244 -2349 2179 0
-2244 -2350 2180 0
-2244 -2351 2181 0
-2244 -2352 2182 0
-2244 -2353 2183 0
-2244 -2354 2184 0
-2244 -2355 2185 0
-2244 -2356 2186 0
-2245 -2299 2130 0
-2245 -2300 2131 0
-2245 -2301 2132 0
-2245 -2302 2133 0
-2245 -2303 2134 0
-2245 -2304 2135 0
-2245 -2305 2136 0
-2245 -2306 2137 0
-2245 -2307 2138 0
-2245 -2308 2139 0
-2245 -2309 2140 0
-2245 -2310 2141 0
-2245 -2311 2142 0
-2245 -2312 2143 0
-2245 -2313 2144 0
-2245 -2314 2145 0
-2245 -2315 2146 0
-2245 -2316 2147 0
-2245 -2317 2148 0
-2245 -2318 2149 0
-2245 -2319 2150 0
-2245 -2320 2151 0
-2245 -2321 2152 0
-2245 -2322 2153 0
-2245 -2323 2154 0
-2245 -2324 2155 0
-2245 -2325 2156 0
-2245 -2326 2157 0
-2245 -2327 2158 0
-2245 -2328 2159 0
-2245 -2329 2160 0
-2245 -2330 2161 0
-2245 -2331 2162 0
-2245 -2332 2163 0
-2245 -2333 2164 0
-2245 -2334 2165 0
-2245 -2335 2166 0
-2245 -2336 2167 0
-2245 -2337 2168 0
-2245 -2338 2169 0
-2245 -2339 2170 0
-2245 -2340 2171 0
-2245 -2341 2172 0
-2245 -2342 2173 0
-2245 -2343 2174 0
-2245 -2344 2175 0
-2245 -2345 2176 0
-2245 -2346 2177 0
-2245 -2347 2178 0
-2245 -2348 2179 0
-2245 -2349 2180 0
-2245 -2350 2181 0
-2245 -2351 2182 0
-2245 -2352 2183 0
-2245 -2353 2184 0
-2245 -2354 2185 0
-2245 -2355 2186 0
-2245 -2356 2187 0
-2246 -2299 2131 0
-2246 -2300 2132 0
-2246 -2301 2133 0
-2246 -2302 2134 0
-2246 -2303 2135 0
-2246 -2304 2136 0
-2246 -2305 2137 0
-2246 -2306 2138 0
-2246 -2307 2139 0
-2246 -2308 2140 0
-2246 -2309 2141 0
-2246 -2310 2142 0
-2246 -2311 2143 0
-2246 -2312 2144 0
-2246 -2313 2145 0
-2246 -2314 2146 0
-2246 -2315 2147 0
-2246 -2316 2148 0
-2246 -2317 2149 0
-2246 -2318 2150 0
-2246 -2319 2151 0
-2246 -2320 2152 0
-2246 -2321 2153 0
-2246 -2322 2154 0
-2246 -2323 2155 0
-2246 -2324 2156 0
-2246 -2325 2157 0
-2246 -2326 2158 0
-2246 -2327 2159 0
-2246 -2328 2160 0
-2246 -2329 2161 0
-2246 -2330 2162 0
-2246 -2331 2163 0
-2246 -2332 2164 0
-2246 -2333 2165 0
-2246 -2334 2166 0
-2246 -2335 2167 0
-2246 -2336 2168 0
-2246 -2337 2169 0
-2246 -2338 2170 0
-2246 -2339 2171 0
-2246 -2340 2172 0
-2246 -2341 2173 0
-2246 -2342 2174 0
-2246 -2343 2175 0
-2246 -2344 2176 0
-2246 -2345 2177 0
-2246 -2346 2178 0
-2246 -2347 2179 0
-2246 -2348 2180 0
-2246 -2349 2181 0
-2246 -2350 2182 0
-2246 -2351 2183 0
-2246 -2352 2184 0
-2246 -2353 2185 0
-2246 -2354 2186 0
-2246 -2355 2187 0
-2246 -2356 2188 0
-2247 -2299 2132 0
-2247 -2300 2133 0
-2247 -2301 2134 0
-2247 -2302 2135 0
-2247 -2303 2136 0
-2247 -2304 2137 0
-2247 -2305 2138 0
-2247 -2306 2139 0
-2247 -2307 2140 0
-2247 -2308 2141 0
-2247 -2309 2142 0
-2247 -2310 2143 0
-2247 -2311 2144 0
-2247 -2312 2145 0
-2247 -2313 2146 0
-2247 -2314 2147 0
-2247 -2315 2148 0
-2247 -2316 2149 0
-2247 -2317 2150 0
-2247 -2318 2151 0
-2247 -2319 2152 0
-2247 -2320 2153 0
-2247 -2321 2154 0
-2247 -2322 2155 0
-2247 -2323 2156 0
-2247 -2324 2157 0
-2247 -2325 2158 0
-2247 -2326 2159 0
-2247 -2327 2160 0
-2247 -2328 2161 0
-2247 -2329 2162 0
-2247 -2330 2163 0
-2247 -2331 2164 0
-2247 -2332 2165 0
-2247 -2333 2166 0
-2247 -2334 2167 0
-2247 -2335 2168 0
-2247 -2336 2169 0
-2247 -2337 2170 0
-2247 -2338 2171 0
-2247 -2339 2172 0
-2247 -2340 2173 0
-2247 -2341 2174 0
-2247 -2342 2175 0
-2247 -2343 2176 0
-2247 -2344 2177 0
-2247 -2345 2178 0
-2247 -2346 2179 0
-2247 -2347 2180 0
-2247 -2348 2181 0
-2247 -2349 2182 0
-2247 -2350 2183 0
-2247 -2351 2184 0
-2247 -2352 2185 0
-2247 -2353 2186 0
-2247 -2354 2187 0
-2247 -2355 2188 0
-2247 -2356 2189 0
-2248 -2299 2133 0
-2248 -2300 2134 0
-2248 -2301 2135 0
-2248 -2302 2136 0
-2248 -2303 2137 0
-2248 -2304 2138 0
-2248 -2305 2139 0
-2248 -2306 2140 0
-2248 -2307 2141 0
-2248 -2308 2142 0
-2248 -2309 2143 0
-2248 -2310 2144 0
-2248 -2311 2145 0
-2248 -2312 2146 0
-2248 -2313 2147 0
-2248 -2314 2148 0
-2248 -2315 2149 0
-2248 -2316 2150 0
-2248 -2317 2151 0
-2248 -2318 2152 0
-2248 -2319 2153 0
-2248 -2320 2154 0
-2248 -2321 2155 0
-2248 -2322 2156 0
-2248 -2323 2157 0
-2248 -2324 2158 0
-2248 -2325 2159 0
-2248 -2326 2160 0
-2248 -2327 2161 0
-2248 -2328 2162 0
-2248 -2329 2163 0
-2248 -2330 2164 0
-2248 -2331 2165 0
-2248 -2332 2166 0
-2248 -2333 2167 0
-2248 -2334 2168 0
-2248 -2335 2169 0
-2248 -2336 2170 0
-2248 -2337 2171 0
-2248 -2338 2172 0
-2248 -2339 2173 0
-2248 -2340 2174 0
-2248 -2341 2175 0
-2248 -2342 2176 0
-2248 -2343 2177 0
-2248 -2344 2178 0
-2248 -2345 2179 0
-2248 -2346 2180 0
-2248 -2347 2181 0
-2248 -2348 2182 0
-2248 -2349 2183 0
-2248 -2350 2184 0
-2248 -2351 2185 0
-2248 -2352 2186 0
-2248 -2353 2187 0
-2248 -2354 2188 0
-2248 -2355 2189 0
-2248 -2356 2190 0
-2249 -2299 2134 0
-2249 -2300 2135 0
-2249 -2301 2136 0
-2249 -2302 2137 0
-2249 -2303 2138 0
-2249 -2304 2139 0
-2249 -2305 2140 0
-2249 -2306 2141 0
-2249 -2307 2142 0
-2249 -2308 2143 0
-2249 -2309 2144 0
-2249 -2310 2145 0
-2249 -2311 2146 0
-2249 -2312 2147 0
-2249 -2313 2148 0
-2249 -2314 2149 0
-2249 -2315 2150 0
-2249 -2316 2151 0
-2249 -2317 2152 0
-2249 -2318 2153 0
-2249 -2319 2154 0
-2249 -2320 2155 0
-2249 -2321 2156 0
-2249 -2322 2157 0
-2249 -2323 2158 0
-2249 -2324 2159 0
-2249 -2325 2160 0
-2249 -2326 2161 0
-2249 -2327 2162 0
-2249 -2328 2163 0
-2249 -2329 2164 0
-2249 -2330 2165 0
-2249 -2331 2166 0
-2249 -2332 2167 0
-2249 -2333 2168 0
-2249 -2334 2169 0
-2249 -2335 2170 0
-2249 -2336 2171 0
-2249 -2337 2172 0
-2249 -2338 2173 0
-2249 -2339 2174 0
-2249 -2340 2175 0
-2249 -2341 2176 0
-2249 -2342 2177 0
-2249 -2343 2178 0
-2249 -2344 2179 0
-2249 -2345 2180 0
-2249 -2346 2181 0
-2249 -2347 2182 0
-2249 -2348 2183 0
-2249 -2349 2184 0
-2249 -2350 2185 0
-2249 -2351 2186 0
-2249 -2352 2187 0
-2249 -2353 2188 0
-2249 -2354 2189 0
-2249 -2355 2190 0
-2249 -2356 2191 0
-2250 -2299 2135 0
-2250 -2300 2136 0
-2250 -2301 2137 0
-2250 -2302 2138 0
-2250 -2303 2139 0
-2250 -2304 2140 0
-2250 -2305 2141 0
-2250 -2306 2142 0
-2250 -2307 2143 0
-2250 -2308 2144 0
-2250 -2309 2145 0
-2250 -2310 2146 0
-2250 -2311 2147 0
-2250 -2312 2148 0
-2250 -2313 2149 0
-2250 -2314 2150 0
-2250 -2315 2151 0
-2250 -2316 2152 0
-2250 -2317 2153 0
-2250 -2318 2154 0
-2250 -2319 2155 0
-2250 -2320 2156 0
-2250 -2321 2157 0
-2250 -2322 2158 0
-2250 -2323 2159 0
-2250 -2324 2160 0
-2250 -2325 2161 0
-2250 -2326 2162 0
-2250 -2327 2163 0
-2250 -2328 2164 0
-2250 -2329 2165 0
-2250 -2330 2166 0
-2250 -2331 2167 0
-2250 -2332 2168 0
-2250 -2333 2169 0
-2250 -2334 2170 0
-2250 -2335 2171 0
-2250 -2336 2172 0
-2250 -2337 2173 0
-2250 -2338 2174 0
-2250 -2339 2175 0
-2250 -2340 2176 0
-2250 -2341 2177 0
-2250 -2342 2178 0
-2250 -2343 2179 0
-2250 -2344 2180 0
-2250 -2345 2181 0
-2250 -2346 2182 0
-2250 -2347 2183 0
-2250 -2348 2184 0
-2250 -2349 2185 0
-2250 -2350 2186 0
-2250 -2351 2187 0
-2250 -2352 2188 0
-2250 -2353 2189 0
-2250 -2354 2190 0
-2250 -2355 2191 0
-2250 -2356 2192 0
-2251 -2299 2136 0
-2251 -2300 2137 0
-2251 -2301 2138 0
-2251 -2302 2139 0
-2251 -2303 2140 0
-2251 -2304 2141 0
-2251 -2305 2142 0
-2251 -2306 2143 0
-2251 -2307 2144 0
-2251 -2308 2145 0
-2251 -2309 2146 0
-2251 -2310 2147 0
-2251 -2311 2148 0
-2251 -2312 2149 0
-2251 -2313 2150 0
-2251 -2314 2151 0
-2251 -2315 2152 0
-2251 -2316 2153 0
-2251 -2317 2154 0
-2251 -2318 2155 0
-2251 -2319 2156 0
-2251 -2320 2157 0
-2251 -2321 2158 0
-2251 -2322 2159 0
-2251 -2323 2160 0
-2251 -2324 2161 0
-2251 -2325 2162 0
-2251 -2326 2163 0
-2251 -2327 2164 0
-2251 -2328 2165 0
-2251 -2329 2166 0
-2251 -2330 2167 0
-2251 -2331 2168 0
-2251 -2332 2169 0
-2251 -2333 2170 0
-2251 -2334 2171 0
-2251 -2335 2172 0
-2251 -2336 2173 0
-2251 -2337 2174 0
-2251 -2338 2175 0
-2251 -2339 2176 0
-2251 -2340 2177 0
-2251 -2341 2178 0
-2251 -2342 2179 0
-2251 -2343 2180 0
-2251 -2344 2181 0
-2251 -2345 2182 0
-2251 -2346 2183 0
-2251 -2347 2184 0
-2251 -2348 2185 0
-2251 -2349 2186 0
-2251 -2350 2187 0
-2251 -2351 2188 0
-2251 -2352 2189 0
-2251 -2353 2190 0
-2251 -2354 2191 0
-2251 -2355 2192 0
-2251 -2356 2193 0
-2252 -2299 2137 0
-2252 -2300 2138 0
-2252 -2301 2139 0
-2252 -2302 2140 0
-2252 -2303 2141 0
-2252 -2304 2142 0
-2252 -2305 2143 0
-2252 -2306 2144 0
-2252 -2307 2145 0
-2252 -2308 2146 0
-2252 -2309 2147 0
-2252 -2310 2148 0
-2252 -2311 2149 0
-2252 -2312 2150 0
-2252 -2313 2151 0
-2252 -2314 2152 0
-2252 -2315 2153 0
-2252 -2316 2154 0
-2252 -2317 2155 0
-2252 -2318 2156 0
-2252 -2319 2157 0
-2252 -2320 2158 0
-2252 -2321 2159 0
-2252 -2322 2160 0
-2252 -2323 2161 0
-2252 -2324 2162 0
-2252 -2325 2163 0
-2252 -2326 2164 0
-2252 -2327 2165 0
-2252 -2328 2166 0
-2252 -2329 2167 0
-2252 -2330 2168 0
-2252 -2331 2169 0
-2252 -2332 2170 0
-2252 -2333 2171 0
-2252 -2334 2172 0
-2252 -2335 2173 0
-2252 -2336 2174 0
-2252 -2337 2175 0
-2252 -2338 2176 0
-2252 -2339 2177 0
-2252 -2340 2178 0
-2252 -2341 2179 0
-2252 -2342 2180 0
-2252 -2343 2181 0
-2252 -2344 2182 0
-2252 -2345 2183 0
-2252 -2346 2184 0
-2252 -2347 2185 0
-2252 -2348 2186 0
-2252 -2349 2187 0
-2252 -2350 2188 0
-2252 -2351 2189 0
-2252 -2352 2190 0
-2252 -2353 2191 0
-2252 -2354 2192 0
-2252 -2355 2193 0
-2252 -2356 2194 0
-2253 -2299 2138 0
-2253 -2300 2139 0
-2253 -2301 2140 0
-2253 -2302 2141 0
-2253 -2303 2142 0
-2253 -2304 2143 0
-2253 -2305 2144 0
-2253 -2306 2145 0
-2253 -2307 2146 0
-2253 -2308 2147 0
-2253 -2309 2148 0
-2253 -2310 2149 0
-2253 -2311 2150 0
-2253 -2312 2151 0
-2253 -2313 2152 0
-2253 -2314 2153 0
-2253 -2315 2154 0
-2253 -2316 2155 0
-2253 -2317 2156 0
-2253 -2318 2157 0
-2253 -2319 2158 0
-2253 -2320 2159 0
-2253 -2321 2160 0
-2253 -2322 2161 0
-2253 -2323 2162 0
-2253 -2324 2163 0
-2253 -2325 2164 0
-2253 -2326 2165 0
-2253 -2327 2166 0
-2253 -2328 2167 0
-2253 -2329 2168 0
-2253 -2330 2169 0
-2253 -2331 2170 0
-2253 -2332 2171 0
-2253 -2333 2172 0
-2253 -2334 2173 0
-2253 -2335 2174 0
-2253 -2336 2175 0
-2253 -2337 2176 0
-2253 -2338 2177 0
-2253 -2339 2178 0
-2253 -2340 2179 0
-2253 -2341 2180 0
-2253 -2342 2181 0
-2253 -2343 2182 0
-2253 -2344 2183 0
-2253 -2345 2184 0
-2253 -2346 2185 0
-2253 -2347 2186 0
-2253 -2348 2187 0
-2253 -2349 2188 0
-2253 -2350 2189 0
-2253 -2351 2190 0
-2253 -2352 2191 0
-2253 -2353 2192 0
-2253 -2354 2193 0
-2253 -2355 2194 0
-2253 -2356 2195 0
-2254 -2299 2139 0
-2254 -2300 2140 0
-2254 -2301 2141 0
-2254 -2302 2142 0
-2254 -2303 2143 0
-2254 -2304 2144 0
-2254 -2305 2145 0
-2254 -2306 2146 0
-2254 -2307 2147 0
-2254 -2308 2148 0
-2254 -2309 2149 0
-2254 -2310 2150 0
-2254 -2311 2151 0
-2254 -2312 2152 0
-2254 -2313 2153 0
-2254 -2314 2154 0
-2254 -2315 2155 0
-2254 -2316 2156 0
-2254 -2317 2157 0
-2254 -2318 2158 0
-2254 -2319 2159 0
-2254 -2320 2160 0
-2254 -2321 2161 0
-2254 -2322 2162 0
-2254 -2323 2163 0
-2254 -2324 2164 0
-2254 -2325 2165 0
-2254 -2326 2166 0
-2254 -2327 2167 0
-2254 -2328 2168 0
-2254 -2329 2169 0
-2254 -2330 2170 0
-2254 -2331 2171 0
-2254 -2332 2172 0
-2254 -2333 2173 0
-2254 -2334 2174 0
-2254 -2335 2175 0
-2254 -2336 2176 0
-2254 -2337 2177 0
-2254 -2338 2178 0
-2254 -2339 2179 0
-2254 -2340 2180 0
-2254 -2341 2181 0
-2254 -2342 2182 0
-2254 -2343 2183 0
-2254 -2344 2184 0
-2254 -2345 2185 0
-2254 -2346 2186 0
-2254 -2347 2187 0
-2254 -2348 2188 0
-2254 -2349 2189 0
-2254 -2350 2190 0
-2254 -2351 2191 0
-2254 -2352 2192 0
-2254 -2353 2193 0
-2254 -2354 2194 0
-2254 -2355 2195 0
-2254 -2356 2196 0
-2255 -2299 2140 0
-2255 -2300 2141 0
-2255 -2301 2142 0
-2255 -2302 2143 0
-2255 -2303 2144 0
-2255 -2304 2145 0
-2255 -2305 2146 0
-2255 -2306 2147 0
-2255 -2307 2148 0
-2255 -2308 2149 0
-2255 -2309 2150 0
-2255 -2310 2151 0
-2255 -2311 2152 0
-2255 -2312 2153 0
-2255 -2313 2154 0
-2255 -2314 2155 0
-2255 -2315 2156 0
-2255 -2316 2157 0
-2255 -2317 2158 0
-2255 -2318 2159 0
-2255 -2319 2160 0
-2255 -2320 2161 0
-2255 -2321 2162 0
-2255 -2322 2163 0
-2255 -2323 2164 0
-2255 -2324 2165 0
-2255 -2325 2166 0
-2255 -2326 2167 0
-2255 -2327 2168 0
-2255 -2328 2169 0
-2255 -2329 2170 0
-2255 -2330 2171 0
-2255 -2331 2172 0
-2255 -2332 2173 0
-2255 -2333 2174 0
-2255 -2334 2175 0
-2255 -2335 2176 0
-2255 -2336 2177 0
-2255 -2337 2178 0
-2255 -2338 2179 0
-2255 -2339 2180 0
-2255 -2340 2181 0
-2255 -2341 2182 0
-2255 -2342 2183 0
-2255 -2343 2184 0
-2255 -2344 2185 0
-2255 -2345 2186 0
-2255 -2346 2187 0
-2255 -2347 2188 0
-2255 -2348 2189 0
-2255 -2349 2190 0
-2255 -2350 2191 0
-2255 -2351 2192 0
-2255 -2352 2193 0
-2255 -2353 2194 0
-2255 -2354 2195 0
-2255 -2355 2196 0
-2255 -2356 2197 0
-2256 -2299 2141 0
-2256 -2300 2142 0
-2256 -2301 2143 0
-2256 -2302 2144 0
-2256 -2303 2145 0
-2256 -2304 2146 0
-2256 -2305 2147 0
-2256 -2306 2148 0
-2256 -2307 2149 0
-2256 -2308 2150 0
-2256 -2309 2151 0
-2256 -2310 2152 0
-2256 -2311 2153 0
-2256 -2312 2154 0
-2256 -2313 2155 0
-2256 -2314 2156 0
-2256 -2315 2157 0
-2256 -2316 2158 0
-2256 -2317 2159 0
-2256 -2318 2160 0
-2256 -2319 2161 0
-2256 -2320 2162 0
-2256 -2321 2163 0
-2256 -2322 2164 0
-2256 -2323 2165 0
-2256 -2324 2166 0
-2256 -2325 2167 0
-2256 -2326 2168 0
-2256 -2327 2169 0
-2256 -2328 2170 0
-2256 -2329 2171 0
-2256 -2330 2172 0
-2256 -2331 2173 0
-2256 -2332 2174 0
-2256 -2333 2175 0
-2256 -2334 2176 0
-2256 -2335 2177 0
-2256 -2336 2178 0
-2256 -2337 2179 0
-2256 -2338 2180 0
-2256 -2339 2181 0
-2256 -2340 2182 0
-2256 -2341 2183 0
-2256 -2342 2184 0
-2256 -2343 2185 0
-2256 -2344 2186 0
-2256 -2345 2187 0
-2256 -2346 2188 0
-2256 -2347 2189 0
-2256 -2348 2190 0
-2256 -2349 2191 0
-2256 -2350 2192 0
-2256 -2351 2193 0
-2256 -2352 2194 0
-2256 -2353 2195 0
-2256 -2354 2196 0
-2256 -2355 2197 0
-2256 -2356 2198 0
-2257 -2299 2142 0
-2257 -2300 2143 0
-2257 -2301 2144 0
-2257 -2302 2145 0
-2257 -2303 2146 0
-2257 -2304 2147 0
-2257 -2305 2148 0
-2257 -2306 2149 0
-2257 -2307 2150 0
-2257 -2308 2151 0
-2257 -2309 2152 0
-2257 -2310 2153 0
-2257 -2311 2154 0
-2257 -2312 2155 0
-2257 -2313 2156 0
-2257 -2314 2157 0
-2257 -2315 2158 0
-2257 -2316 2159 0
-2257 -2317 2160 0
-2257 -2318 2161 0
-2257 -2319 2162 0
-2257 -2320 2163 0
-2257 -2321 2164 0
-2257 -2322 2165 0
-2257 -2323 2166 0
-2257 -2324 2167 0
-2257 -2325 2168 0
-2257 -2326 2169 0
-2257 -2327 2170 0
-2257 -2328 2171 0
-2257 -2329 2172 0
-2257 -2330 2173 0
-2257 -2331 2174 0
-2257 -2332 2175 0
-2257 -2333 2176 0
-2257 -2334 2177 0
-2257 -2335 2178 0
-2257 -2336 2179 0
-2257 -2337 2180 0
-2257 -2338 2181 0
-2257 -2339 2182 0
-2257 -2340 2183 0
-2257 -2341 2184 0
-2257 -2342 2185 0
-2257 -2343 2186 0
-2257 -2344 2187 0
-2257 -2345 2188 0
-2257 -2346 2189 0
-2257 -2347 2190 0
-2257 -2348 2191 0
-2257 -2349 2192 0
-2257 -2350 2193 0
-2257 -2351 2194 0
-2257 -2352 2195 0
-2257 -2353 2196 0
-2257 -2354 2197 0
-2257 -2355 2198 0
-2257 -2356 2199 0
-2258 -2299 2143 0
-2258 -2300 2144 0
-2258 -2301 2145 0
-2258 -2302 2146 0
-2258 -2303 2147 0
-2258 -2304 2148 0
-2258 -2305 2149 0
-2258 -2306 2150 0
-2258 -2307 2151 0
-2258 -2308 2152 0
-2258 -2309 2153 0
-2258 -2310 2154 0
-2258 -2311 2155 0
-2258 -2312 2156 0
-2258 -2313 2157 0
-2258 -2314 2158 0
-2258 -2315 2159 0
-2258 -2316 2160 0
-2258 -2317 2161 0
-2258 -2318 2162 0
-2258 -2319 2163 0
-2258 -2320 2164 0
-2258 -2321 2165 0
-2258 -2322 2166 0
-2258 -2323 2167 0
-2258 -2324 2168 0
-2258 -2325 2169 0
-2258 -2326 2170 0
-2258 -2327 2171 0
-2258 -2328 2172 0
-2258 -2329 2173 0
-2258 -2330 2174 0
-2258 -2331 2175 0
-2258 -2332 2176 0
-2258 -2333 2177 0
-2258 -2334 2178 0
-2258 -2335 2179 0
-2258 -2336 2180 0
-2258 -2337 2181 0
-2258 -2338 2182 0
-2258 -2339 2183 0
-2258 -2340 2184 0
-2258 -2341 2185 0
-2258 -2342 2186 0
-2258 -2343 2187 0
-2258 -2344 2188 0
-2258 -2345 2189 0
-2258 -2346 2190 0
-2258 -2347 2191 0
-2258 -2348 2192 0
-2258 -2349 2193 0
-2258 -2350 2194 0
-2258 -2351 2195 0
-2258 -2352 2196 0
-2258 -2353 2197 0
-2258 -2354 2198 0
-2258 -2355 2199 0
-2258 -2356 2200 0
-2259 -2299 2144 0
-2259 -2300 2145 0
-2259 -2301 2146 0
-2259 -2302 2147 0
-2259 -2303 2148 0
-2259 -2304 2149 0
-2259 -2305 2150 0
-2259 -2306 2151 0
-2259 -2307 2152 0
-2259 -2308 2153 0
-2259 -2309 2154 0
-2259 -2310 2155 0
-2259 -2311 2156 0
-2259 -2312 2157 0
-2259 -2313 2158 0
-2259 -2314 2159 0
-2259 -2315 2160 0
-2259 -2316 2161 0
-2259 -2317 2162 0
-2259 -2318 2163 0
-2259 -2319 2164 0
-2259 -2320 2165 0
-2259 -2321 2166 0
-2259 -2322 2167 0
-2259 -2323 2168 0
-2259 -2324 2169 0
-2259 -2325 2170 0
-2259 -2326 2171 0
-2259 -2327 2172 0
-2259 -2328 2173 0
-2259 -2329 2174 0
-2259 -2330 2175 0
-2259 -2331 2176 0
-2259 -2332 2177 0
-2259 -2333 2178 0
-2259 -2334 2179 0
-2259 -2335 2180 0
-2259 -2336 2181 0
-2259 -2337 2182 0
-2259 -2338 2183 0
-2259 -2339 2184 0
-2259 -2340 2185 0
-2259 -2341 2186 0
-2259 -2342 2187 0
-2259 -2343 2188 0
-2259 -2344 2189 0
-2259 -2345 2190 0
-2259 -2346 2191 0
-2259 -2347 2192 0
-2259 -2348 2193 0
-2259 -2349 2194 0
-2259 -2350 2195 0
-2259 -2351 2196 0
-2259 -2352 2197 0
-2259 -2353 2198 0
-2259 -2354 2199 0
-2259 -2355 2200 0
-2259 -2356 2201 0
-2260 -2299 2145 0
-2260 -2300 2146 0
-2260 -2301 2147 0
-2260 -2302 2148 0
-2260 -2303 2149 0
-2260 -2304 2150 0
-2260 -2305 2151 0
-2260 -2306 2152 0
-2260 -2307 2153 0
-2260 -2308 2154 0
-2260 -2309 2155 0
-2260 -2310 2156 0
-2260 -2311 2157 0
-2260 -2312 2158 0
-2260 -2313 2159 0
-2260 -2314 2160 0
-2260 -2315 2161 0
-2260 -2316 2162 0
-2260 -2317 2163 0
-2260 -2318 2164 0
-2260 -2319 2165 0
-2260 -2320 2166 0
-2260 -2321 2167 0
-2260 -2322 2168 0
-2260 -2323 2169 0
-2260 -2324 2170 0
-2260 -2325 2171 0
-2260 -2326 2172 0
-2260 -2327 2173 0
-2260 -2328 2174 0
-2260 -2329 2175 0
-2260 -2330 2176 0
-2260 -2331 2177 0
-2260 -2332 2178 0
-2260 -2333 2179 0
-2260 -2334 2180 0
-2260 -2335 2181 0
-2260 -2336 2182 0
-2260 -2337 2183 0
-2260 -2338 2184 0
-2260 -2339 2185 0
-2260 -2340 2186 0
-2260 -2341 2187 0
-2260 -2342 2188 0
-2260 -2343 2189 0
-2260 -2344 2190 0
-2260 -2345 2191 0
-2260 -2346 2192 0
-2260 -2347 2193 0
-2260 -2348 2194 0
-2260 -2349 2195 0
-2260 -2350 2196 0
-2260 -2351 2197 0
-2260 -2352 2198 0
-2260 -2353 2199 0
-2260 -2354 2200 0
-2260 -2355 2201 0
-2260 -2356 2202 0
-2261 -2299 2146 0
-2261 -2300 2147 0
-2261 -2301 2148 0
-2261 -2302 2149 0
-2261 -2303 2150 0
-2261 -2304 2151 0
-2261 -2305 2152 0
-2261 -2306 2153 0
-2261 -2307 2154 0
-2261 -2308 2155 0
-2261 -2309 2156 0
-2261 -2310 2157 0
-2261 -2311 2158 0
-2261 -2312 2159 0
-2261 -2313 2160 0
-2261 -2314 2161 0
-2261 -2315 2162 0
-2261 -2316 2163 0
-2261 -2317 2164 0
-2261 -2318 2165 0
-2261 -2319 2166 0
-2261 -2320 2167 0
-2261 -2321 2168 0
-2261 -2322 2169 0
-2261 -2323 2170 0
-2261 -2324 2171 0
-2261 -2325 2172 0
-2261 -2326 2173 0
-2261 -2327 2174 0
-2261 -2328 2175 0
-2261 -2329 2176 0
-2261 -2330 2177 0
-2261 -2331 2178 0
-2261 -2332 2179 0
-2261 -2333 2180 0
-2261 -2334 2181 0
-2261 -2335 2182 0
-2261 -2336 2183 0
-2261 -2337 2184 0
-2261 -2338 2185 0
-2261 -2339 2186 0
-2261 -2340 2187 0
-2261 -2341 2188 0
-2261 -2342 2189 0
-2261 -2343 2190 0
-2261 -2344 2191 0
-2261 -2345 2192 0
-2261 -2346 2193 0
-2261 -2347 2194 0
-2261 -2348 2195 0
-2261 -2349 2196 0
-2261 -2350 2197 0
-2261 -2351 2198 0
-2261 -2352 2199 0
-2261 -2353 2200 0
-2261 -2354 2201 0
-2261 -2355 2202 0
-2261 -2356 2203 0
-2262 -2299 2147 0
-2262 -2300 2148 0
-2262 -2301 2149 0
-2262 -2302 2150 0
-2262 -2303 2151 0
-2262 -2304 2152 0
-2262 -2305 2153 0
-2262 -2306 2154 0
-2262 -2307 2155 0
-2262 -2308 2156 0
-2262 -2309 2157 0
-2262 -2310 2158 0
-2262 -2311 2159 0
-2262 -2312 2160 0
-2262 -2313 2161 0
-2262 -2314 2162 0
-2262 -2315 2163 0
-2262 -2316 2164 0
-2262 -2317 2165 0
-2262 -2318 2166 0
-2262 -2319 2167 0
-2262 -2320 2168 0
-2262 -2321 2169 0
-2262 -2322 2170 0
-2262 -2323 2171 0
-2262 -2324 2172 0
-2262 -2325 2173 0
-2262 -2326 2174 0
-2262 -2327 2175 0
-2262 -2328 2176 0
-2262 -2329 2177 0
-2262 -2330 2178 0
-2262 -2331 2179 0
-2262 -2332 2180 0
-2262 -2333 2181 0
-2262 -2334 2182 0
-2262 -2335 2183 0
-2262 -2336 2184 0
-2262 -2337 2185 0
-2262 -2338 2186 0
-2262 -2339 2187 0
-2262 -2340 2188 0
-2262 -2341 2189 0
-2262 -2342 2190 0
-2262 -2343 2191 0
-2262 -2344 2192 0
-2262 -2345 2193 0
-2262 -2346 2194 0
-2262 -2347 2195 0
-2262 -2348 2196 0
-2262 -2349 2197 0
-2262 -2350 2198 0
-2262 -2351 2199 0
-2262 -2352 2200 0
-2262 -2353 2201 0
-2262 -2354 2202 0
-2262 -2355 2203 0
-2262 -2356 2204 0
-2263 -2299 2148 0
-2263 -2300 2149 0
-2263 -2301 2150 0
-2263 -2302 2151 0
-2263 -2303 2152 0
-2263 -2304 2153 0
-2263 -2305 2154 0
-2263 -2306 2155 0
-2263 -2307 2156 0
-2263 -2308 2157 0
-2263 -2309 2158 0
-2263 -2310 2159 0
-2263 -2311 2160 0
-2263 -2312 2161 0
-2263 -2313 2162 0
-2263 -2314 2163 0
-2263 -2315 2164 0
-2263 -2316 2165 0
-2263 -2317 2166 0
-2263 -2318 2167 0
-2263 -2319 2168 0
-2263 -2320 2169 0
-2263 -2321 2170 0
-2263 -2322 2171 0
-2263 -2323 2172 0
-2263 -2324 2173 0
-2263 -2325 2174 0
-2263 -2326 2175 0
-2263 -2327 2176 0
-2263 -2328 2177 0
-2263 -2329 2178 0
-2263 -2330 2179 0
-2263 -2331 2180 0
-2263 -2332 2181 0
-2263 -2333 2182 0
-2263 -2334 2183 0
-2263 -2335 2184 0
-2263 -2336 2185 0
-2263 -2337 2186 0
-2263 -2338 2187 0
-2263 -2339 2188 0
-2263 -2340 2189 0
-2263 -2341 2190 0
-2263 -2342 2191 0
-2263 -2343 2192 0
-2263 -2344 2193 0
-2263 -2345 2194 0
-2263 -2346 2195 0
-2263 -2347 2196 0
-2263 -2348 2197 0
-2263 -2349 2198 0
-2263 -2350 2199 0
-2263 -2351 2200 0
-2263 -2352 2201 0
-2263 -2353 2202 0
-2263 -2354 2203 0
-2263 -2355 2204 0
-2263 -2356 2205 0
-2264 -2299 2149 0
-2264 -2300 2150 0
-2264 -2301 2151 0
-2264 -2302 2152 0
-2264 -2303 2153 0
-2264 -2304 2154 0
-2264 -2305 2155 0
-2264 -2306 2156 0
-2264 -2307 2157 0
-2264 -2308 2158 0
-2264 -2309 2159 0
-2264 -2310 2160 0
-2264 -2311 2161 0
-2264 -2312 2162 0
-2264 -2313 2163 0
-2264 -2314 2164 0
-2264 -2315 2165 0
-2264 -2316 2166 0
-2264 -2317 2167 0
-2264 -2318 2168 0
-2264 -2319 2169 0
-2264 -2320 2170 0
-2264 -2321 2171 0
-2264 -2322 2172 0
-2264 -2323 2173 0
-2264 -2324 2174 0
-2264 -2325 2175 0
-2264 -2326 2176 0
-2264 -2327 2177 0
-2264 -2328 2178 0
-2264 -2329 2179 0
-2264 -2330 2180 0
-2264 -2331 2181 0
-2264 -2332 2182 0
-2264 -2333 2183 0
-2264 -2334 2184 0
-2264 -2335 2185 0
-2264 -2336 2186 0
-2264 -2337 2187 0
-2264 -2338 2188 0
-2264 -2339 2189 0
-2264 -2340 2190 0
-2264 -2341 2191 0
-2264 -2342 2192 0
-2264 -2343 2193 0
-2264 -2344 2194 0
-2264 -2345 2195 0
-2264 -2346 2196 0
-2264 -2347 2197 0
-2264 -2348 2198 0
-2264 -2349 2199 0
-2264 -2350 2200 0
-2264 -2351 2201 0
-2264 -2352 2202 0
-2264 -2353 2203 0
-2264 -2354 2204 0
-2264 -2355 2205 0
-2264 -2356 2206 0
-2265 -2299 2150 0
-2265 -2300 2151 0
-2265 -2301 2152 0
-2265 -2302 2153 0
-2265 -2303 2154 0
-2265 -2304 2155 0
-2265 -2305 2156 0
-2265 -2306 2157 0
-2265 -2307 2158 0
-2265 -2308 2159 0
-2265 -2309 2160 0
-2265 -2310 2161 0
-2265 -2311 2162 0
-2265 -2312 2163 0
-2265 -2313 2164 0
-2265 -2314 2165 0
-2265 -2315 2166 0
-2265 -2316 2167 0
-2265 -2317 2168 0
-2265 -2318 2169 0
-2265 -2319 2170 0
-2265 -2320 2171 0
-2265 -2321 2172 0
-2265 -2322 2173 0
-2265 -2323 2174 0
-2265 -2324 2175 0
-2265 -2325 2176 0
-2265 -2326 2177 0
-2265 -2327 2178 0
-2265 -2328 2179 0
-2265 -2329 2180 0
-2265 -2330 2181 0
-2265 -2331 2182 0
-2265 -2332 2183 0
-2265 -2333 2184 0
-2265 -2334 2185 0
-2265 -2335 2186 0
-2265 -2336 2187 0
-2265 -2337 2188 0
-2265 -2338 2189 0
-2265 -2339 2190 0
-2265 -2340 2191 0
-2265 -2341 2192 0
-2265 -2342 2193 0
-2265 -2343 2194 0
-2265 -2344 2195 0
-2265 -2345 2196 0
-2265 -2346 2197 0
-2265 -2347 2198 0
-2265 -2348 2199 0
-2265 -2349 2200 0
-2265 -2350 2201 0
-2265 -2351 2202 0
-2265 -2352 2203 0
-2265 -2353 2204 0
-2265 -2354 2205 0
-2265 -2355 2206 0
-2265 -2356 2207 0
-2266 -2299 2151 0
-2266 -2300 2152 0
-2266 -2301 2153 0
-2266 -2302 2154 0
-2266 -2303 2155 0
-2266 -2304 2156 0
-2266 -2305 2157 0
-2266 -2306 2158 0
-2266 -2307 2159 0
-2266 -2308 2160 0
-2266 -2309 2161 0
-2266 -2310 2162 0
-2266 -2311 2163 0
-2266 -2312 2164 0
-2266 -2313 2165 0
-2266 -2314 2166 0
-2266 -2315 2167 0
-2266 -2316 2168 0
-2266 -2317 2169 0
-2266 -2318 2170 0
-2266 -2319 2171 0
-2266 -2320 2172 0
-2266 -2321 2173 0
-2266 -2322 2174 0
-2266 -2323 2175 0
-2266 -2324 2176 0
-2266 -2325 2177 0
-2266 -2326 2178 0
-2266 -2327 2179 0
-2266 -2328 2180 0
-2266 -2329 2181 0
-2266 -2330 2182 0
-2266 -2331 2183 0
-2266 -2332 2184 0
-2266 -2333 2185 0
-2266 -2334 2186 0
-2266 -2335 2187 0
-2266 -2336 2188 0
-2266 -2337 2189 0
-2266 -2338 2190 0
-2266 -2339 2191 0
-2266 -2340 2192 0
-2266 -2341 2193 0
-2266 -2342 2194 0
-2266 -2343 2195 0
-2266 -2344 2196 0
-2266 -2345 2197 0
-2266 -2346 2198 0
-2266 -2347 2199 0
-2266 -2348 2200 0
-2266 -2349 2201 0
-2266 -2350 2202 0
-2266 -2351 2203 0
-2266 -2352 2204 0
-2266 -2353 2205 0
-2266 -2354 2206 0
-2266 -2355 2207 0
-2266 -2356 2208 0
-2267 -2299 2152 0
-2267 -2300 2153 0
-2267 -2301 2154 0
-2267 -2302 2155 0
-2267 -2303 2156 0
-2267 -2304 2157 0
-2267 -2305 2158 0
-2267 -2306 2159 0
-2267 -2307 2160 0
-2267 -2308 2161 0
-2267 -2309 2162 0
-2267 -2310 2163 0
-2267 -2311 2164 0
-2267 -2312 2165 0
-2267 -2313 2166 0
-2267 -2314 2167 0
-2267 -2315 2168 0
-2267 -2316 2169 0
-2267 -2317 2170 0
-2267 -2318 2171 0
-2267 -2319 2172 0
-2267 -2320 2173 0
-2267 -2321 2174 0
-2267 -2322 2175 0
-2267 -2323 2176 0
-2267 -2324 2177 0
-2267 -2325 2178 0
-2267 -2326 2179 0
-2267 -2327 2180 0
-2267 -2328 2181 0
-2267 -2329 2182 0
-2267 -2330 2183 0
-2267 -2331 2184 0
-2267 -2332 2185 0
-2267 -2333 2186 0
-2267 -2334 2187 0
-2267 -2335 2188 0
-2267 -2336 2189 0
-2267 -2337 2190 0
-2267 -2338 2191 0
-2267 -2339 2192 0
-2267 -2340 2193 0
-2267 -2341 2194 0
-2267 -2342 2195 0
-2267 -2343 2196 0
-2267 -2344 2197 0
-2267 -2345 2198 0
-2267 -2346 2199 0
-2267 -2347 2200 0
-2267 -2348 2201 0
-2267 -2349 2202 0
-2267 -2350 2203 0
-2267 -2351 2204 0
-2267 -2352 2205 0
-2267 -2353 2206 0
-2267 -2354 2207 0
-2267 -2355 2208 0
-2267 -2356 2209 0
-2268 -2299 2153 0
-2268 -2300 2154 0
-2268 -2301 2155 0
-2268 -2302 2156 0
-2268 -2303 2157 0
-2268 -2304 2158 0
-2268 -2305 2159 0
-2268 -2306 2160 0
-2268 -2307 2161 0
-2268 -2308 2162 0
-2268 -2309 2163 0
-2268 -2310 2164 0
-2268 -2311 2165 0
-2268 -2312 2166 0
-2268 -2313 2167 0
-2268 -2314 2168 0
-2268 -2315 2169 0
-2268 -2316 2170 0
-2268 -2317 2171 0
-2268 -2318 2172 0
-2268 -2319 2173 0
-2268 -2320 2174 0
-2268 -2321 2175 0
-2268 -2322 2176 0
-2268 -2323 2177 0
-2268 -2324 2178 0
-2268 -2325 2179 0
-2268 -2326 2180 0
-2268 -2327 2181 0
-2268 -2328 2182 0
-2268 -2329 2183 0
-2268 -2330 2184 0
-2268 -2331 2185 0
-2268 -2332 2186 0
-2268 -2333 2187 0
-2268 -2334 2188 0
-2268 -2335 2189 0
-2268 -2336 2190 0
-2268 -2337 2191 0
-2268 -2338 2192 0
-2268 -2339 2193 0
-2268 -2340 2194 0
-2268 -2341 2195 0
-2268 -2342 2196 0
-2268 -2343 2197 0
-2268 -2344 2198 0
-2268 -2345 2199 0
-2268 -2346 2200 0
-2268 -2347 2201 0
-2268 -2348 2202 0
-2268 -2349 2203 0
-2268 -2350 2204 0
-2268 -2351 2205 0
-2268 -2352 2206 0
-2268 -2353 2207 0
-2268 -2354 2208 0
-2268 -2355 2209 0
-2268 -2356 2210 0
-2269 -2299 2154 0
-2269 -2300 2155 0
-2269 -2301 2156 0
-2269 -2302 2157 0
-2269 -2303 2158 0
-2269 -2304 2159 0
-2269 -2305 2160 0
-2269 -2306 2161 0
-2269 -2307 2162 0
-2269 -2308 2163 0
-2269 -2309 2164 0
-2269 -2310 2165 0
-2269 -2311 2166 0
-2269 -2312 2167 0
-2269 -2313 2168 0
-2269 -2314 2169 0
-2269 -2315 2170 0
-2269 -2316 2171 0
-2269 -2317 2172 0
-2269 -2318 2173 0
-2269 -2319 2174 0
-2269 -2320 2175 0
-2269 -2321 2176 0
-2269 -2322 2177 0
-2269 -2323 2178 0
-2269 -2324 2179 0
-2269 -2325 2180 0
-2269 -2326 2181 0
-2269 -2327 2182 0
-2269 -2328 2183 0
-2269 -2329 2184 0
-2269 -2330 2185 0
-2269 -2331 2186 0
-2269 -2332 2187 0
-2269 -2333 2188 0
-2269 -2334 2189 0
-2269 -2335 2190 0
-2269 -2336 2191 0
-2269 -2337 2192 0
-2269 -2338 2193 0
-2269 -2339 2194 0
-2269 -2340 2195 0
-2269 -2341 2196 0
-2269 -2342 2197 0
-2269 -2343 2198 0
-2269 -2344 2199 0
-2269 -2345 2200 0
-2269 -2346 2201 0
-2269 -2347 2202 0
-2269 -2348 2203 0
-2269 -2349 2204 0
-2269 -2350 2205 0
-2269 -2351 2206 0
-2269 -2352 2207 0
-2269 -2353 2208 0
-2269 -2354 2209 0
-2269 -2355 2210 0
-2269 -2356 2211 0
-2270 -2299 2155 0
-2270 -2300 2156 0
-2270 -2301 2157 0
-2270 -2302 2158 0
-2270 -2303 2159 0
-2270 -2304 2160 0
-2270 -2305 2161 0
-2270 -2306 2162 0
-2270 -2307 2163 0
-2270 -2308 2164 0
-2270 -2309 2165 0
-2270 -2310 2166 0
-2270 -2311 2167 0
-2270 -2312 2168 0
-2270 -2313 2169 0
-2270 -2314 2170 0
-2270 -2315 2171 0
-2270 -2316 2172 0
-2270 -2317 2173 0
-2270 -2318 2174 0
-2270 -2319 2175 0
-2270 -2320 2176 0
-2270 -2321 2177 0
-2270 -2322 2178 0
-2270 -2323 2179 0
-2270 -2324 2180 0
-2270 -2325 2181 0
-2270 -2326 2182 0
-2270 -2327 2183 0
-2270 -2328 2184 0
-2270 -2329 2185 0
-2270 -2330 2186 0
-2270 -2331 2187 0
-2270 -2332 2188 0
-2270 -2333 2189 0
-2270 -2334 2190 0
-2270 -2335 2191 0
-2270 -2336 2192 0
-2270 -2337 2193 0
-2270 -2338 2194 0
-2270 -2339 2195 0
-2270 -2340 2196 0
-2270 -2341 2197 0
-2270 -2342 2198 0
-2270 -2343 2199 0
-2270 -2344 2200 0
-2270 -2345 2201 0
-2270 -2346 2202 0
-2270 -2347 2203 0
-2270 -2348 2204 0
-2270 -2349 2205 0
-2270 -2350 2206 0
-2270 -2351 2207 0
-2270 -2352 2208 0
-2270 -2353 2209 0
-2270 -2354 2210 0
-2270 -2355 2211 0
-2270 -2356 2212 0
-2271 -2299 2156 0
-2271 -2300 2157 0
-2271 -2301 2158 0
-2271 -2302 2159 0
-2271 -2303 2160 0
-2271 -2304 2161 0
-2271 -2305 2162 0
-2271 -2306 2163 0
-2271 -2307 2164 0
-2271 -2308 2165 0
-2271 -2309 2166 0
-2271 -2310 2167 0
-2271 -2311 2168 0
-2271 -2312 2169 0
-2271 -2313 2170 0
-2271 -2314 2171 0
-2271 -2315 2172 0
-2271 -2316 2173 0
-2271 -2317 2174 0
-2271 -2318 2175 0
-2271 -2319 2176 0
-2271 -2320 2177 0
-2271 -2321 2178 0
-2271 -2322 2179 0
-2271 -2323 2180 0
-2271 -2324 2181 0
-2271 -2325 2182 0
-2271 -2326 2183 0
-2271 -2327 2184 0
-2271 -2328 2185 0
-2271 -2329 2186 0
-2271 -2330 2187 0
-2271 -2331 2188 0
-2271 -2332 2189 0
-2271 -2333 2190 0
-2271 -2334 2191 0
-2271 -2335 2192 0
-2271 -2336 2193 0
-2271 -2337 2194 0
-2271 -2338 2195 0
-2271 -2339 2196 0
-2271 -2340 2197 0
-2271 -2341 2198 0
-2271 -2342 2199 0
-2271 -2343 2200 0
-2271 -2344 2201 0
-2271 -2345 2202 0
-2271 -2346 2203 0
-2271 -2347 2204 0
-2271 -2348 2205 0
-2271 -2349 2206 0
-2271 -2350 2207 0
-2271 -2351 2208 0
-2271 -2352 2209 0
-2271 -2353 2210 0
-2271 -2354 2211 0
-2271 -2355 2212 0
-2271 -2356 2213 0
-2272 -2299 2157 0
-2272 -2300 2158 0
-2272 -2301 2159 0
-2272 -2302 2160 0
-2272 -2303 2161 0
-2272 -2304 2162 0
-2272 -2305 2163 0
-2272 -2306 2164 0
-2272 -2307 2165 0
-2272 -2308 2166 0
-2272 -2309 2167 0
-2272 -2310 2168 0
-2272 -2311 2169 0
-2272 -2312 2170 0
-2272 -2313 2171 0
-2272 -2314 2172 0
-2272 -2315 2173 0
-2272 -2316 2174 0
-2272 -2317 2175 0
-2272 -2318 2176 0
-2272 -2319 2177 0
-2272 -2320 2178 0
-2272 -2321 2179 0
-2272 -2322 2180 0
-2272 -2323 2181 0
-2272 -2324 2182 0
-2272 -2325 2183 0
-2272 -2326 2184 0
-2272 -2327 2185 0
-2272 -2328 2186 0
-2272 -2329 2187 0
-2272 -2330 2188 0
-2272 -2331 2189 0
-2272 -2332 2190 0
-2272 -2333 2191 0
-2272 -2334 2192 0
-2272 -2335 2193 0
-2272 -2336 2194 0
-2272 -2337 2195 0
-2272 -2338 2196 0
-2272 -2339 2197 0
-2272 -2340 2198 0
-2272 -2341 2199 0
-2272 -2342 2200 0
-2272 -2343 2201 0
-2272 -2344 2202 0
-2272 -2345 2203 0
-2272 -2346 2204 0
-2272 -2347 2205 0
-2272 -2348 2206 0
-2272 -2349 2207 0
-2272 -2350 2208 0
-2272 -2351 2209 0
-2272 -2352 2210 0
-2272 -2353 2211 0
-2272 -2354 2212 0
-2272 -2355 2213 0
-2272 -2356 2214 0
-2273 -2299 2158 0
-2273 -2300 2159 0
-2273 -2301 2160 0
-2273 -2302 2161 0
-2273 -2303 2162 0
-2273 -2304 2163 0
-2273 -2305 2164 0
-2273 -2306 2165 0
-2273 -2307 2166 0
-2273 -2308 2167 0
-2273 -2309 2168 0
-2273 -2310 2169 0
-2273 -2311 2170 0
-2273 -2312 2171 0
-2273 -2313 2172 0
-2273 -2314 2173 0
-2273 -2315 2174 0
-2273 -2316 2175 0
-2273 -2317 2176 0
-2273 -2318 2177 0
-2273 -2319 2178 0
-2273 -2320 2179 0
-2273 -2321 2180 0
-2273 -2322 2181 0
-2273 -2323 2182 0
-2273 -2324 2183 0
-2273 -2325 2184 0
-2273 -2326 2185 0
-2273 -2327 2186 0
-2273 -2328 2187 0
-2273 -2329 2188 0
-2273 -2330 2189 0
-2273 -2331 2190 0
-2273 -2332 2191 0
-2273 -2333 2192 0
-2273 -2334 2193 0
-2273 -2335 2194 0
-2273 -2336 2195 0
-2273 -2337 2196 0
-2273 -2338 2197 0
-2273 -2339 2198 0
-2273 -2340 2199 0
-2273 -2341 2200 0
-2273 -2342 2201 0
-2273 -2343 2202 0
-2273 -2344 2203 0
-2273 -2345 2204 0
-2273 -2346 2205 0
-2273 -2347 2206 0
-2273 -2348 2207 0
-2273 -2349 2208 0
-2273 -2350 2209 0
-2273 -2351 2210 0
-2273 -2352 2211 0
-2273 -2353 2212 0
-2273 -2354 2213 0
-2273 -2355 2214 0
-2273 -2356 2215 0
-2274 -2299 2159 0
-2274 -2300 2160 0
-2274 -2301 2161 0
-2274 -2302 2162 0
-2274 -2303 2163 0
-2274 -2304 2164 0
-2274 -2305 2165 0
-2274 -2306 2166 0
-2274 -2307 2167 0
-2274 -2308 2168 0
-2274 -2309 2169 0
-2274 -2310 2170 0
-2274 -2311 2171 0
-2274 -2312 2172 0
-2274 -2313 2173 0
-2274 -2314 2174 0
-2274 -2315 2175 0
-2274 -2316 2176 0
-2274 -2317 2177 0
-2274 -2318 2178 0
-2274 -2319 2179 0
-2274 -2320 2180 0
-2274 -2321 2181 0
-2274 -2322 2182 0
-2274 -2323 2183 0
-2274 -2324 2184 0
-2274 -2325 2185 0
-2274 -2326 2186 0
-2274 -2327 2187 0
-2274 -2328 2188 0
-2274 -2329 2189 0
-2274 -2330 2190 0
-2274 -2331 2191 0
-2274 -2332 2192 0
-2274 -2333 2193 0
-2274 -2334 2194 0
-2274 -2335 2195 0
-2274 -2336 2196 0
-2274 -2337 2197 0
-2274 -2338 2198 0
-2274 -2339 2199 0
-2274 -2340 2200 0
-2274 -2341 2201 0
-2274 -2342 2202 0
-2274 -2343 2203 0
-2274 -2344 2204 0
-2274 -2345 2205 0
-2274 -2346 2206 0
-2274 -2347 2207 0
-2274 -2348 2208 0
-2274 -2349 2209 0
-2274 -2350 2210 0
-2274 -2351 2211 0
-2274 -2352 2212 0
-2274 -2353 2213 0
-2274 -2354 2214 0
-2274 -2355 2215 0
-2274 -2356 2216 0
-2275 -2299 2160 0
-2275 -2300 2161 0
-2275 -2301 2162 0
-2275 -2302 2163 0
-2275 -2303 2164 0
-2275 -2304 2165 0
-2275 -2305 2166 0
-2275 -2306 2167 0
-2275 -2307 2168 0
-2275 -2308 2169 0
-2275 -2309 2170 0
-2275 -2310 2171 0
-2275 -2311 2172 0
-2275 -2312 2173 0
-2275 -2313 2174 0
-2275 -2314 2175 0
-2275 -2315 2176 0
-2275 -2316 2177 0
-2275 -2317 2178 0
-2275 -2318 2179 0
-2275 -2319 2180 0
-2275 -2320 2181 0
-2275 -2321 2182 0
-2275 -2322 2183 0
-2275 -2323 2184 0
-2275 -2324 2185 0
-2275 -2325 2186 0
-2275 -2326 2187 0
-2275 -2327 2188 0
-2275 -2328 2189 0
-2275 -2329 2190 0
-2275 -2330 2191 0
-2275 -2331 2192 0
-2275 -2332 2193 0
-2275 -2333 2194 0
-2275 -2334 2195 0
-2275 -2335 2196 0
-2275 -2336 2197 0
-2275 -2337 2198 0
-2275 -2338 2199 0
-2275 -2339 2200 0
-2275 -2340 2201 0
-2275 -2341 2202 0
-2275 -2342 2203 0
-2275 -2343 2204 0
-2275 -2344 2205 0
-2275 -2345 2206 0
-2275 -2346 2207 0
-2275 -2347 2208 0
-2275 -2348 2209 0
-2275 -2349 2210 0
-2275 -2350 2211 0
-2275 -2351 2212 0
-2275 -2352 2213 0
-2275 -2353 2214 0
-2275 -2354 2215 0
-2275 -2355 2216 0
-2275 -2356 2217 0
-2276 -2299 2161 0
-2276 -2300 2162 0
-2276 -2301 2163 0
-2276 -2302 2164 0
-2276 -2303 2165 0
-2276 -2304 2166 0
-2276 -2305 2167 0
-2276 -2306 2168 0
-2276 -2307 2169 0
-2276 -2308 2170 0
-2276 -2309 2171 0
-2276 -2310 2172 0
-2276 -2311 2173 0
-2276 -2312 2174 0
-2276 -2313 2175 0
-2276 -2314 2176 0
-2276 -2315 2177 0
-2276 -2316 2178 0
-2276 -2317 2179 0
-2276 -2318 2180 0
-2276 -2319 2181 0
-2276 -2320 2182 0
-2276 -2321 2183 0
-2276 -2322 2184 0
-2276 -2323 2185 0
-2276 -2324 2186 0
-2276 -2325 2187 0
-2276 -2326 2188 0
-2276 -2327 2189 0
-2276 -2328 2190 0
-2276 -2329 2191 0
-2276 -2330 2192 0
-2276 -2331 2193 0
-2276 -2332 2194 0
-2276 -2333 2195 0
-2276 -2334 2196 0
-2276 -2335 2197 0
-2276 -2336 2198 0
-2276 -2337 2199 0
-2276 -2338 2200 0
-2276 -2339 2201 0
-2276 -2340 2202 0
-2276 -2341 2203 0
-2276 -2342 2204 0
-2276 -2343 2205 0
-2276 -2344 2206 0
-2276 -2345 2207 0
-2276 -2346 2208 0
-2276 -2347 2209 0
-2276 -2348 2210 0
-2276 -2349 2211 0
-2276 -2350 2212 0
-2276 -2351 2213 0
-2276 -2352 2214 0
-2276 -2353 2215 0
-2276 -2354 2216 0
-2276 -2355 2217 0
-2276 -2356 2218 0
-2277 -2299 2162 0
-2277 -2300 2163 0
-2277 -2301 2164 0
-2277 -2302 2165 0
-2277 -2303 2166 0
-2277 -2304 2167 0
-2277 -2305 2168 0
-2277 -2306 2169 0
-2277 -2307 2170 0
-2277 -2308 2171 0
-2277 -2309 2172 0
-2277 -2310 2173 0
-2277 -2311 2174 0
-2277 -2312 2175 0
-2277 -2313 2176 0
-2277 -2314 2177 0
-2277 -2315 2178 0
-2277 -2316 2179 0
-2277 -2317 2180 0
-2277 -2318 2181 0
-2277 -2319 2182 0
-2277 -2320 2183 0
-2277 -2321 2184 0
-2277 -2322 2185 0
-2277 -2323 2186 0
-2277 -2324 2187 0
-2277 -2325 2188 0
-2277 -2326 2189 0
-2277 -2327 2190 0
-2277 -2328 2191 0
-2277 -2329 2192 0
-2277 -2330 2193 0
-2277 -2331 2194 0
-2277 -2332 2195 0
-2277 -2333 2196 0
-2277 -2334 2197 0
-2277 -2335 2198 0
-2277 -2336 2199 0
-2277 -2337 2200 0
-2277 -2338 2201 0
-2277 -2339 2202 0
-2277 -2340 2203 0
-2277 -2341 2204 0
-2277 -2342 2205 0
-2277 -2343 2206 0
-2277 -2344 2207 0
-2277 -2345 2208 0
-2277 -2346 2209 0
-2277 -2347 2210 0
-2277 -2348 2211 0
-2277 -2349 2212 0
-2277 -2350 2213 0
-2277 -2351 2214 0
-2277 -2352 2215 0
-2277 -2353 2216 0
-2277 -2354 2217 0
-2277 -2355 2218 0
-2277 -2356 2219 0
-2278 -2299 2163 0
-2278 -2300 2164 0
-2278 -2301 2165 0
-2278 -2302 2166 0
-2278 -2303 2167 0
-2278 -2304 2168 0
-2278 -2305 2169 0
-2278 -2306 2170 0
-2278 -2307 2171 0
-2278 -2308 2172 0
-2278 -2309 2173 0
-2278 -2310 2174 0
-2278 -2311 2175 0
-2278 -2312 2176 0
-2278 -2313 2177 0
-2278 -2314 2178 0
-2278 -2315 2179 0
-2278 -2316 2180 0
-2278 -2317 2181 0
-2278 -2318 2182 0
-2278 -2319 2183 0
-2278 -2320 2184 0
-2278 -2321 2185 0
-2278 -2322 2186 0
-2278 -2323 2187 0
-2278 -2324 2188 0
-2278 -2325 2189 0
-2278 -2326 2190 0
-2278 -2327 2191 0
-2278 -2328 2192 0
-2278 -2329 2193 0
-2278 -2330 2194 0
-2278 -2331 2195 0
-2278 -2332 2196 0
-2278 -2333 2197 0
-2278 -2334 2198 0
-2278 -2335 2199 0
-2278 -2336 2200 0
-2278 -2337 2201 0
-2278 -2338 2202 0
-2278 -2339 2203 0
-2278 -2340 2204 0
-2278 -2341 2205 0
-2278 -2342 2206 0
-2278 -2343 2207 0
-2278 -2344 2208 0
-2278 -2345 2209 0
-2278 -2346 2210 0
-2278 -2347 2211 0
-2278 -2348 2212 0
-2278 -2349 2213 0
-2278 -2350 2214 0
-2278 -2351 2215 0
-2278 -2352 2216 0
-2278 -2353 2217 0
-2278 -2354 2218 0
-2278 -2355 2219 0
-2278 -2356 2220 0
-2279 -2299 2164 0
-2279 -2300 2165 0
-2279 -2301 2166 0
-2279 -2302 2167 0
-2279 -2303 2168 0
-2279 -2304 2169 0
-2279 -2305 2170 0
-2279 -2306 2171 0
-2279 -2307 2172 0
-2279 -2308 2173 0
-2279 -2309 2174 0
-2279 -2310 2175 0
-2279 -2311 2176 0
-2279 -2312 2177 0
-2279 -2313 2178 0
-2279 -2314 2179 0
-2279 -2315 2180 0
-2279 -2316 2181 0
-2279 -2317 2182 0
-2279 -2318 2183 0
-2279 -2319 2184 0
-2279 -2320 2185 0
-2279 -2321 2186 0
-2279 -2322 2187 0
-2279 -2323 2188 0
-2279 -2324 2189 0
-2279 -2325 2190 0
-2279 -2326 2191 0
-2279 -2327 2192 0
-2279 -2328 2193 0
-2279 -2329 2194 0
-2279 -2330 2195 0
-2279 -2331 2196 0
-2279 -2332 2197 0
-2279 -2333 2198 0
-2279 -2334 2199 0
-2279 -2335 2200 0
-2279 -2336 2201 0
-2279 -2337 2202 0
-2279 -2338 2203 0
-2279 -2339 2204 0
-2279 -2340 2205 0
-2279 -2341 2206 0
-2279 -2342 2207 0
-2279 -2343 2208 0
-2279 -2344 2209 0
-2279 -2345 2210 0
-2279 -2346 2211 0
-2279 -2347 2212 0
-2279 -2348 2213 0
-2279 -2349 2214 0
-2279 -2350 2215 0
-2279 -2351 2216 0
-2279 -2352 2217 0
-2279 -2353 2218 0
-2279 -2354 2219 0
-2279 -2355 2220 0
-2279 -2356 2221 0
-2280 -2299 2165 0
-2280 -2300 2166 0
-2280 -2301 2167 0
-2280 -2302 2168 0
-2280 -2303 2169 0
-2280 -2304 2170 0
-2280 -2305 2171 0
-2280 -2306 2172 0
-2280 -2307 2173 0
-2280 -2308 2174 0
-2280 -2309 2175 0
-2280 -2310 2176 0
-2280 -2311 2177 0
-2280 -2312 2178 0
-2280 -2313 2179 0
-2280 -2314 2180 0
-2280 -2315 2181 0
-2280 -2316 2182 0
-2280 -2317 2183 0
-2280 -2318 2184 0
-2280 -2319 2185 0
-2280 -2320 2186 0
-2280 -2321 2187 0
-2280 -2322 2188 0
-2280 -2323 2189 0
-2280 -2324 2190 0
-2280 -2325 2191 0
-2280 -2326 2192 0
-2280 -2327 2193 0
-2280 -2328 2194 0
-2280 -2329 2195 0
-2280 -2330 2196 0
-2280 -2331 2197 0
-2280 -2332 2198 0
-2280 -2333 2199 0
-2280 -2334 2200 0
-2280 -2335 2201 0
-2280 -2336 2202 0
-2280 -2337 2203 0
-2280 -2338 2204 0
-2280 -2339 2205 0
-2280 -2340 2206 0
-2280 -2341 2207 0
-2280 -2342 2208 0
-2280 -2343 2209 0
-2280 -2344 2210 0
-2280 -2345 2211 0
-2280 -2346 2212 0
-2280 -2347 2213 0
-2280 -2348 2214 0
-2280 -2349 2215 0
-2280 -2350 2216 0
-2280 -2351 2217 0
-2280 -2352 2218 0
-2280 -2353 2219 0
-2280 -2354 2220 0
-2280 -2355 2221 0
-2280 -2356 2222 0
-2281 -2299 2166 0
-2281 -2300 2167 0
-2281 -2301 2168 0
-2281 -2302 2169 0
-2281 -2303 2170 0
-2281 -2304 2171 0
-2281 -2305 2172 0
-2281 -2306 2173 0
-2281 -2307 2174 0
-2281 -2308 2175 0
-2281 -2309 2176 0
-2281 -2310 2177 0
-2281 -2311 2178 0
-2281 -2312 2179 0
-2281 -2313 2180 0
-2281 -2314 2181 0
-2281 -2315 2182 0
-2281 -2316 2183 0
-2281 -2317 2184 0
-2281 -2318 2185 0
-2281 -2319 2186 0
-2281 -2320 2187 0
-2281 -2321 2188 0
-2281 -2322 2189 0
-2281 -2323 2190 0
-2281 -2324 2191 0
-2281 -2325 2192 0
-2281 -2326 2193 0
-2281 -2327 2194 0
-2281 -2328 2195 0
-2281 -2329 2196 0
-2281 -2330 2197 0
-2281 -2331 2198 0
-2281 -2332 2199 0
-2281 -2333 2200 0
-2281 -2334 2201 0
-2281 -2335 2202 0
-2281 -2336 2203 0
-2281 -2337 2204 0
-2281 -2338 2205 0
-2281 -2339 2206 0
-2281 -2340 2207 0
-2281 -2341 2208 0
-2281 -2342 2209 0
-2281 -2343 2210 0
-2281 -2344 2211 0
-2281 -2345 2212 0
-2281 -2346 2213 0
-2281 -2347 2214 0
-2281 -2348 2215 0
-2281 -2349 2216 0
-2281 -2350 2217 0
-2281 -2351 2218 0
-2281 -2352 2219 0
-2281 -2353 2220 0
-2281 -2354 2221 0
-2281 -2355 2222 0
-2281 -2356 2223 0
-2282 -2299 2167 0
-2282 -2300 2168 0
-2282 -2301 2169 0
-2282 -2302 2170 0
-2282 -2303 2171 0
-2282 -2304 2172 0
-2282 -2305 2173 0
-2282 -2306 2174 0
-2282 -2307 2175 0
-2282 -2308 2176 0
-2282 -2309 2177 0
-2282 -2310 2178 0
-2282 -2311 2179 0
-2282 -2312 2180 0
-2282 -2313 2181 0
-2282 -2314 2182 0
-2282 -2315 2183 0
-2282 -2316 2184 0
-2282 -2317 2185 0
-2282 -2318 2186 0
-2282 -2319 2187 0
-2282 -2320 2188 0
-2282 -2321 2189 0
-2282 -2322 2190 0
-2282 -2323 2191 0
-2282 -2324 2192 0
-2282 -2325 2193 0
-2282 -2326 2194 0
-2282 -2327 2195 0
-2282 -2328 2196 0
-2282 -2329 2197 0
-2282 -2330 2198 0
-2282 -2331 2199 0
-2282 -2332 2200 0
-2282 -2333 2201 0
-2282 -2334 2202 0
-2282 -2335 2203 0
-2282 -2336 2204 0
-2282 -2337 2205 0
-2282 -2338 2206 0
-2282 -2339 2207 0
-2282 -2340 2208 0
-2282 -2341 2209 0
-2282 -2342 2210 0
-2282 -2343 2211 0
-2282 -2344 2212 0
-2282 -2345 2213 0
-2282 -2346 2214 0
-2282 -2347 2215 0
-2282 -2348 2216 0
-2282 -2349 2217 0
-2282 -2350 2218 0
-2282 -2351 2219 0
-2282 -2352 2220 0
-2282 -2353 2221 0
-2282 -2354 2222 0
-2282 -2355 2223 0
-2282 -2356 2224 0
-2283 -2299 2168 0
-2283 -2300 2169 0
-2283 -2301 2170 0
-2283 -2302 2171 0
-2283 -2303 2172 0
-2283 -2304 2173 0
-2283 -2305 2174 0
-2283 -2306 2175 0
-2283 -2307 2176 0
-2283 -2308 2177 0
-2283 -2309 2178 0
-2283 -2310 2179 0
-2283 -2311 2180 0
-2283 -2312 2181 0
-2283 -2313 2182 0
-2283 -2314 2183 0
-2283 -2315 2184 0
-2283 -2316 2185 0
-2283 -2317 2186 0
-2283 -2318 2187 0
-2283 -2319 2188 0
-2283 -2320 2189 0
-2283 -2321 2190 0
-2283 -2322 2191 0
-2283 -2323 2192 0
-2283 -2324 2193 0
-2283 -2325 2194 0
-2283 -2326 2195 0
-2283 -2327 2196 0
-2283 -2328 2197 0
-2283 -2329 2198 0
-2283 -2330 2199 0
-2283 -2331 2200 0
-2283 -2332 2201 0
-2283 -2333 2202 0
-2283 -2334 2203 0
-2283 -2335 2204 0
-2283 -2336 2205 0
-2283 -2337 2206 0
-2283 -2338 2207 0
-2283 -2339 2208 0
-2283 -2340 2209 0
-2283 -2341 2210 0
-2283 -2342 2211 0
-2283 -2343 2212 0
-2283 -2344 2213 0
-2283 -2345 2214 0
-2283 -2346 2215 0
-2283 -2347 2216 0
-2283 -2348 2217 0
-2283 -2349 2218 0
-2283 -2350 2219 0
-2283 -2351 2220 0
-2283 -2352 2221 0
-2283 -2353 2222 0
-2283 -2354 2223 0
-2283 -2355 2224 0
-2283 -2356 2225 0
-2284 -2299 2169 0
-2284 -2300 2170 0
-2284 -2301 2171 0
-2284 -2302 2172 0
-2284 -2303 2173 0
-2284 -2304 2174 0
-2284 -2305 2175 0
-2284 -2306 2176 0
-2284 -2307 2177 0
-2284 -2308 2178 0
-2284 -2309 2179 0
-2284 -2310 2180 0
-2284 -2311 2181 0
-2284 -2312 2182 0
-2284 -2313 2183 0
-2284 -2314 2184 0
-2284 -2315 2185 0
-2284 -2316 2186 0
-2284 -2317 2187 0
-2284 -2318 2188 0
-2284 -2319 2189 0
-2284 -2320 2190 0
-2284 -2321 2191 0
-2284 -2322 2192 0
-2284 -2323 2193 0
-2284 -2324 2194 0
-2284 -2325 2195 0
-2284 -2326 2196 0
-2284 -2327 2197 0
-2284 -2328 2198 0
-2284 -2329 2199 0
-2284 -2330 2200 0
-2284 -2331 2201 0
-2284 -2332 2202 0
-2284 -2333 2203 0
-2284 -2334 2204 0
-2284 -2335 2205 0
-2284 -2336 2206 0
-2284 -2337 2207 0
-2284 -2338 2208 0
-2284 -2339 2209 0
-2284 -2340 2210 0
-2284 -2341 2211 0
-2284 -2342 2212 0
-2284 -2343 2213 0
-2284 -2344 2214 0
-2284 -2345 2215 0
-2284 -2346 2216 0
-2284 -2347 2217 0
-2284 -2348 2218 0
-2284 -2349 2219 0
-2284 -2350 2220 0
-2284 -2351 2221 0
-2284 -2352 2222 0
-2284 -2353 2223 0
-2284 -2354 2224 0
-2284 -2355 2225 0
-2284 -2356 2226 0
-2285 -2299 2170 0
-2285 -2300 2171 0
-2285 -2301 2172 0
-2285 -2302 2173 0
-2285 -2303 2174 0
-2285 -2304 2175 0
-2285 -2305 2176 0
-2285 -2306 2177 0
-2285 -2307 2178 0
-2285 -2308 2179 0
-2285 -2309 2180 0
-2285 -2310 2181 0
-2285 -2311 2182 0
-2285 -2312 2183 0
-2285 -2313 2184 0
-2285 -2314 2185 0
-2285 -2315 2186 0
-2285 -2316 2187 0
-2285 -2317 2188 0
-2285 -2318 2189 0
-2285 -2319 2190 0
-2285 -2320 2191 0
-2285 -2321 2192 0
-2285 -2322 2193 0
-2285 -2323 2194 0
-2285 -2324 2195 0
-2285 -2325 2196 0
-2285 -2326 2197 0
-2285 -2327 2198 0
-2285 -2328 2199 0
-2285 -2329 2200 0
-2285 -2330 2201 0
-2285 -2331 2202 0
-2285 -2332 2203 0
-2285 -2333 2204 0
-2285 -2334 2205 0
-2285 -2335 2206 0
-2285 -2336 2207 0
-2285 -2337 2208 0
-2285 -2338 2209 0
-2285 -2339 2210 0
-2285 -2340 2211 0
-2285 -2341 2212 0
-2285 -2342 2213 0
-2285 -2343 2214 0
-2285 -2344 2215 0
-2285 -2345 2216 0
-2285 -2346 2217 0
-2285 -2347 2218 0
-2285 -2348 2219 0
-2285 -2349 2220 0
-2285 -2350 2221 0
-2285 -2351 2222 0
-2285 -2352 2223 0
-2285 -2353 2224 0
-2285 -2354 2225 0
-2285 -2355 2226 0
-2285 -2356 2227 0
-2286 -2299 2171 0
-2286 -2300 2172 0
-2286 -2301 2173 0
-2286 -2302 2174 0
-2286 -2303 2175 0
-2286 -2304 2176 0
-2286 -2305 2177 0
-2286 -2306 2178 0
-2286 -2307 2179 0
-2286 -2308 2180 0
-2286 -2309 2181 0
-2286 -2310 2182 0
-2286 -2311 2183 0
-2286 -2312 2184 0
-2286 -2313 2185 0
-2286 -2314 2186 0
-2286 -2315 2187 0
-2286 -2316 2188 0
-2286 -2317 2189 0
-2286 -2318 2190 0
-2286 -2319 2191 0
-2286 -2320 2192 0
-2286 -2321 2193 0
-2286 -2322 2194 0
-2286 -2323 2195 0
-2286 -2324 2196 0
-2286 -2325 2197 0
-2286 -2326 2198 0
-2286 -2327 2199 0
-2286 -2328 2200 0
-2286 -2329 2201 0
-2286 -2330 2202 0
-2286 -2331 2203 0
-2286 -2332 2204 0
-2286 -2333 2205 0
-2286 -2334 2206 0
-2286 -2335 2207 0
-2286 -2336 2208 0
-2286 -2337 2209 0
-2286 -2338 2210 0
-2286 -2339 2211 0
-2286 -2340 2212 0
-2286 -2341 2213 0
-2286 -2342 2214 0
-2286 -2343 2215 0
-2286 -2344 2216 0
-2286 -2345 2217 0
-2286 -2346 2218 0
-2286 -2347 2219 0
-2286 -2348 2220 0
-2286 -2349 2221 0
-2286 -2350 2222 0
-2286 -2351 2223 0
-2286 -2352 2224 0
-2286 -2353 2225 0
-2286 -2354 2226 0
-2286 -2355 2227 0
-2286 -2356 2228 0
-2287 -2299 2172 0
-2287 -2300 2173 0
-2287 -2301 2174 0
-2287 -2302 2175 0
-2287 -2303 2176 0
-2287 -2304 2177 0
-2287 -2305 2178 0
-2287 -2306 2179 0
-2287 -2307 2180 0
-2287 -2308 2181 0
-2287 -2309 2182 0
-2287 -2310 2183 0
-2287 -2311 2184 0
-2287 -2312 2185 0
-2287 -2313 2186 0
-2287 -2314 2187 0
-2287 -2315 2188 0
-2287 -2316 2189 0
-2287 -2317 2190 0
-2287 -2318 2191 0
-2287 -2319 2192 0
-2287 -2320 2193 0
-2287 -2321 2194 0
-2287 -2322 2195 0
-2287 -2323 2196 0
-2287 -2324 2197 0
-2287 -2325 2198 0
-2287 -2326 2199 0
-2287 -2327 2200 0
-2287 -2328 2201 0
-2287 -2329 2202 0
-2287 -2330 2203 0
-2287 -2331 2204 0
-2287 -2332 2205 0
-2287 -2333 2206 0
-2287 -2334 2207 0
-2287 -2335 2208 0
-2287 -2336 2209 0
-2287 -2337 2210 0
-2287 -2338 2211 0
-2287 -2339 2212 0
-2287 -2340 2213 0
-2287 -2341 2214 0
-2287 -2342 2215 0
-2287 -2343 2216 0
-2287 -2344 2217 0
-2287 -2345 2218 0
-2287 -2346 2219 0
-2287 -2347 2220 0
-2287 -2348 2221 0
-2287 -2349 2222 0
-2287 -2350 2223 0
-2287 -2351 2224 0
-2287 -2352 2225 0
-2287 -2353 2226 0
-2287 -2354 2227 0
-2287 -2355 2228 0
-2287 -2356 2229 0
-2288 -2299 2173 0
-2288 -2300 2174 0
-2288 -2301 2175 0
-2288 -2302 2176 0
-2288 -2303 2177 0
-2288 -2304 2178 0
-2288 -2305 2179 0
-2288 -2306 2180 0
-2288 -2307 2181 0
-2288 -2308 2182 0
-2288 -2309 2183 0
-2288 -2310 2184 0
-2288 -2311 2185 0
-2288 -2312 2186 0
-2288 -2313 2187 0
-2288 -2314 2188 0
-2288 -2315 2189 0
-2288 -2316 2190 0
-2288 -2317 2191 0
-2288 -2318 2192 0
-2288 -2319 2193 0
-2288 -2320 2194 0
-2288 -2321 2195 0
-2288 -2322 2196 0
-2288 -2323 2197 0
-2288 -2324 2198 0
-2288 -2325 2199 0
-2288 -2326 2200 0
-2288 -2327 2201 0
-2288 -2328 2202 0
-2288 -2329 2203 0
-2288 -2330 2204 0
-2288 -2331 2205 0
-2288 -2332 2206 0
-2288 -2333 2207 0
-2288 -2334 2208 0
-2288 -2335 2209 0
-2288 -2336 2210 0
-2288 -2337 2211 0
-2288 -2338 2212 0
-2288 -2339 2213 0
-2288 -2340 2214 0
-2288 -2341 2215 0
-2288 -2342 2216 0
-2288 -2343 2217 0
-2288 -2344 2218 0
-2288 -2345 2219 0
-2288 -2346 2220 0
-2288 -2347 2221 0
-2288 -2348 2222 0
-2288 -2349 2223 0
-2288 -2350 2224 0
-2288 -2351 2225 0
-2288 -2352 2226 0
-2288 -2353 2227 0
-2288 -2354 2228 0
-2288 -2355 2229 0
-2288 -2356 2230 0
-2289 -2299 2174 0
-2289 -2300 2175 0
-2289 -2301 2176 0
-2289 -2302 2177 0
-2289 -2303 2178 0
-2289 -2304 2179 0
-2289 -2305 2180 0
-2289 -2306 2181 0
-2289 -2307 2182 0
-2289 -2308 2183 0
-2289 -2309 2184 0
-2289 -2310 2185 0
-2289 -2311 2186 0
-2289 -2312 2187 0
-2289 -2313 2188 0
-2289 -2314 2189 0
-2289 -2315 2190 0
-2289 -2316 2191 0
-2289 -2317 2192 0
-2289 -2318 2193 0
-2289 -2319 2194 0
-2289 -2320 2195 0
-2289 -2321 2196 0
-2289 -2322 2197 0
-2289 -2323 2198 0
-2289 -2324 2199 0
-2289 -2325 2200 0
-2289 -2326 2201 0
-2289 -2327 2202 0
-2289 -2328 2203 0
-2289 -2329 2204 0
-2289 -2330 2205 0
-2289 -2331 2206 0
-2289 -2332 2207 0
-2289 -2333 2208 0
-2289 -2334 2209 0
-2289 -2335 2210 0
-2289 -2336 2211 0
-2289 -2337 2212 0
-2289 -2338 2213 0
-2289 -2339 2214 0
-2289 -2340 2215 0
-2289 -2341 2216 0
-2289 -2342 2217 0
-2289 -2343 2218 0
-2289 -2344 2219 0
-2289 -2345 2220 0
-2289 -2346 2221 0
-2289 -2347 2222 0
-2289 -2348 2223 0
-2289 -2349 2224 0
-2289 -2350 2225 0
-2289 -2351 2226 0
-2289 -2352 2227 0
-2289 -2353 2228 0
-2289 -2354 2229 0
-2289 -2355 2230 0
-2289 -2356 2231 0
-2290 -2299 2175 0
-2290 -2300 2176 0
-2290 -2301 2177 0
-2290 -2302 2178 0
-2290 -2303 2179 0
-2290 -2304 2180 0
-2290 -2305 2181 0
-2290 -2306 2182 0
-2290 -2307 2183 0
-2290 -2308 2184 0
-2290 -2309 2185 0
-2290 -2310 2186 0
-2290 -2311 2187 0
-2290 -2312 2188 0
-2290 -2313 2189 0
-2290 -2314 2190 0
-2290 -2315 2191 0
-2290 -2316 2192 0
-2290 -2317 2193 0
-2290 -2318 2194 0
-2290 -2319 2195 0
-2290 -2320 2196 0
-2290 -2321 2197 0
-2290 -2322 2198 0
-2290 -2323 2199 0
-2290 -2324 2200 0
-2290 -2325 2201 0
-2290 -2326 2202 0
-2290 -2327 2203 0
-2290 -2328 2204 0
-2290 -2329 2205 0
-2290 -2330 2206 0
-2290 -2331 2207 0
-2290 -2332 2208 0
-2290 -2333 2209 0
-2290 -2334 2210 0
-2290 -2335 2211 0
-2290 -2336 2212 0
-2290 -2337 2213 0
-2290 -2338 2214 0
-2290 -2339 2215 0
-2290 -2340 2216 0
-2290 -2341 2217 0
-2290 -2342 2218 0
-2290 -2343 2219 0
-2290 -2344 2220 0
-2290 -2345 2221 0
-2290 -2346 2222 0
-2290 -2347 2223 0
-2290 -2348 2224 0
-2290 -2349 2225 0
-2290 -2350 2226 0
-2290 -2351 2227 0
-2290 -2352 2228 0
-2290 -2353 2229 0
-2290 -2354 2230 0
-2290 -2355 2231 0
-2290 -2356 2232 0
-2291 -2299 2176 0
-2291 -2300 2177 0
-2291 -2301 2178 0
-2291 -2302 2179 0
-2291 -2303 2180 0
-2291 -2304 2181 0
-2291 -2305 2182 0
-2291 -2306 2183 0
-2291 -2307 2184 0
-2291 -2308 2185 0
-2291 -2309 2186 0
-2291 -2310 2187 0
-2291 -2311 2188 0
-2291 -2312 2189 0
-2291 -2313 2190 0
-2291 -2314 2191 0
-2291 -2315 2192 0
-2291 -2316 2193 0
-2291 -2317 2194 0
-2291 -2318 2195 0
-2291 -2319 2196 0
-2291 -2320 2197 0
-2291 -2321 2198 0
-2291 -2322 2199 0
-2291 -2323 2200 0
-2291 -2324 2201 0
-2291 -2325 2202 0
-2291 -2326 2203 0
-2291 -2327 2204 0
-2291 -2328 2205 0
-2291 -2329 2206 0
-2291 -2330 2207 0
-2291 -2331 2208 0
-2291 -2332 2209 0
-2291 -2333 2210 0
-2291 -2334 2211 0
-2291 -2335 2212 0
-2291 -2336 2213 0
-2291 -2337 2214 0
-2291 -2338 2215 0
-2291 -2339 2216 0
-2291 -2340 2217 0
-2291 -2341 2218 0
-2291 -2342 2219 0
-2291 -2343 2220 0
-2291 -2344 2221 0
-2291 -2345 2222 0
-2291 -2346 2223 0
-2291 -2347 2224 0
-2291 -2348 2225 0
-2291 -2349 2226 0
-2291 -2350 2227 0
-2291 -2351 2228 0
-2291 -2352 2229 0
-2291 -2353 2230 0
-2291 -2354 2231 0
-2291 -2355 2232 0
-2291 -2356 2233 0
-2292 -2299 2177 0
-2292 -2300 2178 0
-2292 -2301 2179 0
-2292 -2302 2180 0
-2292 -2303 2181 0
-2292 -2304 2182 0
-2292 -2305 2183 0
-2292 -2306 2184 0
-2292 -2307 2185 0
-2292 -2308 2186 0
-2292 -2309 2187 0
-2292 -2310 2188 0
-2292 -2311 2189 0
-2292 -2312 2190 0
-2292 -2313 2191 0
-2292 -2314 2192 0
-2292 -2315 2193 0
-2292 -2316 2194 0
-2292 -2317 2195 0
-2292 -2318 2196 0
-2292 -2319 2197 0
-2292 -2320 2198 0
-2292 -2321 2199 0
-2292 -2322 2200 0
-2292 -2323 2201 0
-2292 -2324 2202 0
-2292 -2325 2203 0
-2292 -2326 2204 0
-2292 -2327 2205 0
-2292 -2328 2206 0
-2292 -2329 2207 0
-2292 -2330 2208 0
-2292 -2331 2209 0
-2292 -2332 2210 0
-2292 -2333 2211 0
-2292 -2334 2212 0
-2292 -2335 2213 0
-2292 -2336 2214 0
-2292 -2337 2215 0
-2292 -2338 2216 0
-2292 -2339 2217 0
-2292 -2340 2218 0
-2292 -2341 2219 0
-2292 -2342 2220 0
-2292 -2343 2221 0
-2292 -2344 2222 0
-2292 -2345 2223 0
-2292 -2346 2224 0
-2292 -2347 2225 0
-2292 -2348 2226 0
-2292 -2349 2227 0
-2292 -2350 2228 0
-2292 -2351 2229 0
-2292 -2352 2230 0
-2292 -2353 2231 0
-2292 -2354 2232 0
-2292 -2355 2233 0
-2292 -2356 2234 0
-2293 -2299 2178 0
-2293 -2300 2179 0
-2293 -2301 2180 0
-2293 -2302 2181 0
-2293 -2303 2182 0
-2293 -2304 2183 0
-2293 -2305 2184 0
-2293 -2306 2185 0
-2293 -2307 2186 0
-2293 -2308 2187 0
-2293 -2309 2188 0
-2293 -2310 2189 0
-2293 -2311 2190 0
-2293 -2312 2191 0
-2293 -2313 2192 0
-2293 -2314 2193 0
-2293 -2315 2194 0
-2293 -2316 2195 0
-2293 -2317 2196 0
-2293 -2318 2197 0
-2293 -2319 2198 0
-2293 -2320 2199 0
-2293 -2321 2200 0
-2293 -2322 2201 0
-2293 -2323 2202 0
-2293 -2324 2203 0
-2293 -2325 2204 0
-2293 -2326 2205 0
-2293 -2327 2206 0
-2293 -2328 2207 0
-2293 -2329 2208 0
-2293 -2330 2209 0
-2293 -2331 2210 0
-2293 -2332 2211 0
-2293 -2333 2212 0
-2293 -2334 2213 0
-2293 -2335 2214 0
-2293 -2336 2215 0
-2293 -2337 2216 0
-2293 -2338 2217 0
-2293 -2339 2218 0
-2293 -2340 2219 0
-2293 -2341 2220 0
-2293 -2342 2221 0
-2293 -2343 2222 0
-2293 -2344 2223 0
-2293 -2345 2224 0
-2293 -2346 2225 0
-2293 -2347 2226 0
-2293 -2348 2227 0
-2293 -2349 2228 0
-2293 -2350 2229 0
-2293 -2351 2230 0
-2293 -2352 2231 0
-2293 -2353 2232 0
-2293 -2354 2233 0
-2293 -2355 2234 0
-2293 -2356 2235 0
-2294 -2299 2179 0
-2294 -2300 2180 0
-2294 -2301 2181 0
-2294 -2302 2182 0
-2294 -2303 2183 0
-2294 -2304 2184 0
-2294 -2305 2185 0
-2294 -2306 2186 0
-2294 -2307 2187 0
-2294 -2308 2188 0
-2294 -2309 2189 0
-2294 -2310 2190 0
-2294 -2311 2191 0
-2294 -2312 2192 0
-2294 -2313 2193 0
-2294 -2314 2194 0
-2294 -2315 2195 0
-2294 -2316 2196 0
-2294 -2317 2197 0
-2294 -2318 2198 0
-2294 -2319 2199 0
-2294 -2320 2200 0
-2294 -2321 2201 0
-2294 -2322 2202 0
-2294 -2323 2203 0
-2294 -2324 2204 0
-2294 -2325 2205 0
-2294 -2326 2206 0
-2294 -2327 2207 0
-2294 -2328 2208 0
-2294 -2329 2209 0
-2294 -2330 2210 0
-2294 -2331 2211 0
-2294 -2332 2212 0
-2294 -2333 2213 0
-2294 -2334 2214 0
-2294 -2335 2215 0
-2294 -2336 2216 0
-2294 -2337 2217 0
-2294 -2338 2218 0
-2294 -2339 2219 0
-2294 -2340 2220 0
-2294 -2341 2221 0
-2294 -2342 2222 0
-2294 -2343 2223 0
-2294 -2344 2224 0
-2294 -2345 2225 0
-2294 -2346 2226 0
-2294 -2347 2227 0
-2294 -2348 2228 0
-2294 -2349 2229 0
-2294 -2350 2230 0
-2294 -2351 2231 0
-2294 -2352 2232 0
-2294 -2353 2233 0
-2294 -2354 2234 0
-2294 -2355 2235 0
-2294 -2356 2236 0
-2295 -2299 2180 0
-2295 -2300 2181 0
-2295 -2301 2182 0
-2295 -2302 2183 0
-2295 -2303 2184 0
-2295 -2304 2185 0
-2295 -2305 2186 0
-2295 -2306 2187 0
-2295 -2307 2188 0
-2295 -2308 2189 0
-2295 -2309 2190 0
-2295 -2310 2191 0
-2295 -2311 2192 0
-2295 -2312 2193 0
-2295 -2313 2194 0
-2295 -2314 2195 0
-2295 -2315 2196 0
-2295 -2316 2197 0
-2295 -2317 2198 0
-2295 -2318 2199 0
-2295 -2319 2200 0
-2295 -2320 2201 0
-2295 -2321 2202 0
-2295 -2322 2203 0
-2295 -2323 2204 0
-2295 -2324 2205 0
-2295 -2325 2206 0
-2295 -2326 2207 0
-2295 -2327 2208 0
-2295 -2328 2209 0
-2295 -2329 2210 0
-2295 -2330 2211 0
-2295 -2331 2212 0
-2295 -2332 2213 0
-2295 -2333 2214 0
-2295 -2334 2215 0
-2295 -2335 2216 0
-2295 -2336 2217 0
-2295 -2337 2218 0
-2295 -2338 2219 0
-2295 -2339 2220 0
-2295 -2340 2221 0
-2295 -2341 2222 0
-2295 -2342 2223 0
-2295 -2343 2224 0
-2295 -2344 2225 0
-2295 -2345 2226 0
-2295 -2346 2227 0
-2295 -2347 2228 0
-2295 -2348 2229 0
-2295 -2349 2230 0
-2295 -2350 2231 0
-2295 -2351 2232 0
-2295 -2352 2233 0
-2295 -2353 2234 0
-2295 -2354 2235 0
-2295 -2355 2236 0
-2295 -2356 2237 0
-2296 -2299 2181 0
-2296 -2300 2182 0
-2296 -2301 2183 0
-2296 -2302 2184 0
-2296 -2303 2185 0
-2296 -2304 2186 0
-2296 -2305 2187 0
-2296 -2306 2188 0
-2296 -2307 2189 0
-2296 -2308 2190 0
-2296 -2309 2191 0
-2296 -2310 2192 0
-2296 -2311 2193 0
-2296 -2312 2194 0
-2296 -2313 2195 0
-2296 -2314 2196 0
-2296 -2315 2197 0
-2296 -2316 2198 0
-2296 -2317 2199 0
-2296 -2318 2200 0
-2296 -2319 2201 0
-2296 -2320 2202 0
-2296 -2321 2203 0
-2296 -2322 2204 0
-2296 -2323 2205 0
-2296 -2324 2206 0
-2296 -2325 2207 0
-2296 -2326 2208 0
-2296 -2327 2209 0
-2296 -2328 2210 0
-2296 -2329 2211 0
-2296 -2330 2212 0
-2296 -2331 2213 0
-2296 -2332 2214 0
-2296 -2333 2215 0
-2296 -2334 2216 0
-2296 -2335 2217 0
-2296 -2336 2218 0
-2296 -2337 2219 0
-2296 -2338 2220 0
-2296 -2339 2221 0
-2296 -2340 2222 0
-2296 -2341 2223 0
-2296 -2342 2224 0
-2296 -2343 2225 0
-2296 -2344 2226 0
-2296 -2345 2227 0
-2296 -2346 2228 0
-2296 -2347 2229 0
-2296 -2348 2230 0
-2296 -2349 2231 0
-2296 -2350 2232 0
-2296 -2351 2233 0
-2296 -2352 2234 0
-2296 -2353 2235 0
-2296 -2354 2236 0
-2296 -2355 2237 0
-2296 -2356 2238 0
-2297 -2299 2182 0
-2297 -2300 2183 0
-2297 -2301 2184 0
-2297 -2302 2185 0
-2297 -2303 2186 0
-2297 -2304 2187 0
-2297 -2305 2188 0
-2297 -2306 2189 0
-2297 -2307 2190 0
-2297 -2308 2191 0
-2297 -2309 2192 0
-2297 -2310 2193 0
-2297 -2311 2194 0
-2297 -2312 2195 0
-2297 -2313 2196 0
-2297 -2314 2197 0
-2297 -2315 2198 0
-2297 -2316 2199 0
-2297 -2317 2200 0
-2297 -2318 2201 0
-2297 -2319 2202 0
-2297 -2320 2203 0
-2297 -2321 2204 0
-2297 -2322 2205 0
-2297 -2323 2206 0
-2297 -2324 2207 0
-2297 -2325 2208 0
-2297 -2326 2209 0
-2297 -2327 2210 0
-2297 -2328 2211 0
-2297 -2329 2212 0
-2297 -2330 2213 0
-2297 -2331 2214 0
-2297 -2332 2215 0
-2297 -2333 2216 0
-2297 -2334 2217 0
-2297 -2335 2218 0
-2297 -2336 2219 0
-2297 -2337 2220 0
-2297 -2338 2221 0
-2297 -2339 2222 0
-2297 -2340 2223 0
-2297 -2341 2224 0
-2297 -2342 2225 0
-2297 -2343 2226 0
-2297 -2344 2227 0
-2297 -2345 2228 0
-2297 -2346 2229 0
-2297 -2347 2230 0
-2297 -2348 2231 0
-2297 -2349 2232 0
-2297 -2350 2233 0
-2297 -2351 2234 0
-2297 -2352 2235 0
-2297 -2353 2236 0
-2297 -2354 2237 0
-2297 -2355 2238 0
-2297 -2356 2239 0
-2298 -2299 2183 0
-2298 -2300 2184 0
-2298 -2301 2185 0
-2298 -2302 2186 0
-2298 -2303 2187 0
-2298 -2304 2188 0
-2298 -2305 2189 0
-2298 -2306 2190 0
-2298 -2307 2191 0
-2298 -2308 2192 0
-2298 -2309 2193 0
-2298 -2310 2194 0
-2298 -2311 2195 0
-2298 -2312 2196 0
-2298 -2313 2197 0
-2298 -2314 2198 0
-2298 -2315 2199 0
-2298 -2316 2200 0
-2298 -2317 2201 0
-2298 -2318 2202 0
-2298 -2319 2203 0
-2298 -2320 2204 0
-2298 -2321 2205 0
-2298 -2322 2206 0
-2298 -2323 2207 0
-2298 -2324 2208 0
-2298 -2325 2209 0
-2298 -2326 2210 0
-2298 -2327 2211 0
-2298 -2328 2212 0
-2298 -2329 2213 0
-2298 -2330 2214 0
-2298 -2331 2215 0
-2298 -2332 2216 0
-2298 -2333 2217 0
-2298 -2334 2218 0
-2298 -2335 2219 0
-2298 -2336 2220 0
-2298 -2337 2221 0
-2298 -2338 2222 0
-2298 -2339 2223 0
-2298 -2340 2224 0
-2298 -2341 2225 0
-2298 -2342 2226 0
-2298 -2343 2227 0
-2298 -2344 2228 0
-2298 -2345 2229 0
-2298 -2346 2230 0
-2298 -2347 2231 0
-2298 -2348 2232 0
-2298 -2349 2233 0
-2298 -2350 2234 0
-2298 -2351 2235 0
-2298 -2352 2236 0
-2298 -2353 2237 0
-2298 -2354 2238 0
-2298 -2355 2239 0
-2298 -2356 2240 0
-2386 2299 0
-2387 2300 0
-2388 2301 0
-2389 2302 0
-2390 2303 0
-2391 2304 0
-2392 2305 0
-2393 2306 0
-2394 2307 0
-2395 2308 0
-2396 2309 0
-2397 2310 0
-2398 2311 0
-2399 2312 0
-2400 2313 0
-2401 2314 0
-2402 2315 0
-2403 2316 0
-2404 2317 0
-2405 2318 0
-2406 2319 0
-2407 2320 0
-2408 2321 0
-2409 2322 0
-2410 2323 0
-2411 2324 0
-2412 2325 0
-2413 2326 0
-2414 2327 0
-2357 2299 0
-2358 2300 0
-2359 2301 0
-2360 2302 0
-2361 2303 0
-2362 2304 0
-2363 2305 0
-2364 2306 0
-2365 2307 0
-2366 2308 0
-2367 2309 0
-2368 2310 0
-2369 2311 0
-2370 2312 0
-2371 2313 0
-2372 2314 0
-2373 2315 0
-2374 2316 0
-2375 2317 0
-2376 2318 0
-2377 2319 0
-2378 2320 0
-2379 2321 0
-2380 2322 0
-2381 2323 0
-2382 2324 0
-2383 2325 0
-2384 2326 0
-2385 2327 0
-2357 -2386 2300 0
-2357 -2387 2301 0
-2357 -2388 2302 0
-2357 -2389 2303 0
-2357 -2390 2304 0
-2357 -2391 2305 0
-2357 -2392 2306 0
-2357 -2393 2307 0
-2357 -2394 2308 0
-2357 -2395 2309 0
-2357 -2396 2310 0
-2357 -2397 2311 0
-2357 -2398 2312 0
-2357 -2399 2313 0
-2357 -2400 2314 0
-2357 -2401 2315 0
-2357 -2402 2316 0
-2357 -2403 2317 0
-2357 -2404 2318 0
-2357 -2405 2319 0
-2357 -2406 2320 0
-2357 -2407 2321 0
-2357 -2408 2322 0
-2357 -2409 2323 0
-2357 -2410 2324 0
-2357 -2411 2325 0
-2357 -2412 2326 0
-2357 -2413 2327 0
-2357 -2414 2328 0
-2358 -2386 2301 0
-2358 -2387 2302 0
-2358 -2388 2303 0
-2358 -2389 2304 0
-2358 -2390 2305 0
-2358 -2391 2306 0
-2358 -2392 2307 0
-2358 -2393 2308 0
-2358 -2394 2309 0
-2358 -2395 2310 0
-2358 -2396 2311 0
-2358 -2397 2312 0
-2358 -2398 2313 0
-2358 -2399 2314 0
-2358 -2400 2315 0
-2358 -2401 2316 0
-2358 -2402 2317 0
-2358 -2403 2318 0
-2358 -2404 2319 0
-2358 -2405 2320 0
-2358 -2406 2321 0
-2358 -2407 2322 0
-2358 -2408 2323 0
-2358 -2409 2324 0
-2358 -2410 2325 0
-2358 -2411 2326 0
-2358 -2412 2327 0
-2358 -2413 2328 0
-2358 -2414 2329 0
-2359 -2386 2302 0
-2359 -2387 2303 0
-2359 -2388 2304 0
-2359 -2389 2305 0
-2359 -2390 2306 0
-2359 -2391 2307 0
-2359 -2392 2308 0
-2359 -2393 2309 0
-2359 -2394 2310 0
-2359 -2395 2311 0
-2359 -2396 2312 0
-2359 -2397 2313 0
-2359 -2398 2314 0
-2359 -2399 2315 0
-2359 -2400 2316 0
-2359 -2401 2317 0
-2359 -2402 2318 0
-2359 -2403 2319 0
-2359 -2404 2320 0
-2359 -2405 2321 0
-2359 -2406 2322 0
-2359 -2407 2323 0
-2359 -2408 2324 0
-2359 -2409 2325 0
-2359 -2410 2326 0
-2359 -2411 2327 0
-2359 -2412 2328 0
-2359 -2413 2329 0
-2359 -2414 2330 0
-2360 -2386 2303 0
-2360 -2387 2304 0
-2360 -2388 2305 0
-2360 -2389 2306 0
-2360 -2390 2307 0
-2360 -2391 2308 0
-2360 -2392 2309 0
-2360 -2393 2310 0
-2360 -2394 2311 0
-2360 -2395 2312 0
-2360 -2396 2313 0
-2360 -2397 2314 0
-2360 -2398 2315 0
-2360 -2399 2316 0
-2360 -2400 2317 0
-2360 -2401 2318 0
-2360 -2402 2319 0
-2360 -2403 2320 0
-2360 -2404 2321 0
-2360 -2405 2322 0
-2360 -2406 2323 0
-2360 -2407 2324 0
-2360 -2408 2325 0
-2360 -2409 2326 0
-2360 -2410 2327 0
-2360 -2411 2328 0
-2360 -2412 2329 0
-2360 -2413 2330 0
-2360 -2414 2331 0
-2361 -2386 2304 0
-2361 -2387 2305 0
-2361 -2388 2306 0
-2361 -2389 2307 0
-2361 -2390 2308 0
-2361 -2391 2309 0
-2361 -2392 2310 0
-2361 -2393 2311 0
-2361 -2394 2312 0
-2361 -2395 2313 0
-2361 -2396 2314 0
-2361 -2397 2315 0
-2361 -2398 2316 0
-2361 -2399 2317 0
-2361 -2400 2318 0
-2361 -2401 2319 0
-2361 -2402 2320 0
-2361 -2403 2321 0
-2361 -2404 2322 0
-2361 -2405 2323 0
-2361 -2406 2324 0
-2361 -2407 2325 0
-2361 -2408 2326 0
-2361 -2409 2327 0
-2361 -2410 2328 0
-2361 -2411 2329 0
-2361 -2412 2330 0
-2361 -2413 2331 0
-2361 -2414 2332 0
-2362 -2386 2305 0
-2362 -2387 2306 0
-2362 -2388 2307 0
-2362 -2389 2308 0
-2362 -2390 2309 0
-2362 -2391 2310 0
-2362 -2392 2311 0
-2362 -2393 2312 0
-2362 -2394 2313 0
-2362 -2395 2314 0
-2362 -2396 2315 0
-2362 -2397 2316 0
-2362 -2398 2317 0
-2362 -2399 2318 0
-2362 -2400 2319 0
-2362 -2401 2320 0
-2362 -2402 2321 0
-2362 -2403 2322 0
-2362 -2404 2323 0
-2362 -2405 2324 0
-2362 -2406 2325 0
-2362 -2407 2326 0
-2362 -2408 2327 0
-2362 -2409 2328 0
-2362 -2410 2329 0
-2362 -2411 2330 0
-2362 -2412 2331 0
-2362 -2413 2332 0
-2362 -2414 2333 0
-2363 -2386 2306 0
-2363 -2387 2307 0
-2363 -2388 2308 0
-2363 -2389 2309 0
-2363 -2390 2310 0
-2363 -2391 2311 0
-2363 -2392 2312 0
-2363 -2393 2313 0
-2363 -2394 2314 0
-2363 -2395 2315 0
-2363 -2396 2316 0
-2363 -2397 2317 0
-2363 -2398 2318 0
-2363 -2399 2319 0
-2363 -2400 2320 0
-2363 -2401 2321 0
-2363 -2402 2322 0
-2363 -2403 2323 0
-2363 -2404 2324 0
-2363 -2405 2325 0
-2363 -2406 2326 0
-2363 -2407 2327 0
-2363 -2408 2328 0
-2363 -2409 2329 0
-2363 -2410 2330 0
-2363 -2411 2331 0
-2363 -2412 2332 0
-2363 -2413 2333 0
-2363 -2414 2334 0
-2364 -2386 2307 0
-2364 -2387 2308 0
-2364 -2388 2309 0
-2364 -2389 2310 0
-2364 -2390 2311 0
-2364 -2391 2312 0
-2364 -2392 2313 0
-2364 -2393 2314 0
-2364 -2394 2315 0
-2364 -2395 2316 0
-2364 -2396 2317 0
-2364 -2397 2318 0
-2364 -2398 2319 0
-2364 -2399 2320 0
-2364 -2400 2321 0
-2364 -2401 2322 0
-2364 -2402 2323 0
-2364 -2403 2324 0
-2364 -2404 2325 0
-2364 -2405 2326 0
-2364 -2406 2327 0
-2364 -2407 2328 0
-2364 -2408 2329 0
-2364 -2409 2330 0
-2364 -2410 2331 0
-2364 -2411 2332 0
-2364 -2412 2333 0
-2364 -2413 2334 0
-2364 -2414 2335 0
-2365 -2386 2308 0
-2365 -2387 2309 0
-2365 -2388 2310 0
-2365 -2389 2311 0
-2365 -2390 2312 0
-2365 -2391 2313 0
-2365 -2392 2314 0
-2365 -2393 2315 0
-2365 -2394 2316 0
-2365 -2395 2317 0
-2365 -2396 2318 0
-2365 -2397 2319 0
-2365 -2398 2320 0
-2365 -2399 2321 0
-2365 -2400 2322 0
-2365 -2401 2323 0
-2365 -2402 2324 0
-2365 -2403 2325 0
-2365 -2404 2326 0
-2365 -2405 2327 0
-2365 -2406 2328 0
-2365 -2407 2329 0
-2365 -2408 2330 0
-2365 -2409 2331 0
-2365 -2410 2332 0
-2365 -2411 2333 0
-2365 -2412 2334 0
-2365 -2413 2335 0
-2365 -2414 2336 0
-2366 -2386 2309 0
-2366 -2387 2310 0
-2366 -2388 2311 0
-2366 -2389 2312 0
-2366 -2390 2313 0
-2366 -2391 2314 0
-2366 -2392 2315 0
-2366 -2393 2316 0
-2366 -2394 2317 0
-2366 -2395 2318 0
-2366 -2396 2319 0
-2366 -2397 2320 0
-2366 -2398 2321 0
-2366 -2399 2322 0
-2366 -2400 2323 0
-2366 -2401 2324 0
-2366 -2402 2325 0
-2366 -2403 2326 0
-2366 -2404 2327 0
-2366 -2405 2328 0
-2366 -2406 2329 0
-2366 -2407 2330 0
-2366 -2408 2331 0
-2366 -2409 2332 0
-2366 -2410 2333 0
-2366 -2411 2334 0
-2366 -2412 2335 0
-2366 -2413 2336 0
-2366 -2414 2337 0
-2367 -2386 2310 0
-2367 -2387 2311 0
-2367 -2388 2312 0
-2367 -2389 2313 0
-2367 -2390 2314 0
-2367 -2391 2315 0
-2367 -2392 2316 0
-2367 -2393 2317 0
-2367 -2394 2318 0
-2367 -2395 2319 0
-2367 -2396 2320 0
-2367 -2397 2321 0
-2367 -2398 2322 0
-2367 -2399 2323 0
-2367 -2400 2324 0
-2367 -2401 2325 0
-2367 -2402 2326 0
-2367 -2403 2327 0
-2367 -2404 2328 0
-2367 -2405 2329 0
-2367 -2406 2330 0
-2367 -2407 2331 0
-2367 -2408 2332 0
-2367 -2409 2333 0
-2367 -2410 2334 0
-2367 -2411 2335 0
-2367 -2412 2336 0
-2367 -2413 2337 0
-2367 -2414 2338 0
-2368 -2386 2311 0
-2368 -2387 2312 0
-2368 -2388 2313 0
-2368 -2389 2314 0
-2368 -2390 2315 0
-2368 -2391 2316 0
-2368 -2392 2317 0
-2368 -2393 2318 0
-2368 -2394 2319 0
-2368 -2395 2320 0
-2368 -2396 2321 0
-2368 -2397 2322 0
-2368 -2398 2323 0
-2368 -2399 2324 0
-2368 -2400 2325 0
-2368 -2401 2326 0
-2368 -2402 2327 0
-2368 -2403 2328 0
-2368 -2404 2329 0
-2368 -2405 2330 0
-2368 -2406 2331 0
-2368 -2407 2332 0
-2368 -2408 2333 0
-2368 -2409 2334 0
-2368 -2410 2335 0
-2368 -2411 2336 0
-2368 -2412 2337 0
-2368 -2413 2338 0
-2368 -2414 2339 0
-2369 -2386 2312 0
-2369 -2387 2313 0
-2369 -2388 2314 0
-2369 -2389 2315 0
-2369 -2390 2316 0
-2369 -2391 2317 0
-2369 -2392 2318 0
-2369 -2393 2319 0
-2369 -2394 2320 0
-2369 -2395 2321 0
-2369 -2396 2322 0
-2369 -2397 2323 0
-2369 -2398 2324 0
-2369 -2399 2325 0
-2369 -2400 2326 0
-2369 -2401 2327 0
-2369 -2402 2328 0
-2369 -2403 2329 0
-2369 -2404 2330 0
-2369 -2405 2331 0
-2369 -2406 2332 0
-2369 -2407 2333 0
-2369 -2408 2334 0
-2369 -2409 2335 0
-2369 -2410 2336 0
-2369 -2411 2337 0
-2369 -2412 2338 0
-2369 -2413 2339 0
-2369 -2414 2340 0
-2370 -2386 2313 0
-2370 -2387 2314 0
-2370 -2388 2315 0
-2370 -2389 2316 0
-2370 -2390 2317 0
-2370 -2391 2318 0
-2370 -2392 2319 0
-2370 -2393 2320 0
-2370 -2394 2321 0
-2370 -2395 2322 0
-2370 -2396 2323 0
-2370 -2397 2324 0
-2370 -2398 2325 0
-2370 -2399 2326 0
-2370 -2400 2327 0
-2370 -2401 2328 0
-2370 -2402 2329 0
-2370 -2403 2330 0
-2370 -2404 2331 0
-2370 -2405 2332 0
-2370 -2406 2333 0
-2370 -2407 2334 0
-2370 -2408 2335 0
-2370 -2409 2336 0
-2370 -2410 2337 0
-2370 -2411 2338 0
-2370 -2412 2339 0
-2370 -2413 2340 0
-2370 -2414 2341 0
-2371 -2386 2314 0
-2371 -2387 2315 0
-2371 -2388 2316 0
-2371 -2389 2317 0
-2371 -2390 2318 0
-2371 -2391 2319 0
-2371 -2392 2320 0
-2371 -2393 2321 0
-2371 -2394 2322 0
-2371 -2395 2323 0
-2371 -2396 2324 0
-2371 -2397 2325 0
-2371 -2398 2326 0
-2371 -2399 2327 0
-2371 -2400 2328 0
-2371 -2401 2329 0
-2371 -2402 2330 0
-2371 -2403 2331 0
-2371 -2404 2332 0
-2371 -2405 2333 0
-2371 -2406 2334 0
-2371 -2407 2335 0
-2371 -2408 2336 0
-2371 -2409 2337 0
-2371 -2410 2338 0
-2371 -2411 2339 0
-2371 -2412 2340 0
-2371 -2413 2341 0
-2371 -2414 2342 0
-2372 -2386 2315 0
-2372 -2387 2316 0
-2372 -2388 2317 0
-2372 -2389 2318 0
-2372 -2390 2319 0
-2372 -2391 2320 0
-2372 -2392 2321 0
-2372 -2393 2322 0
-2372 -2394 2323 0
-2372 -2395 2324 0
-2372 -2396 2325 0
-2372 -2397 2326 0
-2372 -2398 2327 0
-2372 -2399 2328 0
-2372 -2400 2329 0
-2372 -2401 2330 0
-2372 -2402 2331 0
-2372 -2403 2332 0
-2372 -2404 2333 0
-2372 -2405 2334 0
-2372 -2406 2335 0
-2372 -2407 2336 0
-2372 -2408 2337 0
-2372 -2409 2338 0
-2372 -2410 2339 0
-2372 -2411 2340 0
-2372 -2412 2341 0
-2372 -2413 2342 0
-2372 -2414 2343 0
-2373 -2386 2316 0
-2373 -2387 2317 0
-2373 -2388 2318 0
-2373 -2389 2319 0
-2373 -2390 2320 0
-2373 -2391 2321 0
-2373 -2392 2322 0
-2373 -2393 2323 0
-2373 -2394 2324 0
-2373 -2395 2325 0
-2373 -2396 2326 0
-2373 -2397 2327 0
-2373 -2398 2328 0
-2373 -2399 2329 0
-2373 -2400 2330 0
-2373 -2401 2331 0
-2373 -2402 2332 0
-2373 -2403 2333 0
-2373 -2404 2334 0
-2373 -2405 2335 0
-2373 -2406 2336 0
-2373 -2407 2337 0
-2373 -2408 2338 0
-2373 -2409 2339 0
-2373 -2410 2340 0
-2373 -2411 2341 0
-2373 -2412 2342 0
-2373 -2413 2343 0
-2373 -2414 2344 0
-2374 -2386 2317 0
-2374 -2387 2318 0
-2374 -2388 2319 0
-2374 -2389 2320 0
-2374 -2390 2321 0
-2374 -2391 2322 0
-2374 -2392 2323 0
-2374 -2393 2324 0
-2374 -2394 2325 0
-2374 -2395 2326 0
-2374 -2396 2327 0
-2374 -2397 2328 0
-2374 -2398 2329 0
-2374 -2399 2330 0
-2374 -2400 2331 0
-2374 -2401 2332 0
-2374 -2402 2333 0
-2374 -2403 2334 0
-2374 -2404 2335 0
-2374 -2405 2336 0
-2374 -2406 2337 0
-2374 -2407 2338 0
-2374 -2408 2339 0
-2374 -2409 2340 0
-2374 -2410 2341 0
-2374 -2411 2342 0
-2374 -2412 2343 0
-2374 -2413 2344 0
-2374 -2414 2345 0
-2375 -2386 2318 0
-2375 -2387 2319 0
-2375 -2388 2320 0
-2375 -2389 2321 0
-2375 -2390 2322 0
-2375 -2391 2323 0
-2375 -2392 2324 0
-2375 -2393 2325 0
-2375 -2394 2326 0
-2375 -2395 2327 0
-2375 -2396 2328 0
-2375 -2397 2329 0
-2375 -2398 2330 0
-2375 -2399 2331 0
-2375 -2400 2332 0
-2375 -2401 2333 0
-2375 -2402 2334 0
-2375 -2403 2335 0
-2375 -2404 2336 0
-2375 -2405 2337 0
-2375 -2406 2338 0
-2375 -2407 2339 0
-2375 -2408 2340 0
-2375 -2409 2341 0
-2375 -2410 2342 0
-2375 -2411 2343 0
-2375 -2412 2344 0
-2375 -2413 2345 0
-2375 -2414 2346 0
-2376 -2386 2319 0
-2376 -2387 2320 0
-2376 -2388 2321 0
-2376 -2389 2322 0
-2376 -2390 2323 0
-2376 -2391 2324 0
-2376 -2392 2325 0
-2376 -2393 2326 0
-2376 -2394 2327 0
-2376 -2395 2328 0
-2376 -2396 2329 0
-2376 -2397 2330 0
-2376 -2398 2331 0
-2376 -2399 2332 0
-2376 -2400 2333 0
-2376 -2401 2334 0
-2376 -2402 2335 0
-2376 -2403 2336 0
-2376 -2404 2337 0
-2376 -2405 2338 0
-2376 -2406 2339 0
-2376 -2407 2340 0
-2376 -2408 2341 0
-2376 -2409 2342 0
-2376 -2410 2343 0
-2376 -2411 2344 0
-2376 -2412 2345 0
-2376 -2413 2346 0
-2376 -2414 2347 0
-2377 -2386 2320 0
-2377 -2387 2321 0
-2377 -2388 2322 0
-2377 -2389 2323 0
-2377 -2390 2324 0
-2377 -2391 2325 0
-2377 -2392 2326 0
-2377 -2393 2327 0
-2377 -2394 2328 0
-2377 -2395 2329 0
-2377 -2396 2330 0
-2377 -2397 2331 0
-2377 -2398 2332 0
-2377 -2399 2333 0
-2377 -2400 2334 0
-2377 -2401 2335 0
-2377 -2402 2336 0
-2377 -2403 2337 0
-2377 -2404 2338 0
-2377 -2405 2339 0
-2377 -2406 2340 0
-2377 -2407 2341 0
-2377 -2408 2342 0
-2377 -2409 2343 0
-2377 -2410 2344 0
-2377 -2411 2345 0
-2377 -2412 2346 0
-2377 -2413 2347 0
-2377 -2414 2348 0
-2378 -2386 2321 0
-2378 -2387 2322 0
-2378 -2388 2323 0
-2378 -2389 2324 0
-2378 -2390 2325 0
-2378 -2391 2326 0
-2378 -2392 2327 0
-2378 -2393 2328 0
-2378 -2394 2329 0
-2378 -2395 2330 0
-2378 -2396 2331 0
-2378 -2397 2332 0
-2378 -2398 2333 0
-2378 -2399 2334 0
-2378 -2400 2335 0
-2378 -2401 2336 0
-2378 -2402 2337 0
-2378 -2403 2338 0
-2378 -2404 2339 0
-2378 -2405 2340 0
-2378 -2406 2341 0
-2378 -2407 2342 0
-2378 -2408 2343 0
-2378 -2409 2344 0
-2378 -2410 2345 0
-2378 -2411 2346 0
-2378 -2412 2347 0
-2378 -2413 2348 0
-2378 -2414 2349 0
-2379 -2386 2322 0
-2379 -2387 2323 0
-2379 -2388 2324 0
-2379 -2389 2325 0
-2379 -2390 2326 0
-2379 -2391 2327 0
-2379 -2392 2328 0
-2379 -2393 2329 0
-2379 -2394 2330 0
-2379 -2395 2331 0
-2379 -2396 2332 0
-2379 -2397 2333 0
-2379 -2398 2334 0
-2379 -2399 2335 0
-2379 -2400 2336 0
-2379 -2401 2337 0
-2379 -2402 2338 0
-2379 -2403 2339 0
-2379 -2404 2340 0
-2379 -2405 2341 0
-2379 -2406 2342 0
-2379 -2407 2343 0
-2379 -2408 2344 0
-2379 -2409 2345 0
-2379 -2410 2346 0
-2379 -2411 2347 0
-2379 -2412 2348 0
-2379 -2413 2349 0
-2379 -2414 2350 0
-2380 -2386 2323 0
-2380 -2387 2324 0
-2380 -2388 2325 0
-2380 -2389 2326 0
-2380 -2390 2327 0
-2380 -2391 2328 0
-2380 -2392 2329 0
-2380 -2393 2330 0
-2380 -2394 2331 0
-2380 -2395 2332 0
-2380 -2396 2333 0
-2380 -2397 2334 0
-2380 -2398 2335 0
-2380 -2399 2336 0
-2380 -2400 2337 0
-2380 -2401 2338 0
-2380 -2402 2339 0
-2380 -2403 2340 0
-2380 -2404 2341 0
-2380 -2405 2342 0
-2380 -2406 2343 0
-2380 -2407 2344 0
-2380 -2408 2345 0
-2380 -2409 2346 0
-2380 -2410 2347 0
-2380 -2411 2348 0
-2380 -2412 2349 0
-2380 -2413 2350 0
-2380 -2414 2351 0
-2381 -2386 2324 0
-2381 -2387 2325 0
-2381 -2388 2326 0
-2381 -2389 2327 0
-2381 -2390 2328 0
-2381 -2391 2329 0
-2381 -2392 2330 0
-2381 -2393 2331 0
-2381 -2394 2332 0
-2381 -2395 2333 0
-2381 -2396 2334 0
-2381 -2397 2335 0
-2381 -2398 2336 0
-2381 -2399 2337 0
-2381 -2400 2338 0
-2381 -2401 2339 0
-2381 -2402 2340 0
-2381 -2403 2341 0
-2381 -2404 2342 0
-2381 -2405 2343 0
-2381 -2406 2344 0
-2381 -2407 2345 0
-2381 -2408 2346 0
-2381 -2409 2347 0
-2381 -2410 2348 0
-2381 -2411 2349 0
-2381 -2412 2350 0
-2381 -2413 2351 0
-2381 -2414 2352 0
-2382 -2386 2325 0
-2382 -2387 2326 0
-2382 -2388 2327 0
-2382 -2389 2328 0
-2382 -2390 2329 0
-2382 -2391 2330 0
-2382 -2392 2331 0
-2382 -2393 2332 0
-2382 -2394 2333 0
-2382 -2395 2334 0
-2382 -2396 2335 0
-2382 -2397 2336 0
-2382 -2398 2337 0
-2382 -2399 2338 0
-2382 -2400 2339 0
-2382 -2401 2340 0
-2382 -2402 2341 0
-2382 -2403 2342 0
-2382 -2404 2343 0
-2382 -2405 2344 0
-2382 -2406 2345 0
-2382 -2407 2346 0
-2382 -2408 2347 0
-2382 -2409 2348 0
-2382 -2410 2349 0
-2382 -2411 2350 0
-2382 -2412 2351 0
-2382 -2413 2352 0
-2382 -2414 2353 0
-2383 -2386 2326 0
-2383 -2387 2327 0
-2383 -2388 2328 0
-2383 -2389 2329 0
-2383 -2390 2330 0
-2383 -2391 2331 0
-2383 -2392 2332 0
-2383 -2393 2333 0
-2383 -2394 2334 0
-2383 -2395 2335 0
-2383 -2396 2336 0
-2383 -2397 2337 0
-2383 -2398 2338 0
-2383 -2399 2339 0
-2383 -2400 2340 0
-2383 -2401 2341 0
-2383 -2402 2342 0
-2383 -2403 2343 0
-2383 -2404 2344 0
-2383 -2405 2345 0
-2383 -2406 2346 0
-2383 -2407 2347 0
-2383 -2408 2348 0
-2383 -2409 2349 0
-2383 -2410 2350 0
-2383 -2411 2351 0
-2383 -2412 2352 0
-2383 -2413 2353 0
-2383 -2414 2354 0
-2384 -2386 2327 0
-2384 -2387 2328 0
-2384 -2388 2329 0
-2384 -2389 2330 0
-2384 -2390 2331 0
-2384 -2391 2332 0
-2384 -2392 2333 0
-2384 -2393 2334 0
-2384 -2394 2335 0
-2384 -2395 2336 0
-2384 -2396 2337 0
-2384 -2397 2338 0
-2384 -2398 2339 0
-2384 -2399 2340 0
-2384 -2400 2341 0
-2384 -2401 2342 0
-2384 -2402 2343 0
-2384 -2403 2344 0
-2384 -2404 2345 0
-2384 -2405 2346 0
-2384 -2406 2347 0
-2384 -2407 2348 0
-2384 -2408 2349 0
-2384 -2409 2350 0
-2384 -2410 2351 0
-2384 -2411 2352 0
-2384 -2412 2353 0
-2384 -2413 2354 0
-2384 -2414 2355 0
-2385 -2386 2328 0
-2385 -2387 2329 0
-2385 -2388 2330 0
-2385 -2389 2331 0
-2385 -2390 2332 0
-2385 -2391 2333 0
-2385 -2392 2334 0
-2385 -2393 2335 0
-2385 -2394 2336 0
-2385 -2395 2337 0
-2385 -2396 2338 0
-2385 -2397 2339 0
-2385 -2398 2340 0
-2385 -2399 2341 0
-2385 -2400 2342 0
-2385 -2401 2343 0
-2385 -2402 2344 0
-2385 -2403 2345 0
-2385 -2404 2346 0
-2385 -2405 2347 0
-2385 -2406 2348 0
-2385 -2407 2349 0
-2385 -2408 2350 0
-2385 -2409 2351 0
-2385 -2410 2352 0
-2385 -2411 2353 0
-2385 -2412 2354 0
-2385 -2413 2355 0
-2385 -2414 2356 0
-2430 2386 0
-2431 2387 0
-2432 2388 0
-2433 2389 0
-2434 2390 0
-2435 2391 0
-2436 2392 0
-2437 2393 0
-2438 2394 0
-2439 2395 0
-2440 2396 0
-2441 2397 0
-2442 2398 0
-2443 2399 0
-2415 2386 0
-2416 2387 0
-2417 2388 0
-2418 2389 0
-2419 2390 0
-2420 2391 0
-2421 2392 0
-2422 2393 0
-2423 2394 0
-2424 2395 0
-2425 2396 0
-2426 2397 0
-2427 2398 0
-2428 2399 0
-2429 2400 0
-2415 -2430 2387 0
-2415 -2431 2388 0
-2415 -2432 2389 0
-2415 -2433 2390 0
-2415 -2434 2391 0
-2415 -2435 2392 0
-2415 -2436 2393 0
-2415 -2437 2394 0
-2415 -2438 2395 0
-2415 -2439 2396 0
-2415 -2440 2397 0
-2415 -2441 2398 0
-2415 -2442 2399 0
-2415 -2443 2400 0
-2416 -2430 2388 0
-2416 -2431 2389 0
-2416 -2432 2390 0
-2416 -2433 2391 0
-2416 -2434 2392 0
-2416 -2435 2393 0
-2416 -2436 2394 0
-2416 -2437 2395 0
-2416 -2438 2396 0
-2416 -2439 2397 0
-2416 -2440 2398 0
-2416 -2441 2399 0
-2416 -2442 2400 0
-2416 -2443 2401 0
-2417 -2430 2389 0
-2417 -2431 2390 0
-2417 -2432 2391 0
-2417 -2433 2392 0
-2417 -2434 2393 0
-2417 -2435 2394 0
-2417 -2436 2395 0
-2417 -2437 2396 0
-2417 -2438 2397 0
-2417 -2439 2398 0
-2417 -2440 2399 0
-2417 -2441 2400 0
-2417 -2442 2401 0
-2417 -2443 2402 0
-2418 -2430 2390 0
-2418 -2431 2391 0
-2418 -2432 2392 0
-2418 -2433 2393 0
-2418 -2434 2394 0
-2418 -2435 2395 0
-2418 -2436 2396 0
-2418 -2437 2397 0
-2418 -2438 2398 0
-2418 -2439 2399 0
-2418 -2440 2400 0
-2418 -2441 2401 0
-2418 -2442 2402 0
-2418 -2443 2403 0
-2419 -2430 2391 0
-2419 -2431 2392 0
-2419 -2432 2393 0
-2419 -2433 2394 0
-2419 -2434 2395 0
-2419 -2435 2396 0
-2419 -2436 2397 0
-2419 -2437 2398 0
-2419 -2438 2399 0
-2419 -2439 2400 0
-2419 -2440 2401 0
-2419 -2441 2402 0
-2419 -2442 2403 0
-2419 -2443 2404 0
-2420 -2430 2392 0
-2420 -2431 2393 0
-2420 -2432 2394 0
-2420 -2433 2395 0
-2420 -2434 2396 0
-2420 -2435 2397 0
-2420 -2436 2398 0
-2420 -2437 2399 0
-2420 -2438 2400 0
-2420 -2439 2401 0
-2420 -2440 2402 0
-2420 -2441 2403 0
-2420 -2442 2404 0
-2420 -2443 2405 0
-2421 -2430 2393 0
-2421 -2431 2394 0
-2421 -2432 2395 0
-2421 -2433 2396 0
-2421 -2434 2397 0
-2421 -2435 2398 0
-2421 -2436 2399 0
-2421 -2437 2400 0
-2421 -2438 2401 0
-2421 -2439 2402 0
-2421 -2440 2403 0
-2421 -2441 2404 0
-2421 -2442 2405 0
-2421 -2443 2406 0
-2422 -2430 2394 0
-2422 -2431 2395 0
-2422 -2432 2396 0
-2422 -2433 2397 0
-2422 -2434 2398 0
-2422 -2435 2399 0
-2422 -2436 2400 0
-2422 -2437 2401 0
-2422 -2438 2402 0
-2422 -2439 2403 0
-2422 -2440 2404 0
-2422 -2441 2405 0
-2422 -2442 2406 0
-2422 -2443 2407 0
-2423 -2430 2395 0
-2423 -2431 2396 0
-2423 -2432 2397 0
-2423 -2433 2398 0
-2423 -2434 2399 0
-2423 -2435 2400 0
-2423 -2436 2401 0
-2423 -2437 2402 0
-2423 -2438 2403 0
-2423 -2439 2404 0
-2423 -2440 2405 0
-2423 -2441 2406 0
-2423 -2442 2407 0
-2423 -2443 2408 0
-2424 -2430 2396 0
-2424 -2431 2397 0
-2424 -2432 2398 0
-2424 -2433 2399 0
-2424 -2434 2400 0
-2424 -2435 2401 0
-2424 -2436 2402 0
-2424 -2437 2403 0
-2424 -2438 2404 0
-2424 -2439 2405 0
-2424 -2440 2406 0
-2424 -2441 2407 0
-2424 -2442 2408 0
-2424 -2443 2409 0
-2425 -2430 2397 0
-2425 -2431 2398 0
-2425 -2432 2399 0
-2425 -2433 2400 0
-2425 -2434 2401 0
-2425 -2435 2402 0
-2425 -2436 2403 0
-2425 -2437 2404 0
-2425 -2438 2405 0
-2425 -2439 2406 0
-2425 -2440 2407 0
-2425 -2441 2408 0
-2425 -2442 2409 0
-2425 -2443 2410 0
-2426 -2430 2398 0
-2426 -2431 2399 0
-2426 -2432 2400 0
-2426 -2433 2401 0
-2426 -2434 2402 0
-2426 -2435 2403 0
-2426 -2436 2404 0
-2426 -2437 2405 0
-2426 -2438 2406 0
-2426 -2439 2407 0
-2426 -2440 2408 0
-2426 -2441 2409 0
-2426 -2442 2410 0
-2426 -2443 2411 0
-2427 -2430 2399 0
-2427 -2431 2400 0
-2427 -2432 2401 0
-2427 -2433 2402 0
-2427 -2434 2403 0
-2427 -2435 2404 0
-2427 -2436 2405 0
-2427 -2437 2406 0
-2427 -2438 2407 0
-2427 -2439 2408 0
-2427 -2440 2409 0
-2427 -2441 2410 0
-2427 -2442 2411 0
-2427 -2443 2412 0
-2428 -2430 2400 0
-2428 -2431 2401 0
-2428 -2432 2402 0
-2428 -2433 2403 0
-2428 -2434 2404 0
-2428 -2435 2405 0
-2428 -2436 2406 0
-2428 -2437 2407 0
-2428 -2438 2408 0
-2428 -2439 2409 0
-2428 -2440 2410 0
-2428 -2441 2411 0
-2428 -2442 2412 0
-2428 -2443 2413 0
-2429 -2430 2401 0
-2429 -2431 2402 0
-2429 -2432 2403 0
-2429 -2433 2404 0
-2429 -2434 2405 0
-2429 -2435 2406 0
-2429 -2436 2407 0
-2429 -2437 2408 0
-2429 -2438 2409 0
-2429 -2439 2410 0
-2429 -2440 2411 0
-2429 -2441 2412 0
-2429 -2442 2413 0
-2429 -2443 2414 0
-2451 2430 0
-2452 2431 0
-2453 2432 0
-2454 2433 0
-2455 2434 0
-2456 2435 0
-2457 2436 0
-2444 2430 0
-2445 2431 0
-2446 2432 0
-2447 2433 0
-2448 2434 0
-2449 2435 0
-2450 2436 0
-2444 -2451 2431 0
-2444 -2452 2432 0
-2444 -2453 2433 0
-2444 -2454 2434 0
-2444 -2455 2435 0
-2444 -2456 2436 0
-2444 -2457 2437 0
-2445 -2451 2432 0
-2445 -2452 2433 0
-2445 -2453 2434 0
-2445 -2454 2435 0
-2445 -2455 2436 0
-2445 -2456 2437 0
-2445 -2457 2438 0
-2446 -2451 2433 0
-2446 -2452 2434 0
-2446 -2453 2435 0
-2446 -2454 2436 0
-2446 -2455 2437 0
-2446 -2456 2438 0
-2446 -2457 2439 0
-2447 -2451 2434 0
-2447 -2452 2435 0
-2447 -2453 2436 0
-2447 -2454 2437 0
-2447 -2455 2438 0
-2447 -2456 2439 0
-2447 -2457 2440 0
-2448 -2451 2435 0
-2448 -2452 2436 0
-2448 -2453 2437 0
-2448 -2454 2438 0
-2448 -2455 2439 0
-2448 -2456 2440 0
-2448 -2457 2441 0
-2449 -2451 2436 0
-2449 -2452 2437 0
-2449 -2453 2438 0
-2449 -2454 2439 0
-2449 -2455 2440 0
-2449 -2456 2441 0
-2449 -2457 2442 0
-2450 -2451 2437 0
-2450 -2452 2438 0
-2450 -2453 2439 0
-2450 -2454 2440 0
-2450 -2455 2441 0
-2450 -2456 2442 0
-2450 -2457 2443 0
-2462 2451 0
-2463 2452 0
-2464 2453 0
-2458 2451 0
-2459 2452 0
-2460 2453 0
-2461 2454 0
-2458 -2462 2452 0
-2458 -2463 2453 0
-2458 -2464 2454 0
-2459 -2462 2453 0
-2459 -2463 2454 0
-2459 -2464 2455 0
-2460 -2462 2454 0
-2460 -2463 2455 0
-2460 -2464 2456 0
-2461 -2462 2455 0
-2461 -2463 2456 0
-2461 -2464 2457 0
-512 2462 0
-2465 2462 0
-2466 2463 0
-2465 -512 2463 0
-2466 -512 2464 0
-511 2465 0
-510 2465 0
-510 -511 2466 0
-2469 2458 0
-2470 2459 0
-2467 2458 0
-2468 2459 0
-2467 -2469 2459 0
-2467 -2470 2460 0
-2468 -2469 2460 0
-2468 -2470 2461 0
-509 2469 0
-508 2469 0
-508 -509 2470 0
-507 2467 0
-506 2467 0
-506 -507 2468 0
-2475 2444 0
-2476 2445 0
-2477 2446 0
-2471 2444 0
-2472 2445 0
-2473 2446 0
-2474 2447 0
-2471 -2475 2445 0
-2471 -2476 2446 0
-2471 -2477 2447 0
-2472 -2475 2446 0
-2472 -2476 2447 0
-2472 -2477 2448 0
-2473 -2475 2447 0
-2473 -2476 2448 0
-2473 -2477 2449 0
-2474 -2475 2448 0
-2474 -2476 2449 0
-2474 -2477 2450 0
-505 2475 0
-2478 2475 0
-2479 2476 0
-2478 -505 2476 0
-2479 -505 2477 0
-504 2478 0
-503 2478 0
-503 -504 2479 0
-2482 2471 0
-2483 2472 0
-2480 2471 0
-2481 2472 0
-2480 -2482 2472 0
-2480 -2483 2473 0
-2481 -2482 2473 0
-2481 -2483 2474 0
-502 2482 0
-501 2482 0
-501 -502 2483 0
-500 2480 0
-499 2480 0
-499 -500 2481 0
-2492 2415 0
-2493 2416 0
-2494 2417 0
-2495 2418 0
-2496 2419 0
-2497 2420 0
-2498 2421 0
-2484 2415 0
-2485 2416 0
-2486 2417 0
-2487 2418 0
-2488 2419 0
-2489 2420 0
-2490 2421 0
-2491 2422 0
-2484 -2492 2416 0
-2484 -2493 2417 0
-2484 -2494 2418 0
-2484 -2495 2419 0
-2484 -2496 2420 0
-2484 -2497 2421 0
-2484 -2498 2422 0
-2485 -2492 2417 0
-2485 -2493 2418 0
-2485 -2494 2419 0
-2485 -2495 2420 0
-2485 -2496 2421 0
-2485 -2497 2422 0
-2485 -2498 2423 0
-2486 -2492 2418 0
-2486 -2493 2419 0
-2486 -2494 2420 0
-2486 -2495 2421 0
-2486 -2496 2422 0
-2486 -2497 2423 0
-2486 -2498 2424 0
-2487 -2492 2419 0
-2487 -2493 2420 0
-2487 -2494 2421 0
-2487 -2495 2422 0
-2487 -2496 2423 0
-2487 -2497 2424 0
-2487 -2498 2425 0
-2488 -2492 2420 0
-2488 -2493 2421 0
-2488 -2494 2422 0
-2488 -2495 2423 0
-2488 -2496 2424 0
-2488 -2497 2425 0
-2488 -2498 2426 0
-2489 -2492 2421 0
-2489 -2493 2422 0
-2489 -2494 2423 0
-2489 -2495 2424 0
-2489 -2496 2425 0
-2489 -2497 2426 0
-2489 -2498 2427 0
-2490 -2492 2422 0
-2490 -2493 2423 0
-2490 -2494 2424 0
-2490 -2495 2425 0
-2490 -2496 2426 0
-2490 -2497 2427 0
-2490 -2498 2428 0
-2491 -2492 2423 0
-2491 -2493 2424 0
-2491 -2494 2425 0
-2491 -2495 2426 0
-2491 -2496 2427 0
-2491 -2497 2428 0
-2491 -2498 2429 0
-2503 2492 0
-2504 2493 0
-2505 2494 0
-2499 2492 0
-2500 2493 0
-2501 2494 0
-2502 2495 0
-2499 -2503 2493 0
-2499 -2504 2494 0
-2499 -2505 2495 0
-2500 -2503 2494 0
-2500 -2504 2495 0
-2500 -2505 2496 0
-2501 -2503 2495 0
-2501 -2504 2496 0
-2501 -2505 2497 0
-2502 -2503 2496 0
-2502 -2504 2497 0
-2502 -2505 2498 0
-498 2503 0
-2506 2503 0
-2507 2504 0
-2506 -498 2504 0
-2507 -498 2505 0
-497 2506 0
-496 2506 0
-496 -497 2507 0
-2510 2499 0
-2511 2500 0
-2508 2499 0
-2509 2500 0
-2508 -2510 2500 0
-2508 -2511 2501 0
-2509 -2510 2501 0
-2509 -2511 2502 0
-495 2510 0
-494 2510 0
-494 -495 2511 0
-493 2508 0
-492 2508 0
-492 -493 2509 0
-2516 2484 0
-2517 2485 0
-2518 2486 0
-2519 2487 0
-2512 2484 0
-2513 2485 0
-2514 2486 0
-2515 2487 0
-2512 -2516 2485 0
-2512 -2517 2486 0
-2512 -2518 2487 0
-2512 -2519 2488 0
-2513 -2516 2486 0
-2513 -2517 2487 0
-2513 -2518 2488 0
-2513 -2519 2489 0
-2514 -2516 2487 0
-2514 -2517 2488 0
-2514 -2518 2489 0
-2514 -2519 2490 0
-2515 -2516 2488 0
-2515 -2517 2489 0
-2515 -2518 2490 0
-2515 -2519 2491 0
-2522 2516 0
-2523 2517 0
-2520 2516 0
-2521 2517 0
-2520 -2522 2517 0
-2520 -2523 2518 0
-2521 -2522 2518 0
-2521 -2523 2519 0
-491 2522 0
-490 2522 0
-490 -491 2523 0
-489 2520 0
-488 2520 0
-488 -489 2521 0
-2526 2512 0
-2527 2513 0
-2524 2512 0
-2525 2513 0
-2524 -2526 2513 0
-2524 -2527 2514 0
-2525 -2526 2514 0
-2525 -2527 2515 0
-487 2526 0
-486 2526 0
-486 -487 2527 0
-485 2524 0
-484 2524 0
-484 -485 2525 0
-2543 2357 0
-2544 2358 0
-2545 2359 0
-2546 2360 0
-2547 2361 0
-2548 2362 0
-2549 2363 0
-2550 2364 0
-2551 2365 0
-2552 2366 0
-2553 2367 0
-2554 2368 0
-2555 2369 0
-2556 2370 0
-2528 2357 0
-2529 2358 0
-2530 2359 0
-2531 2360 0
-2532 2361 0
-2533 2362 0
-2534 2363 0
-2535 2364 0
-2536 2365 0
-2537 2366 0
-2538 2367 0
-2539 2368 0
-2540 2369 0
-2541 2370 0
-2542 2371 0
-2528 -2543 2358 0
-2528 -2544 2359 0
-2528 -2545 2360 0
-2528 -2546 2361 0
-2528 -2547 2362 0
-2528 -2548 2363 0
-2528 -2549 2364 0
-2528 -2550 2365 0
-2528 -2551 2366 0
-2528 -2552 2367 0
-2528 -2553 2368 0
-2528 -2554 2369 0
-2528 -2555 2370 0
-2528 -2556 2371 0
-2529 -2543 2359 0
-2529 -2544 2360 0
-2529 -2545 2361 0
-2529 -2546 2362 0
-2529 -2547 2363 0
-2529 -2548 2364 0
-2529 -2549 2365 0
-2529 -2550 2366 0
-2529 -2551 2367 0
-2529 -2552 2368 0
-2529 -2553 2369 0
-2529 -2554 2370 0
-2529 -2555 2371 0
-2529 -2556 2372 0
-2530 -2543 2360 0
-2530 -2544 2361 0
-2530 -2545 2362 0
-2530 -2546 2363 0
-2530 -2547 2364 0
-2530 -2548 2365 0
-2530 -2549 2366 0
-2530 -2550 2367 0
-2530 -2551 2368 0
-2530 -2552 2369 0
-2530 -2553 2370 0
-2530 -2554 2371 0
-2530 -2555 2372 0
-2530 -2556 2373 0
-2531 -2543 2361 0
-2531 -2544 2362 0
-2531 -2545 2363 0
-2531 -2546 2364 0
-2531 -2547 2365 0
-2531 -2548 2366 0
-2531 -2549 2367 0
-2531 -2550 2368 0
-2531 -2551 2369 0
-2531 -2552 2370 0
-2531 -2553 2371 0
-2531 -2554 2372 0
-2531 -2555 2373 0
-2531 -2556 2374 0
-2532 -2543 2362 0
-2532 -2544 2363 0
-2532 -2545 2364 0
-2532 -2546 2365 0
-2532 -2547 2366 0
-2532 -2548 2367 0
-2532 -2549 2368 0
-2532 -2550 2369 0
-2532 -2551 2370 0
-2532 -2552 2371 0
-2532 -2553 2372 0
-2532 -2554 2373 0
-2532 -2555 2374 0
-2532 -2556 2375 0
-2533 -2543 2363 0
-2533 -2544 2364 0
-2533 -2545 2365 0
-2533 -2546 2366 0
-2533 -2547 2367 0
-2533 -2548 2368 0
-2533 -2549 2369 0
-2533 -2550 2370 0
-2533 -2551 2371 0
-2533 -2552 2372 0
-2533 -2553 2373 0
-2533 -2554 2374 0
-2533 -2555 2375 0
-2533 -2556 2376 0
-2534 -2543 2364 0
-2534 -2544 2365 0
-2534 -2545 2366 0
-2534 -2546 2367 0
-2534 -2547 2368 0
-2534 -2548 2369 0
-2534 -2549 2370 0
-2534 -2550 2371 0
-2534 -2551 2372 0
-2534 -2552 2373 0
-2534 -2553 2374 0
-2534 -2554 2375 0
-2534 -2555 2376 0
-2534 -2556 2377 0
-2535 -2543 2365 0
-2535 -2544 2366 0
-2535 -2545 2367 0
-2535 -2546 2368 0
-2535 -2547 2369 0
-2535 -2548 2370 0
-2535 -2549 2371 0
-2535 -2550 2372 0
-2535 -2551 2373 0
-2535 -2552 2374 0
-2535 -2553 2375 0
-2535 -2554 2376 0
-2535 -2555 2377 0
-2535 -2556 2378 0
-2536 -2543 2366 0
-2536 -2544 2367 0
-2536 -2545 2368 0
-2536 -2546 2369 0
-2536 -2547 2370 0
-2536 -2548 2371 0
-2536 -2549 2372 0
-2536 -2550 2373 0
-2536 -2551 2374 0
-2536 -2552 2375 0
-2536 -2553 2376 0
-2536 -2554 2377 0
-2536 -2555 2378 0
-2536 -2556 2379 0
-2537 -2543 2367 0
-2537 -2544 2368 0
-2537 -2545 2369 0
-2537 -2546 2370 0
-2537 -2547 2371 0
-2537 -2548 2372 0
-2537 -2549 2373 0
-2537 -2550 2374 0
-2537 -2551 2375 0
-2537 -2552 2376 0
-2537 -2553 2377 0
-2537 -2554 2378 0
-2537 -2555 2379 0
-2537 -2556 2380 0
-2538 -2543 2368 0
-2538 -2544 2369 0
-2538 -2545 2370 0
-2538 -2546 2371 0
-2538 -2547 2372 0
-2538 -2548 2373 0
-2538 -2549 2374 0
-2538 -2550 2375 0
-2538 -2551 2376 0
-2538 -2552 2377 0
-2538 -2553 2378 0
-2538 -2554 2379 0
-2538 -2555 2380 0
-2538 -2556 2381 0
-2539 -2543 2369 0
-2539 -2544 2370 0
-2539 -2545 2371 0
-2539 -2546 2372 0
-2539 -2547 2373 0
-2539 -2548 2374 0
-2539 -2549 2375 0
-2539 -2550 2376 0
-2539 -2551 2377 0
-2539 -2552 2378 0
-2539 -2553 2379 0
-2539 -2554 2380 0
-2539 -2555 2381 0
-2539 -2556 2382 0
-2540 -2543 2370 0
-2540 -2544 2371 0
-2540 -2545 2372 0
-2540 -2546 2373 0
-2540 -2547 2374 0
-2540 -2548 2375 0
-2540 -2549 2376 0
-2540 -2550 2377 0
-2540 -2551 2378 0
-2540 -2552 2379 0
-2540 -2553 2380 0
-2540 -2554 2381 0
-2540 -2555 2382 0
-2540 -2556 2383 0
-2541 -2543 2371 0
-2541 -2544 2372 0
-2541 -2545 2373 0
-2541 -2546 2374 0
-2541 -2547 2375 0
-2541 -2548 2376 0
-2541 -2549 2377 0
-2541 -2550 2378 0
-2541 -2551 2379 0
-2541 -2552 2380 0
-2541 -2553 2381 0
-2541 -2554 2382 0
-2541 -2555 2383 0
-2541 -2556 2384 0
-2542 -2543 2372 0
-2542 -2544 2373 0
-2542 -2545 2374 0
-2542 -2546 2375 0
-2542 -2547 2376 0
-2542 -2548 2377 0
-2542 -2549 2378 0
-2542 -2550 2379 0
-2542 -2551 2380 0
-2542 -2552 2381 0
-2542 -2553 2382 0
-2542 -2554 2383 0
-2542 -2555 2384 0
-2542 -2556 2385 0
-2564 2543 0
-2565 2544 0
-2566 2545 0
-2567 2546 0
-2568 2547 0
-2569 2548 0
-2570 2549 0
-2557 2543 0
-2558 2544 0
-2559 2545 0
-2560 2546 0
-2561 2547 0
-2562 2548 0
-2563 2549 0
-2557 -2564 2544 0
-2557 -2565 2545 0
-2557 -2566 2546 0
-2557 -2567 2547 0
-2557 -2568 2548 0
-2557 -2569 2549 0
-2557 -2570 2550 0
-2558 -2564 2545 0
-2558 -2565 2546 0
-2558 -2566 2547 0
-2558 -2567 2548 0
-2558 -2568 2549 0
-2558 -2569 2550 0
-2558 -2570 2551 0
-2559 -2564 2546 0
-2559 -2565 2547 0
-2559 -2566 2548 0
-2559 -2567 2549 0
-2559 -2568 2550 0
-2559 -2569 2551 0
-2559 -2570 2552 0
-2560 -2564 2547 0
-2560 -2565 2548 0
-2560 -2566 2549 0
-2560 -2567 2550 0
-2560 -2568 2551 0
-2560 -2569 2552 0
-2560 -2570 2553 0
-2561 -2564 2548 0
-2561 -2565 2549 0
-2561 -2566 2550 0
-2561 -2567 2551 0
-2561 -2568 2552 0
-2561 -2569 2553 0
-2561 -2570 2554 0
-2562 -2564 2549 0
-2562 -2565 2550 0
-2562 -2566 2551 0
-2562 -2567 2552 0
-2562 -2568 2553 0
-2562 -2569 2554 0
-2562 -2570 2555 0
-2563 -2564 2550 0
-2563 -2565 2551 0
-2563 -2566 2552 0
-2563 -2567 2553 0
-2563 -2568 2554 0
-2563 -2569 2555 0
-2563 -2570 2556 0
-2575 2564 0
-2576 2565 0
-2577 2566 0
-2571 2564 0
-2572 2565 0
-2573 2566 0
-2574 2567 0
-2571 -2575 2565 0
-2571 -2576 2566 0
-2571 -2577 2567 0
-2572 -2575 2566 0
-2572 -2576 2567 0
-2572 -2577 2568 0
-2573 -2575 2567 0
-2573 -2576 2568 0
-2573 -2577 2569 0
-2574 -2575 2568 0
-2574 -2576 2569 0
-2574 -2577 2570 0
-483 2575 0
-2578 2575 0
-2579 2576 0
-2578 -483 2576 0
-2579 -483 2577 0
-482 2578 0
-481 2578 0
-481 -482 2579 0
-2582 2571 0
-2583 2572 0
-2580 2571 0
-2581 2572 0
-2580 -2582 2572 0
-2580 -2583 2573 0
-2581 -2582 2573 0
-2581 -2583 2574 0
-480 2582 0
-479 2582 0
-479 -480 2583 0
-478 2580 0
-477 2580 0
-477 -478 2581 0
-2588 2557 0
-2589 2558 0
-2590 2559 0
-2584 2557 0
-2585 2558 0
-2586 2559 0
-2587 2560 0
-2584 -2588 2558 0
-2584 -2589 2559 0
-2584 -2590 2560 0
-2585 -2588 2559 0
-2585 -2589 2560 0
-2585 -2590 2561 0
-2586 -2588 2560 0
-2586 -2589 2561 0
-2586 -2590 2562 0
-2587 -2588 2561 0
-2587 -2589 2562 0
-2587 -2590 2563 0
-476 2588 0
-2591 2588 0
-2592 2589 0
-2591 -476 2589 0
-2592 -476 2590 0
-475 2591 0
-474 2591 0
-474 -475 2592 0
-2595 2584 0
-2596 2585 0
-2593 2584 0
-2594 2585 0
-2593 -2595 2585 0
-2593 -2596 2586 0
-2594 -2595 2586 0
-2594 -2596 2587 0
-473 2595 0
-472 2595 0
-472 -473 2596 0
-471 2593 0
-470 2593 0
-470 -471 2594 0
-2605 2528 0
-2606 2529 0
-2607 2530 0
-2608 2531 0
-2609 2532 0
-2610 2533 0
-2611 2534 0
-2597 2528 0
-2598 2529 0
-2599 2530 0
-2600 2531 0
-2601 2532 0
-2602 2533 0
-2603 2534 0
-2604 2535 0
-2597 -2605 2529 0
-2597 -2606 2530 0
-2597 -2607 2531 0
-2597 -2608 2532 0
-2597 -2609 2533 0
-2597 -2610 2534 0
-2597 -2611 2535 0
-2598 -2605 2530 0
-2598 -2606 2531 0
-2598 -2607 2532 0
-2598 -2608 2533 0
-2598 -2609 2534 0
-2598 -2610 2535 0
-2598 -2611 2536 0
-2599 -2605 2531 0
-2599 -2606 2532 0
-2599 -2607 2533 0
-2599 -2608 2534 0
-2599 -2609 2535 0
-2599 -2610 2536 0
-2599 -2611 2537 0
-2600 -2605 2532 0
-2600 -2606 2533 0
-2600 -2607 2534 0
-2600 -2608 2535 0
-2600 -2609 2536 0
-2600 -2610 2537 0
-2600 -2611 2538 0
-2601 -2605 2533 0
-2601 -2606 2534 0
-2601 -2607 2535 0
-2601 -2608 2536 0
-2601 -2609 2537 0
-2601 -2610 2538 0
-2601 -2611 2539 0
-2602 -2605 2534 0
-2602 -2606 2535 0
-2602 -2607 2536 0
-2602 -2608 2537 0
-2602 -2609 2538 0
-2602 -2610 2539 0
-2602 -2611 2540 0
-2603 -2605 2535 0
-2603 -2606 2536 0
-2603 -2607 2537 0
-2603 -2608 2538 0
-2603 -2609 2539 0
-2603 -2610 2540 0
-2603 -2611 2541 0
-2604 -2605 2536 0
-2604 -2606 2537 0
-2604 -2607 2538 0
-2604 -2608 2539 0
-2604 -2609 2540 0
-2604 -2610 2541 0
-2604 -2611 2542 0
-2616 2605 0
-2617 2606 0
-2618 2607 0
-2612 2605 0
-2613 2606 0
-2614 2607 0
-2615 2608 0
-2612 -2616 2606 0
-2612 -2617 2607 0
-2612 -2618 2608 0
-2613 -2616 2607 0
-2613 -2617 2608 0
-2613 -2618 2609 0
-2614 -2616 2608 0
-2614 -2617 2609 0
-2614 -2618 2610 0
-2615 -2616 2609 0
-2615 -2617 2610 0
-2615 -2618 2611 0
-469 2616 0
-2619 2616 0
-2620 2617 0
-2619 -469 2617 0
-2620 -469 2618 0
-468 2619 0
-467 2619 0
-467 -468 2620 0
-2623 2612 0
-2624 2613 0
-2621 2612 0
-2622 2613 0
-2621 -2623 2613 0
-2621 -2624 2614 0
-2622 -2623 2614 0
-2622 -2624 2615 0
-466 2623 0
-465 2623 0
-465 -466 2624 0
-464 2621 0
-463 2621 0
-463 -464 2622 0
-2629 2597 0
-2630 2598 0
-2631 2599 0
-2632 2600 0
-2625 2597 0
-2626 2598 0
-2627 2599 0
-2628 2600 0
-2625 -2629 2598 0
-2625 -2630 2599 0
-2625 -2631 2600 0
-2625 -2632 2601 0
-2626 -2629 2599 0
-2626 -2630 2600 0
-2626 -2631 2601 0
-2626 -2632 2602 0
-2627 -2629 2600 0
-2627 -2630 2601 0
-2627 -2631 2602 0
-2627 -2632 2603 0
-2628 -2629 2601 0
-2628 -2630 2602 0
-2628 -2631 2603 0
-2628 -2632 2604 0
-2635 2629 0
-2636 2630 0
-2633 2629 0
-2634 2630 0
-2633 -2635 2630 0
-2633 -2636 2631 0
-2634 -2635 2631 0
-2634 -2636 2632 0
-462 2635 0
-461 2635 0
-461 -462 2636 0
-460 2633 0
-459 2633 0
-459 -460 2634 0
-2639 2625 0
-2640 2626 0
-2637 2625 0
-2638 2626 0
-2637 -2639 2626 0
-2637 -2640 2627 0
-2638 -2639 2627 0
-2638 -2640 2628 0
-458 2639 0
-457 2639 0
-457 -458 2640 0
-456 2637 0
-455 2637 0
-455 -456 2638 0
-2670 2241 0
-2671 2242 0
-2672 2243 0
-2673 2244 0
-2674 2245 0
-2675 2246 0
-2676 2247 0
-2677 2248 0
-2678 2249 0
-2679 2250 0
-2680 2251 0
-2681 2252 0
-2682 2253 0
-2683 2254 0
-2684 2255 0
-2685 2256 0
-2686 2257 0
-2687 2258 0
-2688 2259 0
-2689 2260 0
-2690 2261 0
-2691 2262 0
-2692 2263 0
-2693 2264 0
-2694 2265 0
-2695 2266 0
-2696 2267 0
-2697 2268 0
-2698 2269 0
-2641 2241 0
-2642 2242 0
-2643 2243 0
-2644 2244 0
-2645 2245 0
-2646 2246 0
-2647 2247 0
-2648 2248 0
-2649 2249 0
-2650 2250 0
-2651 2251 0
-2652 2252 0
-2653 2253 0
-2654 2254 0
-2655 2255 0
-2656 2256 0
-2657 2257 0
-2658 2258 0
-2659 2259 0
-2660 2260 0
-2661 2261 0
-2662 2262 0
-2663 2263 0
-2664 2264 0
-2665 2265 0
-2666 2266 0
-2667 2267 0
-2668 2268 0
-2669 2269 0
-2641 -2670 2242 0
-2641 -2671 2243 0
-2641 -2672 2244 0
-2641 -2673 2245 0
-2641 -2674 2246 0
-2641 -2675 2247 0
-2641 -2676 2248 0
-2641 -2677 2249 0
-2641 -2678 2250 0
-2641 -2679 2251 0
-2641 -2680 2252 0
-2641 -2681 2253 0
-2641 -2682 2254 0
-2641 -2683 2255 0
-2641 -2684 2256 0
-2641 -2685 2257 0
-2641 -2686 2258 0
-2641 -2687 2259 0
-2641 -2688 2260 0
-2641 -2689 2261 0
-2641 -2690 2262 0
-2641 -2691 2263 0
-2641 -2692 2264 0
-2641 -2693 2265 0
-2641 -2694 2266 0
-2641 -2695 2267 0
-2641 -2696 2268 0
-2641 -2697 2269 0
-2641 -2698 2270 0
-2642 -2670 2243 0
-2642 -2671 2244 0
-2642 -2672 2245 0
-2642 -2673 2246 0
-2642 -2674 2247 0
-2642 -2675 2248 0
-2642 -2676 2249 0
-2642 -2677 2250 0
-2642 -2678 2251 0
-2642 -2679 2252 0
-2642 -2680 2253 0
-2642 -2681 2254 0
-2642 -2682 2255 0
-2642 -2683 2256 0
-2642 -2684 2257 0
-2642 -2685 2258 0
-2642 -2686 2259 0
-2642 -2687 2260 0
-2642 -2688 2261 0
-2642 -2689 2262 0
-2642 -2690 2263 0
-2642 -2691 2264 0
-2642 -2692 2265 0
-2642 -2693 2266 0
-2642 -2694 2267 0
-2642 -2695 2268 0
-2642 -2696 2269 0
-2642 -2697 2270 0
-2642 -2698 2271 0
-2643 -2670 2244 0
-2643 -2671 2245 0
-2643 -2672 2246 0
-2643 -2673 2247 0
-2643 -2674 2248 0
-2643 -2675 2249 0
-2643 -2676 2250 0
-2643 -2677 2251 0
-2643 -2678 2252 0
-2643 -2679 2253 0
-2643 -2680 2254 0
-2643 -2681 2255 0
-2643 -2682 2256 0
-2643 -2683 2257 0
-2643 -2684 2258 0
-2643 -2685 2259 0
-2643 -2686 2260 0
-2643 -2687 2261 0
-2643 -2688 2262 0
-2643 -2689 2263 0
-2643 -2690 2264 0
-2643 -2691 2265 0
-2643 -2692 2266 0
-2643 -2693 2267 0
-2643 -2694 2268 0
-2643 -2695 2269 0
-2643 -2696 2270 0
-2643 -2697 2271 0
-2643 -2698 2272 0
-2644 -2670 2245 0
-2644 -2671 2246 0
-2644 -2672 2247 0
-2644 -2673 2248 0
-2644 -2674 2249 0
-2644 -2675 2250 0
-2644 -2676 2251 0
-2644 -2677 2252 0
-2644 -2678 2253 0
-2644 -2679 2254 0
-2644 -2680 2255 0
-2644 -2681 2256 0
-2644 -2682 2257 0
-2644 -2683 2258 0
-2644 -2684 2259 0
-2644 -2685 2260 0
-2644 -2686 2261 0
-2644 -2687 2262 0
-2644 -2688 2263 0
-2644 -2689 2264 0
-2644 -2690 2265 0
-2644 -2691 2266 0
-2644 -2692 2267 0
-2644 -2693 2268 0
-2644 -2694 2269 0
-2644 -2695 2270 0
-2644 -2696 2271 0
-2644 -2697 2272 0
-2644 -2698 2273 0
-2645 -2670 2246 0
-2645 -2671 2247 0
-2645 -2672 2248 0
-2645 -2673 2249 0
-2645 -2674 2250 0
-2645 -2675 2251 0
-2645 -2676 2252 0
-2645 -2677 2253 0
-2645 -2678 2254 0
-2645 -2679 2255 0
-2645 -2680 2256 0
-2645 -2681 2257 0
-2645 -2682 2258 0
-2645 -2683 2259 0
-2645 -2684 2260 0
-2645 -2685 2261 0
-2645 -2686 2262 0
-2645 -2687 2263 0
-2645 -2688 2264 0
-2645 -2689 2265 0
-2645 -2690 2266 0
-2645 -2691 2267 0
-2645 -2692 2268 0
-2645 -2693 2269 0
-2645 -2694 2270 0
-2645 -2695 2271 0
-2645 -2696 2272 0
-2645 -2697 2273 0
-2645 -2698 2274 0
-2646 -2670 2247 0
-2646 -2671 2248 0
-2646 -2672 2249 0
-2646 -2673 2250 0
-2646 -2674 2251 0
-2646 -2675 2252 0
-2646 -2676 2253 0
-2646 -2677 2254 0
-2646 -2678 2255 0
-2646 -2679 2256 0
-2646 -2680 2257 0
-2646 -2681 2258 0
-2646 -2682 2259 0
-2646 -2683 2260 0
-2646 -2684 2261 0
-2646 -2685 2262 0
-2646 -2686 2263 0
-2646 -2687 2264 0
-2646 -2688 2265 0
-2646 -2689 2266 0
-2646 -2690 2267 0
-2646 -2691 2268 0
-2646 -2692 2269 0
-2646 -2693 2270 0
-2646 -2694 2271 0
-2646 -2695 2272 0
-2646 -2696 2273 0
-2646 -2697 2274 0
-2646 -2698 2275 0
-2647 -2670 2248 0
-2647 -2671 2249 0
-2647 -2672 2250 0
-2647 -2673 2251 0
-2647 -2674 2252 0
-2647 -2675 2253 0
-2647 -2676 2254 0
-2647 -2677 2255 0
-2647 -2678 2256 0
-2647 -2679 2257 0
-2647 -2680 2258 0
-2647 -2681 2259 0
-2647 -2682 2260 0
-2647 -2683 2261 0
-2647 -2684 2262 0
-2647 -2685 2263 0
-2647 -2686 2264 0
-2647 -2687 2265 0
-2647 -2688 2266 0
-2647 -2689 2267 0
-2647 -2690 2268 0
-2647 -2691 2269 0
-2647 -2692 2270 0
-2647 -2693 2271 0
-2647 -2694 2272 0
-2647 -2695 2273 0
-2647 -2696 2274 0
-2647 -2697 2275 0
-2647 -2698 2276 0
-2648 -2670 2249 0
-2648 -2671 2250 0
-2648 -2672 2251 0
-2648 -2673 2252 0
-2648 -2674 2253 0
-2648 -2675 2254 0
-2648 -2676 2255 0
-2648 -2677 2256 0
-2648 -2678 2257 0
-2648 -2679 2258 0
-2648 -2680 2259 0
-2648 -2681 2260 0
-2648 -2682 2261 0
-2648 -2683 2262 0
-2648 -2684 2263 0
-2648 -2685 2264 0
-2648 -2686 2265 0
-2648 -2687 2266 0
-2648 -2688 2267 0
-2648 -2689 2268 0
-2648 -2690 2269 0
-2648 -2691 2270 0
-2648 -2692 2271 0
-2648 -2693 2272 0
-2648 -2694 2273 0
-2648 -2695 2274 0
-2648 -2696 2275 0
-2648 -2697 2276 0
-2648 -2698 2277 0
-2649 -2670 2250 0
-2649 -2671 2251 0
-2649 -2672 2252 0
-2649 -2673 2253 0
-2649 -2674 2254 0
-2649 -2675 2255 0
-2649 -2676 2256 0
-2649 -2677 2257 0
-2649 -2678 2258 0
-2649 -2679 2259 0
-2649 -2680 2260 0
-2649 -2681 2261 0
-2649 -2682 2262 0
-2649 -2683 2263 0
-2649 -2684 2264 0
-2649 -2685 2265 0
-2649 -2686 2266 0
-2649 -2687 2267 0
-2649 -2688 2268 0
-2649 -2689 2269 0
-2649 -2690 2270 0
-2649 -2691 2271 0
-2649 -2692 2272 0
-2649 -2693 2273 0
-2649 -2694 2274 0
-2649 -2695 2275 0
-2649 -2696 2276 0
-2649 -2697 2277 0
-2649 -2698 2278 0
-2650 -2670 2251 0
-2650 -2671 2252 0
-2650 -2672 2253 0
-2650 -2673 2254 0
-2650 -2674 2255 0
-2650 -2675 2256 0
-2650 -2676 2257 0
-2650 -2677 2258 0
-2650 -2678 2259 0
-2650 -2679 2260 0
-2650 -2680 2261 0
-2650 -2681 2262 0
-2650 -2682 2263 0
-2650 -2683 2264 0
-2650 -2684 2265 0
-2650 -2685 2266 0
-2650 -2686 2267 0
-2650 -2687 2268 0
-2650 -2688 2269 0
-2650 -2689 2270 0
-2650 -2690 2271 0
-2650 -2691 2272 0
-2650 -2692 2273 0
-2650 -2693 2274 0
-2650 -2694 2275 0
-2650 -2695 2276 0
-2650 -2696 2277 0
-2650 -2697 2278 0
-2650 -2698 2279 0
-2651 -2670 2252 0
-2651 -2671 2253 0
-2651 -2672 2254 0
-2651 -2673 2255 0
-2651 -2674 2256 0
-2651 -2675 2257 0
-2651 -2676 2258 0
-2651 -2677 2259 0
-2651 -2678 2260 0
-2651 -2679 2261 0
-2651 -2680 2262 0
-2651 -2681 2263 0
-2651 -2682 2264 0
-2651 -2683 2265 0
-2651 -2684 2266 0
-2651 -2685 2267 0
-2651 -2686 2268 0
-2651 -2687 2269 0
-2651 -2688 2270 0
-2651 -2689 2271 0
-2651 -2690 2272 0
-2651 -2691 2273 0
-2651 -2692 2274 0
-2651 -2693 2275 0
-2651 -2694 2276 0
-2651 -2695 2277 0
-2651 -2696 2278 0
-2651 -2697 2279 0
-2651 -2698 2280 0
-2652 -2670 2253 0
-2652 -2671 2254 0
-2652 -2672 2255 0
-2652 -2673 2256 0
-2652 -2674 2257 0
-2652 -2675 2258 0
-2652 -2676 2259 0
-2652 -2677 2260 0
-2652 -2678 2261 0
-2652 -2679 2262 0
-2652 -2680 2263 0
-2652 -2681 2264 0
-2652 -2682 2265 0
-2652 -2683 2266 0
-2652 -2684 2267 0
-2652 -2685 2268 0
-2652 -2686 2269 0
-2652 -2687 2270 0
-2652 -2688 2271 0
-2652 -2689 2272 0
-2652 -2690 2273 0
-2652 -2691 2274 0
-2652 -2692 2275 0
-2652 -2693 2276 0
-2652 -2694 2277 0
-2652 -2695 2278 0
-2652 -2696 2279 0
-2652 -2697 2280 0
-2652 -2698 2281 0
-2653 -2670 2254 0
-2653 -2671 2255 0
-2653 -2672 2256 0
-2653 -2673 2257 0
-2653 -2674 2258 0
-2653 -2675 2259 0
-2653 -2676 2260 0
-2653 -2677 2261 0
-2653 -2678 2262 0
-2653 -2679 2263 0
-2653 -2680 2264 0
-2653 -2681 2265 0
-2653 -2682 2266 0
-2653 -2683 2267 0
-2653 -2684 2268 0
-2653 -2685 2269 0
-2653 -2686 2270 0
-2653 -2687 2271 0
-2653 -2688 2272 0
-2653 -2689 2273 0
-2653 -2690 2274 0
-2653 -2691 2275 0
-2653 -2692 2276 0
-2653 -2693 2277 0
-2653 -2694 2278 0
-2653 -2695 2279 0
-2653 -2696 2280 0
-2653 -2697 2281 0
-2653 -2698 2282 0
-2654 -2670 2255 0
-2654 -2671 2256 0
-2654 -2672 2257 0
-2654 -2673 2258 0
-2654 -2674 2259 0
-2654 -2675 2260 0
-2654 -2676 2261 0
-2654 -2677 2262 0
-2654 -2678 2263 0
-2654 -2679 2264 0
-2654 -2680 2265 0
-2654 -2681 2266 0
-2654 -2682 2267 0
-2654 -2683 2268 0
-2654 -2684 2269 0
-2654 -2685 2270 0
-2654 -2686 2271 0
-2654 -2687 2272 0
-2654 -2688 2273 0
-2654 -2689 2274 0
-2654 -2690 2275 0
-2654 -2691 2276 0
-2654 -2692 2277 0
-2654 -2693 2278 0
-2654 -2694 2279 0
-2654 -2695 2280 0
-2654 -2696 2281 0
-2654 -2697 2282 0
-2654 -2698 2283 0
-2655 -2670 2256 0
-2655 -2671 2257 0
-2655 -2672 2258 0
-2655 -2673 2259 0
-2655 -2674 2260 0
-2655 -2675 2261 0
-2655 -2676 2262 0
-2655 -2677 2263 0
-2655 -2678 2264 0
-2655 -2679 2265 0
-2655 -2680 2266 0
-2655 -2681 2267 0
-2655 -2682 2268 0
-2655 -2683 2269 0
-2655 -2684 2270 0
-2655 -2685 2271 0
-2655 -2686 2272 0
-2655 -2687 2273 0
-2655 -2688 2274 0
-2655 -2689 2275 0
-2655 -2690 2276 0
-2655 -2691 2277 0
-2655 -2692 2278 0
-2655 -2693 2279 0
-2655 -2694 2280 0
-2655 -2695 2281 0
-2655 -2696 2282 0
-2655 -2697 2283 0
-2655 -2698 2284 0
-2656 -2670 2257 0
-2656 -2671 2258 0
-2656 -2672 2259 0
-2656 -2673 2260 0
-2656 -2674 2261 0
-2656 -2675 2262 0
-2656 -2676 2263 0
-2656 -2677 2264 0
-2656 -2678 2265 0
-2656 -2679 2266 0
-2656 -2680 2267 0
-2656 -2681 2268 0
-2656 -2682 2269 0
-2656 -2683 2270 0
-2656 -2684 2271 0
-2656 -2685 2272 0
-2656 -2686 2273 0
-2656 -2687 2274 0
-2656 -2688 2275 0
-2656 -2689 2276 0
-2656 -2690 2277 0
-2656 -2691 2278 0
-2656 -2692 2279 0
-2656 -2693 2280 0
-2656 -2694 2281 0
-2656 -2695 2282 0
-2656 -2696 2283 0
-2656 -2697 2284 0
-2656 -2698 2285 0
-2657 -2670 2258 0
-2657 -2671 2259 0
-2657 -2672 2260 0
-2657 -2673 2261 0
-2657 -2674 2262 0
-2657 -2675 2263 0
-2657 -2676 2264 0
-2657 -2677 2265 0
-2657 -2678 2266 0
-2657 -2679 2267 0
-2657 -2680 2268 0
-2657 -2681 2269 0
-2657 -2682 2270 0
-2657 -2683 2271 0
-2657 -2684 2272 0
-2657 -2685 2273 0
-2657 -2686 2274 0
-2657 -2687 2275 0
-2657 -2688 2276 0
-2657 -2689 2277 0
-2657 -2690 2278 0
-2657 -2691 2279 0
-2657 -2692 2280 0
-2657 -2693 2281 0
-2657 -2694 2282 0
-2657 -2695 2283 0
-2657 -2696 2284 0
-2657 -2697 2285 0
-2657 -2698 2286 0
-2658 -2670 2259 0
-2658 -2671 2260 0
-2658 -2672 2261 0
-2658 -2673 2262 0
-2658 -2674 2263 0
-2658 -2675 2264 0
-2658 -2676 2265 0
-2658 -2677 2266 0
-2658 -2678 2267 0
-2658 -2679 2268 0
-2658 -2680 2269 0
-2658 -2681 2270 0
-2658 -2682 2271 0
-2658 -2683 2272 0
-2658 -2684 2273 0
-2658 -2685 2274 0
-2658 -2686 2275 0
-2658 -2687 2276 0
-2658 -2688 2277 0
-2658 -2689 2278 0
-2658 -2690 2279 0
-2658 -2691 2280 0
-2658 -2692 2281 0
-2658 -2693 2282 0
-2658 -2694 2283 0
-2658 -2695 2284 0
-2658 -2696 2285 0
-2658 -2697 2286 0
-2658 -2698 2287 0
-2659 -2670 2260 0
-2659 -2671 2261 0
-2659 -2672 2262 0
-2659 -2673 2263 0
-2659 -2674 2264 0
-2659 -2675 2265 0
-2659 -2676 2266 0
-2659 -2677 2267 0
-2659 -2678 2268 0
-2659 -2679 2269 0
-2659 -2680 2270 0
-2659 -2681 2271 0
-2659 -2682 2272 0
-2659 -2683 2273 0
-2659 -2684 2274 0
-2659 -2685 2275 0
-2659 -2686 2276 0
-2659 -2687 2277 0
-2659 -2688 2278 0
-2659 -2689 2279 0
-2659 -2690 2280 0
-2659 -2691 2281 0
-2659 -2692 2282 0
-2659 -2693 2283 0
-2659 -2694 2284 0
-2659 -2695 2285 0
-2659 -2696 2286 0
-2659 -2697 2287 0
-2659 -2698 2288 0
-2660 -2670 2261 0
-2660 -2671 2262 0
-2660 -2672 2263 0
-2660 -2673 2264 0
-2660 -2674 2265 0
-2660 -2675 2266 0
-2660 -2676 2267 0
-2660 -2677 2268 0
-2660 -2678 2269 0
-2660 -2679 2270 0
-2660 -2680 2271 0
-2660 -2681 2272 0
-2660 -2682 2273 0
-2660 -2683 2274 0
-2660 -2684 2275 0
-2660 -2685 2276 0
-2660 -2686 2277 0
-2660 -2687 2278 0
-2660 -2688 2279 0
-2660 -2689 2280 0
-2660 -2690 2281 0
-2660 -2691 2282 0
-2660 -2692 2283 0
-2660 -2693 2284 0
-2660 -2694 2285 0
-2660 -2695 2286 0
-2660 -2696 2287 0
-2660 -2697 2288 0
-2660 -2698 2289 0
-2661 -2670 2262 0
-2661 -2671 2263 0
-2661 -2672 2264 0
-2661 -2673 2265 0
-2661 -2674 2266 0
-2661 -2675 2267 0
-2661 -2676 2268 0
-2661 -2677 2269 0
-2661 -2678 2270 0
-2661 -2679 2271 0
-2661 -2680 2272 0
-2661 -2681 2273 0
-2661 -2682 2274 0
-2661 -2683 2275 0
-2661 -2684 2276 0
-2661 -2685 2277 0
-2661 -2686 2278 0
-2661 -2687 2279 0
-2661 -2688 2280 0
-2661 -2689 2281 0
-2661 -2690 2282 0
-2661 -2691 2283 0
-2661 -2692 2284 0
-2661 -2693 2285 0
-2661 -2694 2286 0
-2661 -2695 2287 0
-2661 -2696 2288 0
-2661 -2697 2289 0
-2661 -2698 2290 0
-2662 -2670 2263 0
-2662 -2671 2264 0
-2662 -2672 2265 0
-2662 -2673 2266 0
-2662 -2674 2267 0
-2662 -2675 2268 0
-2662 -2676 2269 0
-2662 -2677 2270 0
-2662 -2678 2271 0
-2662 -2679 2272 0
-2662 -2680 2273 0
-2662 -2681 2274 0
-2662 -2682 2275 0
-2662 -2683 2276 0
-2662 -2684 2277 0
-2662 -2685 2278 0
-2662 -2686 2279 0
-2662 -2687 2280 0
-2662 -2688 2281 0
-2662 -2689 2282 0
-2662 -2690 2283 0
-2662 -2691 2284 0
-2662 -2692 2285 0
-2662 -2693 2286 0
-2662 -2694 2287 0
-2662 -2695 2288 0
-2662 -2696 2289 0
-2662 -2697 2290 0
-2662 -2698 2291 0
-2663 -2670 2264 0
-2663 -2671 2265 0
-2663 -2672 2266 0
-2663 -2673 2267 0
-2663 -2674 2268 0
-2663 -2675 2269 0
-2663 -2676 2270 0
-2663 -2677 2271 0
-2663 -2678 2272 0
-2663 -2679 2273 0
-2663 -2680 2274 0
-2663 -2681 2275 0
-2663 -2682 2276 0
-2663 -2683 2277 0
-2663 -2684 2278 0
-2663 -2685 2279 0
-2663 -2686 2280 0
-2663 -2687 2281 0
-2663 -2688 2282 0
-2663 -2689 2283 0
-2663 -2690 2284 0
-2663 -2691 2285 0
-2663 -2692 2286 0
-2663 -2693 2287 0
-2663 -2694 2288 0
-2663 -2695 2289 0
-2663 -2696 2290 0
-2663 -2697 2291 0
-2663 -2698 2292 0
-2664 -2670 2265 0
-2664 -2671 2266 0
-2664 -2672 2267 0
-2664 -2673 2268 0
-2664 -2674 2269 0
-2664 -2675 2270 0
-2664 -2676 2271 0
-2664 -2677 2272 0
-2664 -2678 2273 0
-2664 -2679 2274 0
-2664 -2680 2275 0
-2664 -2681 2276 0
-2664 -2682 2277 0
-2664 -2683 2278 0
-2664 -2684 2279 0
-2664 -2685 2280 0
-2664 -2686 2281 0
-2664 -2687 2282 0
-2664 -2688 2283 0
-2664 -2689 2284 0
-2664 -2690 2285 0
-2664 -2691 2286 0
-2664 -2692 2287 0
-2664 -2693 2288 0
-2664 -2694 2289 0
-2664 -2695 2290 0
-2664 -2696 2291 0
-2664 -2697 2292 0
-2664 -2698 2293 0
-2665 -2670 2266 0
-2665 -2671 2267 0
-2665 -2672 2268 0
-2665 -2673 2269 0
-2665 -2674 2270 0
-2665 -2675 2271 0
-2665 -2676 2272 0
-2665 -2677 2273 0
-2665 -2678 2274 0
-2665 -2679 2275 0
-2665 -2680 2276 0
-2665 -2681 2277 0
-2665 -2682 2278 0
-2665 -2683 2279 0
-2665 -2684 2280 0
-2665 -2685 2281 0
-2665 -2686 2282 0
-2665 -2687 2283 0
-2665 -2688 2284 0
-2665 -2689 2285 0
-2665 -2690 2286 0
-2665 -2691 2287 0
-2665 -2692 2288 0
-2665 -2693 2289 0
-2665 -2694 2290 0
-2665 -2695 2291 0
-2665 -2696 2292 0
-2665 -2697 2293 0
-2665 -2698 2294 0
-2666 -2670 2267 0
-2666 -2671 2268 0
-2666 -2672 2269 0
-2666 -2673 2270 0
-2666 -2674 2271 0
-2666 -2675 2272 0
-2666 -2676 2273 0
-2666 -2677 2274 0
-2666 -2678 2275 0
-2666 -2679 2276 0
-2666 -2680 2277 0
-2666 -2681 2278 0
-2666 -2682 2279 0
-2666 -2683 2280 0
-2666 -2684 2281 0
-2666 -2685 2282 0
-2666 -2686 2283 0
-2666 -2687 2284 0
-2666 -2688 2285 0
-2666 -2689 2286 0
-2666 -2690 2287 0
-2666 -2691 2288 0
-2666 -2692 2289 0
-2666 -2693 2290 0
-2666 -2694 2291 0
-2666 -2695 2292 0
-2666 -2696 2293 0
-2666 -2697 2294 0
-2666 -2698 2295 0
-2667 -2670 2268 0
-2667 -2671 2269 0
-2667 -2672 2270 0
-2667 -2673 2271 0
-2667 -2674 2272 0
-2667 -2675 2273 0
-2667 -2676 2274 0
-2667 -2677 2275 0
-2667 -2678 2276 0
-2667 -2679 2277 0
-2667 -2680 2278 0
-2667 -2681 2279 0
-2667 -2682 2280 0
-2667 -2683 2281 0
-2667 -2684 2282 0
-2667 -2685 2283 0
-2667 -2686 2284 0
-2667 -2687 2285 0
-2667 -2688 2286 0
-2667 -2689 2287 0
-2667 -2690 2288 0
-2667 -2691 2289 0
-2667 -2692 2290 0
-2667 -2693 2291 0
-2667 -2694 2292 0
-2667 -2695 2293 0
-2667 -2696 2294 0
-2667 -2697 2295 0
-2667 -2698 2296 0
-2668 -2670 2269 0
-2668 -2671 2270 0
-2668 -2672 2271 0
-2668 -2673 2272 0
-2668 -2674 2273 0
-2668 -2675 2274 0
-2668 -2676 2275 0
-2668 -2677 2276 0
-2668 -2678 2277 0
-2668 -2679 2278 0
-2668 -2680 2279 0
-2668 -2681 2280 0
-2668 -2682 2281 0
-2668 -2683 2282 0
-2668 -2684 2283 0
-2668 -2685 2284 0
-2668 -2686 2285 0
-2668 -2687 2286 0
-2668 -2688 2287 0
-2668 -2689 2288 0
-2668 -2690 2289 0
-2668 -2691 2290 0
-2668 -2692 2291 0
-2668 -2693 2292 0
-2668 -2694 2293 0
-2668 -2695 2294 0
-2668 -2696 2295 0
-2668 -2697 2296 0
-2668 -2698 2297 0
-2669 -2670 2270 0
-2669 -2671 2271 0
-2669 -2672 2272 0
-2669 -2673 2273 0
-2669 -2674 2274 0
-2669 -2675 2275 0
-2669 -2676 2276 0
-2669 -2677 2277 0
-2669 -2678 2278 0
-2669 -2679 2279 0
-2669 -2680 2280 0
-2669 -2681 2281 0
-2669 -2682 2282 0
-2669 -2683 2283 0
-2669 -2684 2284 0
-2669 -2685 2285 0
-2669 -2686 2286 0
-2669 -2687 2287 0
-2669 -2688 2288 0
-2669 -2689 2289 0
-2669 -2690 2290 0
-2669 -2691 2291 0
-2669 -2692 2292 0
-2669 -2693 2293 0
-2669 -2694 2294 0
-2669 -2695 2295 0
-2669 -2696 2296 0
-2669 -2697 2297 0
-2669 -2698 2298 0
-2714 2670 0
-2715 2671 0
-2716 2672 0
-2717 2673 0
-2718 2674 0
-2719 2675 0
-2720 2676 0
-2721 2677 0
-2722 2678 0
-2723 2679 0
-2724 2680 0
-2725 2681 0
-2726 2682 0
-2727 2683 0
-2699 2670 0
-2700 2671 0
-2701 2672 0
-2702 2673 0
-2703 2674 0
-2704 2675 0
-2705 2676 0
-2706 2677 0
-2707 2678 0
-2708 2679 0
-2709 2680 0
-2710 2681 0
-2711 2682 0
-2712 2683 0
-2713 2684 0
-2699 -2714 2671 0
-2699 -2715 2672 0
-2699 -2716 2673 0
-2699 -2717 2674 0
-2699 -2718 2675 0
-2699 -2719 2676 0
-2699 -2720 2677 0
-2699 -2721 2678 0
-2699 -2722 2679 0
-2699 -2723 2680 0
-2699 -2724 2681 0
-2699 -2725 2682 0
-2699 -2726 2683 0
-2699 -2727 2684 0
-2700 -2714 2672 0
-2700 -2715 2673 0
-2700 -2716 2674 0
-2700 -2717 2675 0
-2700 -2718 2676 0
-2700 -2719 2677 0
-2700 -2720 2678 0
-2700 -2721 2679 0
-2700 -2722 2680 0
-2700 -2723 2681 0
-2700 -2724 2682 0
-2700 -2725 2683 0
-2700 -2726 2684 0
-2700 -2727 2685 0
-2701 -2714 2673 0
-2701 -2715 2674 0
-2701 -2716 2675 0
-2701 -2717 2676 0
-2701 -2718 2677 0
-2701 -2719 2678 0
-2701 -2720 2679 0
-2701 -2721 2680 0
-2701 -2722 2681 0
-2701 -2723 2682 0
-2701 -2724 2683 0
-2701 -2725 2684 0
-2701 -2726 2685 0
-2701 -2727 2686 0
-2702 -2714 2674 0
-2702 -2715 2675 0
-2702 -2716 2676 0
-2702 -2717 2677 0
-2702 -2718 2678 0
-2702 -2719 2679 0
-2702 -2720 2680 0
-2702 -2721 2681 0
-2702 -2722 2682 0
-2702 -2723 2683 0
-2702 -2724 2684 0
-2702 -2725 2685 0
-2702 -2726 2686 0
-2702 -2727 2687 0
-2703 -2714 2675 0
-2703 -2715 2676 0
-2703 -2716 2677 0
-2703 -2717 2678 0
-2703 -2718 2679 0
-2703 -2719 2680 0
-2703 -2720 2681 0
-2703 -2721 2682 0
-2703 -2722 2683 0
-2703 -2723 2684 0
-2703 -2724 2685 0
-2703 -2725 2686 0
-2703 -2726 2687 0
-2703 -2727 2688 0
-2704 -2714 2676 0
-2704 -2715 2677 0
-2704 -2716 2678 0
-2704 -2717 2679 0
-2704 -2718 2680 0
-2704 -2719 2681 0
-2704 -2720 2682 0
-2704 -2721 2683 0
-2704 -2722 2684 0
-2704 -2723 2685 0
-2704 -2724 2686 0
-2704 -2725 2687 0
-2704 -2726 2688 0
-2704 -2727 2689 0
-2705 -2714 2677 0
-2705 -2715 2678 0
-2705 -2716 2679 0
-2705 -2717 2680 0
-2705 -2718 2681 0
-2705 -2719 2682 0
-2705 -2720 2683 0
-2705 -2721 2684 0
-2705 -2722 2685 0
-2705 -2723 2686 0
-2705 -2724 2687 0
-2705 -2725 2688 0
-2705 -2726 2689 0
-2705 -2727 2690 0
-2706 -2714 2678 0
-2706 -2715 2679 0
-2706 -2716 2680 0
-2706 -2717 2681 0
-2706 -2718 2682 0
-2706 -2719 2683 0
-2706 -2720 2684 0
-2706 -2721 2685 0
-2706 -2722 2686 0
-2706 -2723 2687 0
-2706 -2724 2688 0
-2706 -2725 2689 0
-2706 -2726 2690 0
-2706 -2727 2691 0
-2707 -2714 2679 0
-2707 -2715 2680 0
-2707 -2716 2681 0
-2707 -2717 2682 0
-2707 -2718 2683 0
-2707 -2719 2684 0
-2707 -2720 2685 0
-2707 -2721 2686 0
-2707 -2722 2687 0
-2707 -2723 2688 0
-2707 -2724 2689 0
-2707 -2725 2690 0
-2707 -2726 2691 0
-2707 -2727 2692 0
-2708 -2714 2680 0
-2708 -2715 2681 0
-2708 -2716 2682 0
-2708 -2717 2683 0
-2708 -2718 2684 0
-2708 -2719 2685 0
-2708 -2720 2686 0
-2708 -2721 2687 0
-2708 -2722 2688 0
-2708 -2723 2689 0
-2708 -2724 2690 0
-2708 -2725 2691 0
-2708 -2726 2692 0
-2708 -2727 2693 0
-2709 -2714 2681 0
-2709 -2715 2682 0
-2709 -2716 2683 0
-2709 -2717 2684 0
-2709 -2718 2685 0
-2709 -2719 2686 0
-2709 -2720 2687 0
-2709 -2721 2688 0
-2709 -2722 2689 0
-2709 -2723 2690 0
-2709 -2724 2691 0
-2709 -2725 2692 0
-2709 -2726 2693 0
-2709 -2727 2694 0
-2710 -2714 2682 0
-2710 -2715 2683 0
-2710 -2716 2684 0
-2710 -2717 2685 0
-2710 -2718 2686 0
-2710 -2719 2687 0
-2710 -2720 2688 0
-2710 -2721 2689 0
-2710 -2722 2690 0
-2710 -2723 2691 0
-2710 -2724 2692 0
-2710 -2725 2693 0
-2710 -2726 2694 0
-2710 -2727 2695 0
-2711 -2714 2683 0
-2711 -2715 2684 0
-2711 -2716 2685 0
-2711 -2717 2686 0
-2711 -2718 2687 0
-2711 -2719 2688 0
-2711 -2720 2689 0
-2711 -2721 2690 0
-2711 -2722 2691 0
-2711 -2723 2692 0
-2711 -2724 2693 0
-2711 -2725 2694 0
-2711 -2726 2695 0
-2711 -2727 2696 0
-2712 -2714 2684 0
-2712 -2715 2685 0
-2712 -2716 2686 0
-2712 -2717 2687 0
-2712 -2718 2688 0
-2712 -2719 2689 0
-2712 -2720 2690 0
-2712 -2721 2691 0
-2712 -2722 2692 0
-2712 -2723 2693 0
-2712 -2724 2694 0
-2712 -2725 2695 0
-2712 -2726 2696 0
-2712 -2727 2697 0
-2713 -2714 2685 0
-2713 -2715 2686 0
-2713 -2716 2687 0
-2713 -2717 2688 0
-2713 -2718 2689 0
-2713 -2719 2690 0
-2713 -2720 2691 0
-2713 -2721 2692 0
-2713 -2722 2693 0
-2713 -2723 2694 0
-2713 -2724 2695 0
-2713 -2725 2696 0
-2713 -2726 2697 0
-2713 -2727 2698 0
-2735 2714 0
-2736 2715 0
-2737 2716 0
-2738 2717 0
-2739 2718 0
-2740 2719 0
-2741 2720 0
-2728 2714 0
-2729 2715 0
-2730 2716 0
-2731 2717 0
-2732 2718 0
-2733 2719 0
-2734 2720 0
-2728 -2735 2715 0
-2728 -2736 2716 0
-2728 -2737 2717 0
-2728 -2738 2718 0
-2728 -2739 2719 0
-2728 -2740 2720 0
-2728 -2741 2721 0
-2729 -2735 2716 0
-2729 -2736 2717 0
-2729 -2737 2718 0
-2729 -2738 2719 0
-2729 -2739 2720 0
-2729 -2740 2721 0
-2729 -2741 2722 0
-2730 -2735 2717 0
-2730 -2736 2718 0
-2730 -2737 2719 0
-2730 -2738 2720 0
-2730 -2739 2721 0
-2730 -2740 2722 0
-2730 -2741 2723 0
-2731 -2735 2718 0
-2731 -2736 2719 0
-2731 -2737 2720 0
-2731 -2738 2721 0
-2731 -2739 2722 0
-2731 -2740 2723 0
-2731 -2741 2724 0
-2732 -2735 2719 0
-2732 -2736 2720 0
-2732 -2737 2721 0
-2732 -2738 2722 0
-2732 -2739 2723 0
-2732 -2740 2724 0
-2732 -2741 2725 0
-2733 -2735 2720 0
-2733 -2736 2721 0
-2733 -2737 2722 0
-2733 -2738 2723 0
-2733 -2739 2724 0
-2733 -2740 2725 0
-2733 -2741 2726 0
-2734 -2735 2721 0
-2734 -2736 2722 0
-2734 -2737 2723 0
-2734 -2738 2724 0
-2734 -2739 2725 0
-2734 -2740 2726 0
-2734 -2741 2727 0
-2746 2735 0
-2747 2736 0
-2748 2737 0
-2742 2735 0
-2743 2736 0
-2744 2737 0
-2745 2738 0
-2742 -2746 2736 0
-2742 -2747 2737 0
-2742 -2748 2738 0
-2743 -2746 2737 0
-2743 -2747 2738 0
-2743 -2748 2739 0
-2744 -2746 2738 0
-2744 -2747 2739 0
-2744 -2748 2740 0
-2745 -2746 2739 0
-2745 -2747 2740 0
-2745 -2748 2741 0
-454 2746 0
-2749 2746 0
-2750 2747 0
-2749 -454 2747 0
-2750 -454 2748 0
-453 2749 0
-452 2749 0
-452 -453 2750 0
-2753 2742 0
-2754 2743 0
-2751 2742 0
-2752 2743 0
-2751 -2753 2743 0
-2751 -2754 2744 0
-2752 -2753 2744 0
-2752 -2754 2745 0
-451 2753 0
-450 2753 0
-450 -451 2754 0
-449 2751 0
-448 2751 0
-448 -449 2752 0
-2759 2728 0
-2760 2729 0
-2761 2730 0
-2755 2728 0
-2756 2729 0
-2757 2730 0
-2758 2731 0
-2755 -2759 2729 0
-2755 -2760 2730 0
-2755 -2761 2731 0
-2756 -2759 2730 0
-2756 -2760 2731 0
-2756 -2761 2732 0
-2757 -2759 2731 0
-2757 -2760 2732 0
-2757 -2761 2733 0
-2758 -2759 2732 0
-2758 -2760 2733 0
-2758 -2761 2734 0
-447 2759 0
-2762 2759 0
-2763 2760 0
-2762 -447 2760 0
-2763 -447 2761 0
-446 2762 0
-445 2762 0
-445 -446 2763 0
-2766 2755 0
-2767 2756 0
-2764 2755 0
-2765 2756 0
-2764 -2766 2756 0
-2764 -2767 2757 0
-2765 -2766 2757 0
-2765 -2767 2758 0
-444 2766 0
-443 2766 0
-443 -444 2767 0
-442 2764 0
-441 2764 0
-441 -442 2765 0
-2776 2699 0
-2777 2700 0
-2778 2701 0
-2779 2702 0
-2780 2703 0
-2781 2704 0
-2782 2705 0
-2768 2699 0
-2769 2700 0
-2770 2701 0
-2771 2702 0
-2772 2703 0
-2773 2704 0
-2774 2705 0
-2775 2706 0
-2768 -2776 2700 0
-2768 -2777 2701 0
-2768 -2778 2702 0
-2768 -2779 2703 0
-2768 -2780 2704 0
-2768 -2781 2705 0
-2768 -2782 2706 0
-2769 -2776 2701 0
-2769 -2777 2702 0
-2769 -2778 2703 0
-2769 -2779 2704 0
-2769 -2780 2705 0
-2769 -2781 2706 0
-2769 -2782 2707 0
-2770 -2776 2702 0
-2770 -2777 2703 0
-2770 -2778 2704 0
-2770 -2779 2705 0
-2770 -2780 2706 0
-2770 -2781 2707 0
-2770 -2782 2708 0
-2771 -2776 2703 0
-2771 -2777 2704 0
-2771 -2778 2705 0
-2771 -2779 2706 0
-2771 -2780 2707 0
-2771 -2781 2708 0
-2771 -2782 2709 0
-2772 -2776 2704 0
-2772 -2777 2705 0
-2772 -2778 2706 0
-2772 -2779 2707 0
-2772 -2780 2708 0
-2772 -2781 2709 0
-2772 -2782 2710 0
-2773 -2776 2705 0
-2773 -2777 2706 0
-2773 -2778 2707 0
-2773 -2779 2708 0
-2773 -2780 2709 0
-2773 -2781 2710 0
-2773 -2782 2711 0
-2774 -2776 2706 0
-2774 -2777 2707 0
-2774 -2778 2708 0
-2774 -2779 2709 0
-2774 -2780 2710 0
-2774 -2781 2711 0
-2774 -2782 2712 0
-2775 -2776 2707 0
-2775 -2777 2708 0
-2775 -2778 2709 0
-2775 -2779 2710 0
-2775 -2780 2711 0
-2775 -2781 2712 0
-2775 -2782 2713 0
-2787 2776 0
-2788 2777 0
-2789 2778 0
-2783 2776 0
-2784 2777 0
-2785 2778 0
-2786 2779 0
-2783 -2787 2777 0
-2783 -2788 2778 0
-2783 -2789 2779 0
-2784 -2787 2778 0
-2784 -2788 2779 0
-2784 -2789 2780 0
-2785 -2787 2779 0
-2785 -2788 2780 0
-2785 -2789 2781 0
-2786 -2787 2780 0
-2786 -2788 2781 0
-2786 -2789 2782 0
-440 2787 0
-2790 2787 0
-2791 2788 0
-2790 -440 2788 0
-2791 -440 2789 0
-439 2790 0
-438 2790 0
-438 -439 2791 0
-2794 2783 0
-2795 2784 0
-2792 2783 0
-2793 2784 0
-2792 -2794 2784 0
-2792 -2795 2785 0
-2793 -2794 2785 0
-2793 -2795 2786 0
-437 2794 0
-436 2794 0
-436 -437 2795 0
-435 2792 0
-434 2792 0
-434 -435 2793 0
-2800 2768 0
-2801 2769 0
-2802 2770 0
-2803 2771 0
-2796 2768 0
-2797 2769 0
-2798 2770 0
-2799 2771 0
-2796 -2800 2769 0
-2796 -2801 2770 0
-2796 -2802 2771 0
-2796 -2803 2772 0
-2797 -2800 2770 0
-2797 -2801 2771 0
-2797 -2802 2772 0
-2797 -2803 2773 0
-2798 -2800 2771 0
-2798 -2801 2772 0
-2798 -2802 2773 0
-2798 -2803 2774 0
-2799 -2800 2772 0
-2799 -2801 2773 0
-2799 -2802 2774 0
-2799 -2803 2775 0
-2806 2800 0
-2807 2801 0
-2804 2800 0
-2805 2801 0
-2804 -2806 2801 0
-2804 -2807 2802 0
-2805 -2806 2802 0
-2805 -2807 2803 0
-433 2806 0
-432 2806 0
-432 -433 2807 0
-431 2804 0
-430 2804 0
-430 -431 2805 0
-2810 2796 0
-2811 2797 0
-2808 2796 0
-2809 2797 0
-2808 -2810 2797 0
-2808 -2811 2798 0
-2809 -2810 2798 0
-2809 -2811 2799 0
-429 2810 0
-428 2810 0
-428 -429 2811 0
-427 2808 0
-426 2808 0
-426 -427 2809 0
-2827 2641 0
-2828 2642 0
-2829 2643 0
-2830 2644 0
-2831 2645 0
-2832 2646 0
-2833 2647 0
-2834 2648 0
-2835 2649 0
-2836 2650 0
-2837 2651 0
-2838 2652 0
-2839 2653 0
-2840 2654 0
-2812 2641 0
-2813 2642 0
-2814 2643 0
-2815 2644 0
-2816 2645 0
-2817 2646 0
-2818 2647 0
-2819 2648 0
-2820 2649 0
-2821 2650 0
-2822 2651 0
-2823 2652 0
-2824 2653 0
-2825 2654 0
-2826 2655 0
-2812 -2827 2642 0
-2812 -2828 2643 0
-2812 -2829 2644 0
-2812 -2830 2645 0
-2812 -2831 2646 0
-2812 -2832 2647 0
-2812 -2833 2648 0
-2812 -2834 2649 0
-2812 -2835 2650 0
-2812 -2836 2651 0
-2812 -2837 2652 0
-2812 -2838 2653 0
-2812 -2839 2654 0
-2812 -2840 2655 0
-2813 -2827 2643 0
-2813 -2828 2644 0
-2813 -2829 2645 0
-2813 -2830 2646 0
-2813 -2831 2647 0
-2813 -2832 2648 0
-2813 -2833 2649 0
-2813 -2834 2650 0
-2813 -2835 2651 0
-2813 -2836 2652 0
-2813 -2837 2653 0
-2813 -2838 2654 0
-2813 -2839 2655 0
-2813 -2840 2656 0
-2814 -2827 2644 0
-2814 -2828 2645 0
-2814 -2829 2646 0
-2814 -2830 2647 0
-2814 -2831 2648 0
-2814 -2832 2649 0
-2814 -2833 2650 0
-2814 -2834 2651 0
-2814 -2835 2652 0
-2814 -2836 2653 0
-2814 -2837 2654 0
-2814 -2838 2655 0
-2814 -2839 2656 0
-2814 -2840 2657 0
-2815 -2827 2645 0
-2815 -2828 2646 0
-2815 -2829 2647 0
-2815 -2830 2648 0
-2815 -2831 2649 0
-2815 -2832 2650 0
-2815 -2833 2651 0
-2815 -2834 2652 0
-2815 -2835 2653 0
-2815 -2836 2654 0
-2815 -2837 2655 0
-2815 -2838 2656 0
-2815 -2839 2657 0
-2815 -2840 2658 0
-2816 -2827 2646 0
-2816 -2828 2647 0
-2816 -2829 2648 0
-2816 -2830 2649 0
-2816 -2831 2650 0
-2816 -2832 2651 0
-2816 -2833 2652 0
-2816 -2834 2653 0
-2816 -2835 2654 0
-2816 -2836 2655 0
-2816 -2837 2656 0
-2816 -2838 2657 0
-2816 -2839 2658 0
-2816 -2840 2659 0
-2817 -2827 2647 0
-2817 -2828 2648 0
-2817 -2829 2649 0
-2817 -2830 2650 0
-2817 -2831 2651 0
-2817 -2832 2652 0
-2817 -2833 2653 0
-2817 -2834 2654 0
-2817 -2835 2655 0
-2817 -2836 2656 0
-2817 -2837 2657 0
-2817 -2838 2658 0
-2817 -2839 2659 0
-2817 -2840 2660 0
-2818 -2827 2648 0
-2818 -2828 2649 0
-2818 -2829 2650 0
-2818 -2830 2651 0
-2818 -2831 2652 0
-2818 -2832 2653 0
-2818 -2833 2654 0
-2818 -2834 2655 0
-2818 -2835 2656 0
-2818 -2836 2657 0
-2818 -2837 2658 0
-2818 -2838 2659 0
-2818 -2839 2660 0
-2818 -2840 2661 0
-2819 -2827 2649 0
-2819 -2828 2650 0
-2819 -2829 2651 0
-2819 -2830 2652 0
-2819 -2831 2653 0
-2819 -2832 2654 0
-2819 -2833 2655 0
-2819 -2834 2656 0
-2819 -2835 2657 0
-2819 -2836 2658 0
-2819 -2837 2659 0
-2819 -2838 2660 0
-2819 -2839 2661 0
-2819 -2840 2662 0
-2820 -2827 2650 0
-2820 -2828 2651 0
-2820 -2829 2652 0
-2820 -2830 2653 0
-2820 -2831 2654 0
-2820 -2832 2655 0
-2820 -2833 2656 0
-2820 -2834 2657 0
-2820 -2835 2658 0
-2820 -2836 2659 0
-2820 -2837 2660 0
-2820 -2838 2661 0
-2820 -2839 2662 0
-2820 -2840 2663 0
-2821 -2827 2651 0
-2821 -2828 2652 0
-2821 -2829 2653 0
-2821 -2830 2654 0
-2821 -2831 2655 0
-2821 -2832 2656 0
-2821 -2833 2657 0
-2821 -2834 2658 0
-2821 -2835 2659 0
-2821 -2836 2660 0
-2821 -2837 2661 0
-2821 -2838 2662 0
-2821 -2839 2663 0
-2821 -2840 2664 0
-2822 -2827 2652 0
-2822 -2828 2653 0
-2822 -2829 2654 0
-2822 -2830 2655 0
-2822 -2831 2656 0
-2822 -2832 2657 0
-2822 -2833 2658 0
-2822 -2834 2659 0
-2822 -2835 2660 0
-2822 -2836 2661 0
-2822 -2837 2662 0
-2822 -2838 2663 0
-2822 -2839 2664 0
-2822 -2840 2665 0
-2823 -2827 2653 0
-2823 -2828 2654 0
-2823 -2829 2655 0
-2823 -2830 2656 0
-2823 -2831 2657 0
-2823 -2832 2658 0
-2823 -2833 2659 0
-2823 -2834 2660 0
-2823 -2835 2661 0
-2823 -2836 2662 0
-2823 -2837 2663 0
-2823 -2838 2664 0
-2823 -2839 2665 0
-2823 -2840 2666 0
-2824 -2827 2654 0
-2824 -2828 2655 0
-2824 -2829 2656 0
-2824 -2830 2657 0
-2824 -2831 2658 0
-2824 -2832 2659 0
-2824 -2833 2660 0
-2824 -2834 2661 0
-2824 -2835 2662 0
-2824 -2836 2663 0
-2824 -2837 2664 0
-2824 -2838 2665 0
-2824 -2839 2666 0
-2824 -2840 2667 0
-2825 -2827 2655 0
-2825 -2828 2656 0
-2825 -2829 2657 0
-2825 -2830 2658 0
-2825 -2831 2659 0
-2825 -2832 2660 0
-2825 -2833 2661 0
-2825 -2834 2662 0
-2825 -2835 2663 0
-2825 -2836 2664 0
-2825 -2837 2665 0
-2825 -2838 2666 0
-2825 -2839 2667 0
-2825 -2840 2668 0
-2826 -2827 2656 0
-2826 -2828 2657 0
-2826 -2829 2658 0
-2826 -2830 2659 0
-2826 -2831 2660 0
-2826 -2832 2661 0
-2826 -2833 2662 0
-2826 -2834 2663 0
-2826 -2835 2664 0
-2826 -2836 2665 0
-2826 -2837 2666 0
-2826 -2838 2667 0
-2826 -2839 2668 0
-2826 -2840 2669 0
-2848 2827 0
-2849 2828 0
-2850 2829 0
-2851 2830 0
-2852 2831 0
-2853 2832 0
-2854 2833 0
-2841 2827 0
-2842 2828 0
-2843 2829 0
-2844 2830 0
-2845 2831 0
-2846 2832 0
-2847 2833 0
-2841 -2848 2828 0
-2841 -2849 2829 0
-2841 -2850 2830 0
-2841 -2851 2831 0
-2841 -2852 2832 0
-2841 -2853 2833 0
-2841 -2854 2834 0
-2842 -2848 2829 0
-2842 -2849 2830 0
-2842 -2850 2831 0
-2842 -2851 2832 0
-2842 -2852 2833 0
-2842 -2853 2834 0
-2842 -2854 2835 0
-2843 -2848 2830 0
-2843 -2849 2831 0
-2843 -2850 2832 0
-2843 -2851 2833 0
-2843 -2852 2834 0
-2843 -2853 2835 0
-2843 -2854 2836 0
-2844 -2848 2831 0
-2844 -2849 2832 0
-2844 -2850 2833 0
-2844 -2851 2834 0
-2844 -2852 2835 0
-2844 -2853 2836 0
-2844 -2854 2837 0
-2845 -2848 2832 0
-2845 -2849 2833 0
-2845 -2850 2834 0
-2845 -2851 2835 0
-2845 -2852 2836 0
-2845 -2853 2837 0
-2845 -2854 2838 0
-2846 -2848 2833 0
-2846 -2849 2834 0
-2846 -2850 2835 0
-2846 -2851 2836 0
-2846 -2852 2837 0
-2846 -2853 2838 0
-2846 -2854 2839 0
-2847 -2848 2834 0
-2847 -2849 2835 0
-2847 -2850 2836 0
-2847 -2851 2837 0
-2847 -2852 2838 0
-2847 -2853 2839 0
-2847 -2854 2840 0
-2859 2848 0
-2860 2849 0
-2861 2850 0
-2855 2848 0
-2856 2849 0
-2857 2850 0
-2858 2851 0
-2855 -2859 2849 0
-2855 -2860 2850 0
-2855 -2861 2851 0
-2856 -2859 2850 0
-2856 -2860 2851 0
-2856 -2861 2852 0
-2857 -2859 2851 0
-2857 -2860 2852 0
-2857 -2861 2853 0
-2858 -2859 2852 0
-2858 -2860 2853 0
-2858 -2861 2854 0
-425 2859 0
-2862 2859 0
-2863 2860 0
-2862 -425 2860 0
-2863 -425 2861 0
-424 2862 0
-423 2862 0
-423 -424 2863 0
-2866 2855 0
-2867 2856 0
-2864 2855 0
-2865 2856 0
-2864 -2866 2856 0
-2864 -2867 2857 0
-2865 -2866 2857 0
-2865 -2867 2858 0
-422 2866 0
-421 2866 0
-421 -422 2867 0
-420 2864 0
-419 2864 0
-419 -420 2865 0
-2872 2841 0
-2873 2842 0
-2874 2843 0
-2868 2841 0
-2869 2842 0
-2870 2843 0
-2871 2844 0
-2868 -2872 2842 0
-2868 -2873 2843 0
-2868 -2874 2844 0
-2869 -2872 2843 0
-2869 -2873 2844 0
-2869 -2874 2845 0
-2870 -2872 2844 0
-2870 -2873 2845 0
-2870 -2874 2846 0
-2871 -2872 2845 0
-2871 -2873 2846 0
-2871 -2874 2847 0
-418 2872 0
-2875 2872 0
-2876 2873 0
-2875 -418 2873 0
-2876 -418 2874 0
-417 2875 0
-416 2875 0
-416 -417 2876 0
-2879 2868 0
-2880 2869 0
-2877 2868 0
-2878 2869 0
-2877 -2879 2869 0
-2877 -2880 2870 0
-2878 -2879 2870 0
-2878 -2880 2871 0
-415 2879 0
-414 2879 0
-414 -415 2880 0
-413 2877 0
-412 2877 0
-412 -413 2878 0
-2889 2812 0
-2890 2813 0
-2891 2814 0
-2892 2815 0
-2893 2816 0
-2894 2817 0
-2895 2818 0
-2881 2812 0
-2882 2813 0
-2883 2814 0
-2884 2815 0
-2885 2816 0
-2886 2817 0
-2887 2818 0
-2888 2819 0
-2881 -2889 2813 0
-2881 -2890 2814 0
-2881 -2891 2815 0
-2881 -2892 2816 0
-2881 -2893 2817 0
-2881 -2894 2818 0
-2881 -2895 2819 0
-2882 -2889 2814 0
-2882 -2890 2815 0
-2882 -2891 2816 0
-2882 -2892 2817 0
-2882 -2893 2818 0
-2882 -2894 2819 0
-2882 -2895 2820 0
-2883 -2889 2815 0
-2883 -2890 2816 0
-2883 -2891 2817 0
-2883 -2892 2818 0
-2883 -2893 2819 0
-2883 -2894 2820 0
-2883 -2895 2821 0
-2884 -2889 2816 0
-2884 -2890 2817 0
-2884 -2891 2818 0
-2884 -2892 2819 0
-2884 -2893 2820 0
-2884 -2894 2821 0
-2884 -2895 2822 0
-2885 -2889 2817 0
-2885 -2890 2818 0
-2885 -2891 2819 0
-2885 -2892 2820 0
-2885 -2893 2821 0
-2885 -2894 2822 0
-2885 -2895 2823 0
-2886 -2889 2818 0
-2886 -2890 2819 0
-2886 -2891 2820 0
-2886 -2892 2821 0
-2886 -2893 2822 0
-2886 -2894 2823 0
-2886 -2895 2824 0
-2887 -2889 2819 0
-2887 -2890 2820 0
-2887 -2891 2821 0
-2887 -2892 2822 0
-2887 -2893 2823 0
-2887 -2894 2824 0
-2887 -2895 2825 0
-2888 -2889 2820 0
-2888 -2890 2821 0
-2888 -2891 2822 0
-2888 -2892 2823 0
-2888 -2893 2824 0
-2888 -2894 2825 0
-2888 -2895 2826 0
-2900 2889 0
-2901 2890 0
-2902 2891 0
-2896 2889 0
-2897 2890 0
-2898 2891 0
-2899 2892 0
-2896 -2900 2890 0
-2896 -2901 2891 0
-2896 -2902 2892 0
-2897 -2900 2891 0
-2897 -2901 2892 0
-2897 -2902 2893 0
-2898 -2900 2892 0
-2898 -2901 2893 0
-2898 -2902 2894 0
-2899 -2900 2893 0
-2899 -2901 2894 0
-2899 -2902 2895 0
-411 2900 0
-2903 2900 0
-2904 2901 0
-2903 -411 2901 0
-2904 -411 2902 0
-410 2903 0
-409 2903 0
-409 -410 2904 0
-2907 2896 0
-2908 2897 0
-2905 2896 0
-2906 2897 0
-2905 -2907 2897 0
-2905 -2908 2898 0
-2906 -2907 2898 0
-2906 -2908 2899 0
-408 2907 0
-407 2907 0
-407 -408 2908 0
-406 2905 0
-405 2905 0
-405 -406 2906 0
-2913 2881 0
-2914 2882 0
-2915 2883 0
-2916 2884 0
-2909 2881 0
-2910 2882 0
-2911 2883 0
-2912 2884 0
-2909 -2913 2882 0
-2909 -2914 2883 0
-2909 -2915 2884 0
-2909 -2916 2885 0
-2910 -2913 2883 0
-2910 -2914 2884 0
-2910 -2915 2885 0
-2910 -2916 2886 0
-2911 -2913 2884 0
-2911 -2914 2885 0
-2911 -2915 2886 0
-2911 -2916 2887 0
-2912 -2913 2885 0
-2912 -2914 2886 0
-2912 -2915 2887 0
-2912 -2916 2888 0
-2919 2913 0
-2920 2914 0
-2917 2913 0
-2918 2914 0
-2917 -2919 2914 0
-2917 -2920 2915 0
-2918 -2919 2915 0
-2918 -2920 2916 0
-404 2919 0
-403 2919 0
-403 -404 2920 0
-402 2917 0
-401 2917 0
-401 -402 2918 0
-2923 2909 0
-2924 2910 0
-2921 2909 0
-2922 2910 0
-2921 -2923 2910 0
-2921 -2924 2911 0
-2922 -2923 2911 0
-2922 -2924 2912 0
-400 2923 0
-399 2923 0
-399 -400 2924 0
-398 2921 0
-397 2921 0
-397 -398 2922 0
-2983 2009 0
-2984 2010 0
-2985 2011 0
-2986 2012 0
-2987 2013 0
-2988 2014 0
-2989 2015 0
-2990 2016 0
-2991 2017 0
-2992 2018 0
-2993 2019 0
-2994 2020 0
-2995 2021 0
-2996 2022 0
-2997 2023 0
-2998 2024 0
-2999 2025 0
-3000 2026 0
-3001 2027 0
-3002 2028 0
-3003 2029 0
-3004 2030 0
-3005 2031 0
-3006 2032 0
-3007 2033 0
-3008 2034 0
-3009 2035 0
-3010 2036 0
-3011 2037 0
-3012 2038 0
-3013 2039 0
-3014 2040 0
-3015 2041 0
-3016 2042 0
-3017 2043 0
-3018 2044 0
-3019 2045 0
-3020 2046 0
-3021 2047 0
-3022 2048 0
-3023 2049 0
-3024 2050 0
-3025 2051 0
-3026 2052 0
-3027 2053 0
-3028 2054 0
-3029 2055 0
-3030 2056 0
-3031 2057 0
-3032 2058 0
-3033 2059 0
-3034 2060 0
-3035 2061 0
-3036 2062 0
-3037 2063 0
-3038 2064 0
-3039 2065 0
-3040 2066 0
-2925 2009 0
-2926 2010 0
-2927 2011 0
-2928 2012 0
-2929 2013 0
-2930 2014 0
-2931 2015 0
-2932 2016 0
-2933 2017 0
-2934 2018 0
-2935 2019 0
-2936 2020 0
-2937 2021 0
-2938 2022 0
-2939 2023 0
-2940 2024 0
-2941 2025 0
-2942 2026 0
-2943 2027 0
-2944 2028 0
-2945 2029 0
-2946 2030 0
-2947 2031 0
-2948 2032 0
-2949 2033 0
-2950 2034 0
-2951 2035 0
-2952 2036 0
-2953 2037 0
-2954 2038 0
-2955 2039 0
-2956 2040 0
-2957 2041 0
-2958 2042 0
-2959 2043 0
-2960 2044 0
-2961 2045 0
-2962 2046 0
-2963 2047 0
-2964 2048 0
-2965 2049 0
-2966 2050 0
-2967 2051 0
-2968 2052 0
-2969 2053 0
-2970 2054 0
-2971 2055 0
-2972 2056 0
-2973 2057 0
-2974 2058 0
-2975 2059 0
-2976 2060 0
-2977 2061 0
-2978 2062 0
-2979 2063 0
-2980 2064 0
-2981 2065 0
-2982 2066 0
-2925 -2983 2010 0
-2925 -2984 2011 0
-2925 -2985 2012 0
-2925 -2986 2013 0
-2925 -2987 2014 0
-2925 -2988 2015 0
-2925 -2989 2016 0
-2925 -2990 2017 0
-2925 -2991 2018 0
-2925 -2992 2019 0
-2925 -2993 2020 0
-2925 -2994 2021 0
-2925 -2995 2022 0
-2925 -2996 2023 0
-2925 -2997 2024 0
-2925 -2998 2025 0
-2925 -2999 2026 0
-2925 -3000 2027 0
-2925 -3001 2028 0
-2925 -3002 2029 0
-2925 -3003 2030 0
-2925 -3004 2031 0
-2925 -3005 2032 0
-2925 -3006 2033 0
-2925 -3007 2034 0
-2925 -3008 2035 0
-2925 -3009 2036 0
-2925 -3010 2037 0
-2925 -3011 2038 0
-2925 -3012 2039 0
-2925 -3013 2040 0
-2925 -3014 2041 0
-2925 -3015 2042 0
-2925 -3016 2043 0
-2925 -3017 2044 0
-2925 -3018 2045 0
-2925 -3019 2046 0
-2925 -3020 2047 0
-2925 -3021 2048 0
-2925 -3022 2049 0
-2925 -3023 2050 0
-2925 -3024 2051 0
-2925 -3025 2052 0
-2925 -3026 2053 0
-2925 -3027 2054 0
-2925 -3028 2055 0
-2925 -3029 2056 0
-2925 -3030 2057 0
-2925 -3031 2058 0
-2925 -3032 2059 0
-2925 -3033 2060 0
-2925 -3034 2061 0
-2925 -3035 2062 0
-2925 -3036 2063 0
-2925 -3037 2064 0
-2925 -3038 2065 0
-2925 -3039 2066 0
-2925 -3040 2067 0
-2926 -2983 2011 0
-2926 -2984 2012 0
-2926 -2985 2013 0
-2926 -2986 2014 0
-2926 -2987 2015 0
-2926 -2988 2016 0
-2926 -2989 2017 0
-2926 -2990 2018 0
-2926 -2991 2019 0
-2926 -2992 2020 0
-2926 -2993 2021 0
-2926 -2994 2022 0
-2926 -2995 2023 0
-2926 -2996 2024 0
-2926 -2997 2025 0
-2926 -2998 2026 0
-2926 -2999 2027 0
-2926 -3000 2028 0
-2926 -3001 2029 0
-2926 -3002 2030 0
-2926 -3003 2031 0
-2926 -3004 2032 0
-2926 -3005 2033 0
-2926 -3006 2034 0
-2926 -3007 2035 0
-2926 -3008 2036 0
-2926 -3009 2037 0
-2926 -3010 2038 0
-2926 -3011 2039 0
-2926 -3012 2040 0
-2926 -3013 2041 0
-2926 -3014 2042 0
-2926 -3015 2043 0
-2926 -3016 2044 0
-2926 -3017 2045 0
-2926 -3018 2046 0
-2926 -3019 2047 0
-2926 -3020 2048 0
-2926 -3021 2049 0
-2926 -3022 2050 0
-2926 -3023 2051 0
-2926 -3024 2052 0
-2926 -3025 2053 0
-2926 -3026 2054 0
-2926 -3027 2055 0
-2926 -3028 2056 0
-2926 -3029 2057 0
-2926 -3030 2058 0
-2926 -3031 2059 0
-2926 -3032 2060 0
-2926 -3033 2061 0
-2926 -3034 2062 0
-2926 -3035 2063 0
-2926 -3036 2064 0
-2926 -3037 2065 0
-2926 -3038 2066 0
-2926 -3039 2067 0
-2926 -3040 2068 0
-2927 -2983 2012 0
-2927 -2984 2013 0
-2927 -2985 2014 0
-2927 -2986 2015 0
-2927 -2987 2016 0
-2927 -2988 2017 0
-2927 -2989 2018 0
-2927 -2990 2019 0
-2927 -2991 2020 0
-2927 -2992 2021 0
-2927 -2993 2022 0
-2927 -2994 2023 0
-2927 -2995 2024 0
-2927 -2996 2025 0
-2927 -2997 2026 0
-2927 -2998 2027 0
-2927 -2999 2028 0
-2927 -3000 2029 0
-2927 -3001 2030 0
-2927 -3002 2031 0
-2927 -3003 2032 0
-2927 -3004 2033 0
-2927 -3005 2034 0
-2927 -3006 2035 0
-2927 -3007 2036 0
-2927 -3008 2037 0
-2927 -3009 2038 0
-2927 -3010 2039 0
-2927 -3011 2040 0
-2927 -3012 2041 0
-2927 -3013 2042 0
-2927 -3014 2043 0
-2927 -3015 2044 0
-2927 -3016 2045 0
-2927 -3017 2046 0
-2927 -3018 2047 0
-2927 -3019 2048 0
-2927 -3020 2049 0
-2927 -3021 2050 0
-2927 -3022 2051 0
-2927 -3023 2052 0
-2927 -3024 2053 0
-2927 -3025 2054 0
-2927 -3026 2055 0
-2927 -3027 2056 0
-2927 -3028 2057 0
-2927 -3029 2058 0
-2927 -3030 2059 0
-2927 -3031 2060 0
-2927 -3032 2061 0
-2927 -3033 2062 0
-2927 -3034 2063 0
-2927 -3035 2064 0
-2927 -3036 2065 0
-2927 -3037 2066 0
-2927 -3038 2067 0
-2927 -3039 2068 0
-2927 -3040 2069 0
-2928 -2983 2013 0
-2928 -2984 2014 0
-2928 -2985 2015 0
-2928 -2986 2016 0
-2928 -2987 2017 0
-2928 -2988 2018 0
-2928 -2989 2019 0
-2928 -2990 2020 0
-2928 -2991 2021 0
-2928 -2992 2022 0
-2928 -2993 2023 0
-2928 -2994 2024 0
-2928 -2995 2025 0
-2928 -2996 2026 0
-2928 -2997 2027 0
-2928 -2998 2028 0
-2928 -2999 2029 0
-2928 -3000 2030 0
-2928 -3001 2031 0
-2928 -3002 2032 0
-2928 -3003 2033 0
-2928 -3004 2034 0
-2928 -3005 2035 0
-2928 -3006 2036 0
-2928 -3007 2037 0
-2928 -3008 2038 0
-2928 -3009 2039 0
-2928 -3010 2040 0
-2928 -3011 2041 0
-2928 -3012 2042 0
-2928 -3013 2043 0
-2928 -3014 2044 0
-2928 -3015 2045 0
-2928 -3016 2046 0
-2928 -3017 2047 0
-2928 -3018 2048 0
-2928 -3019 2049 0
-2928 -3020 2050 0
-2928 -3021 2051 0
-2928 -3022 2052 0
-2928 -3023 2053 0
-2928 -3024 2054 0
-2928 -3025 2055 0
-2928 -3026 2056 0
-2928 -3027 2057 0
-2928 -3028 2058 0
-2928 -3029 2059 0
-2928 -3030 2060 0
-2928 -3031 2061 0
-2928 -3032 2062 0
-2928 -3033 2063 0
-2928 -3034 2064 0
-2928 -3035 2065 0
-2928 -3036 2066 0
-2928 -3037 2067 0
-2928 -3038 2068 0
-2928 -3039 2069 0
-2928 -3040 2070 0
-2929 -2983 2014 0
-2929 -2984 2015 0
-2929 -2985 2016 0
-2929 -2986 2017 0
-2929 -2987 2018 0
-2929 -2988 2019 0
-2929 -2989 2020 0
-2929 -2990 2021 0
-2929 -2991 2022 0
-2929 -2992 2023 0
-2929 -2993 2024 0
-2929 -2994 2025 0
-2929 -2995 2026 0
-2929 -2996 2027 0
-2929 -2997 2028 0
-2929 -2998 2029 0
-2929 -2999 2030 0
-2929 -3000 2031 0
-2929 -3001 2032 0
-2929 -3002 2033 0
-2929 -3003 2034 0
-2929 -3004 2035 0
-2929 -3005 2036 0
-2929 -3006 2037 0
-2929 -3007 2038 0
-2929 -3008 2039 0
-2929 -3009 2040 0
-2929 -3010 2041 0
-2929 -3011 2042 0
-2929 -3012 2043 0
-2929 -3013 2044 0
-2929 -3014 2045 0
-2929 -3015 2046 0
-2929 -3016 2047 0
-2929 -3017 2048 0
-2929 -3018 2049 0
-2929 -3019 2050 0
-2929 -3020 2051 0
-2929 -3021 2052 0
-2929 -3022 2053 0
-2929 -3023 2054 0
-2929 -3024 2055 0
-2929 -3025 2056 0
-2929 -3026 2057 0
-2929 -3027 2058 0
-2929 -3028 2059 0
-2929 -3029 2060 0
-2929 -3030 2061 0
-2929 -3031 2062 0
-2929 -3032 2063 0
-2929 -3033 2064 0
-2929 -3034 2065 0
-2929 -3035 2066 0
-2929 -3036 2067 0
-2929 -3037 2068 0
-2929 -3038 2069 0
-2929 -3039 2070 0
-2929 -3040 2071 0
-2930 -2983 2015 0
-2930 -2984 2016 0
-2930 -2985 2017 0
-2930 -2986 2018 0
-2930 -2987 2019 0
-2930 -2988 2020 0
-2930 -2989 2021 0
-2930 -2990 2022 0
-2930 -2991 2023 0
-2930 -2992 2024 0
-2930 -2993 2025 0
-2930 -2994 2026 0
-2930 -2995 2027 0
-2930 -2996 2028 0
-2930 -2997 2029 0
-2930 -2998 2030 0
-2930 -2999 2031 0
-2930 -3000 2032 0
-2930 -3001 2033 0
-2930 -3002 2034 0
-2930 -3003 2035 0
-2930 -3004 2036 0
-2930 -3005 2037 0
-2930 -3006 2038 0
-2930 -3007 2039 0
-2930 -3008 2040 0
-2930 -3009 2041 0
-2930 -3010 2042 0
-2930 -3011 2043 0
-2930 -3012 2044 0
-2930 -3013 2045 0
-2930 -3014 2046 0
-2930 -3015 2047 0
-2930 -3016 2048 0
-2930 -3017 2049 0
-2930 -3018 2050 0
-2930 -3019 2051 0
-2930 -3020 2052 0
-2930 -3021 2053 0
-2930 -3022 2054 0
-2930 -3023 2055 0
-2930 -3024 2056 0
-2930 -3025 2057 0
-2930 -3026 2058 0
-2930 -3027 2059 0
-2930 -3028 2060 0
-2930 -3029 2061 0
-2930 -3030 2062 0
-2930 -3031 2063 0
-2930 -3032 2064 0
-2930 -3033 2065 0
-2930 -3034 2066 0
-2930 -3035 2067 0
-2930 -3036 2068 0
-2930 -3037 2069 0
-2930 -3038 2070 0
-2930 -3039 2071 0
-2930 -3040 2072 0
-2931 -2983 2016 0
-2931 -2984 2017 0
-2931 -2985 2018 0
-2931 -2986 2019 0
-2931 -2987 2020 0
-2931 -2988 2021 0
-2931 -2989 2022 0
-2931 -2990 2023 0
-2931 -2991 2024 0
-2931 -2992 2025 0
-2931 -2993 2026 0
-2931 -2994 2027 0
-2931 -2995 2028 0
-2931 -2996 2029 0
-2931 -2997 2030 0
-2931 -2998 2031 0
-2931 -2999 2032 0
-2931 -3000 2033 0
-2931 -3001 2034 0
-2931 -3002 2035 0
-2931 -3003 2036 0
-2931 -3004 2037 0
-2931 -3005 2038 0
-2931 -3006 2039 0
-2931 -3007 2040 0
-2931 -3008 2041 0
-2931 -3009 2042 0
-2931 -3010 2043 0
-2931 -3011 2044 0
-2931 -3012 2045 0
-2931 -3013 2046 0
-2931 -3014 2047 0
-2931 -3015 2048 0
-2931 -3016 2049 0
-2931 -3017 2050 0
-2931 -3018 2051 0
-2931 -3019 2052 0
-2931 -3020 2053 0
-2931 -3021 2054 0
-2931 -3022 2055 0
-2931 -3023 2056 0
-2931 -3024 2057 0
-2931 -3025 2058 0
-2931 -3026 2059 0
-2931 -3027 2060 0
-2931 -3028 2061 0
-2931 -3029 2062 0
-2931 -3030 2063 0
-2931 -3031 2064 0
-2931 -3032 2065 0
-2931 -3033 2066 0
-2931 -3034 2067 0
-2931 -3035 2068 0
-2931 -3036 2069 0
-2931 -3037 2070 0
-2931 -3038 2071 0
-2931 -3039 2072 0
-2931 -3040 2073 0
-2932 -2983 2017 0
-2932 -2984 2018 0
-2932 -2985 2019 0
-2932 -2986 2020 0
-2932 -2987 2021 0
-2932 -2988 2022 0
-2932 -2989 2023 0
-2932 -2990 2024 0
-2932 -2991 2025 0
-2932 -2992 2026 0
-2932 -2993 2027 0
-2932 -2994 2028 0
-2932 -2995 2029 0
-2932 -2996 2030 0
-2932 -2997 2031 0
-2932 -2998 2032 0
-2932 -2999 2033 0
-2932 -3000 2034 0
-2932 -3001 2035 0
-2932 -3002 2036 0
-2932 -3003 2037 0
-2932 -3004 2038 0
-2932 -3005 2039 0
-2932 -3006 2040 0
-2932 -3007 2041 0
-2932 -3008 2042 0
-2932 -3009 2043 0
-2932 -3010 2044 0
-2932 -3011 2045 0
-2932 -3012 2046 0
-2932 -3013 2047 0
-2932 -3014 2048 0
-2932 -3015 2049 0
-2932 -3016 2050 0
-2932 -3017 2051 0
-2932 -3018 2052 0
-2932 -3019 2053 0
-2932 -3020 2054 0
-2932 -3021 2055 0
-2932 -3022 2056 0
-2932 -3023 2057 0
-2932 -3024 2058 0
-2932 -3025 2059 0
-2932 -3026 2060 0
-2932 -3027 2061 0
-2932 -3028 2062 0
-2932 -3029 2063 0
-2932 -3030 2064 0
-2932 -3031 2065 0
-2932 -3032 2066 0
-2932 -3033 2067 0
-2932 -3034 2068 0
-2932 -3035 2069 0
-2932 -3036 2070 0
-2932 -3037 2071 0
-2932 -3038 2072 0
-2932 -3039 2073 0
-2932 -3040 2074 0
-2933 -2983 2018 0
-2933 -2984 2019 0
-2933 -2985 2020 0
-2933 -2986 2021 0
-2933 -2987 2022 0
-2933 -2988 2023 0
-2933 -2989 2024 0
-2933 -2990 2025 0
-2933 -2991 2026 0
-2933 -2992 2027 0
-2933 -2993 2028 0
-2933 -2994 2029 0
-2933 -2995 2030 0
-2933 -2996 2031 0
-2933 -2997 2032 0
-2933 -2998 2033 0
-2933 -2999 2034 0
-2933 -3000 2035 0
-2933 -3001 2036 0
-2933 -3002 2037 0
-2933 -3003 2038 0
-2933 -3004 2039 0
-2933 -3005 2040 0
-2933 -3006 2041 0
-2933 -3007 2042 0
-2933 -3008 2043 0
-2933 -3009 2044 0
-2933 -3010 2045 0
-2933 -3011 2046 0
-2933 -3012 2047 0
-2933 -3013 2048 0
-2933 -3014 2049 0
-2933 -3015 2050 0
-2933 -3016 2051 0
-2933 -3017 2052 0
-2933 -3018 2053 0
-2933 -3019 2054 0
-2933 -3020 2055 0
-2933 -3021 2056 0
-2933 -3022 2057 0
-2933 -3023 2058 0
-2933 -3024 2059 0
-2933 -3025 2060 0
-2933 -3026 2061 0
-2933 -3027 2062 0
-2933 -3028 2063 0
-2933 -3029 2064 0
-2933 -3030 2065 0
-2933 -3031 2066 0
-2933 -3032 2067 0
-2933 -3033 2068 0
-2933 -3034 2069 0
-2933 -3035 2070 0
-2933 -3036 2071 0
-2933 -3037 2072 0
-2933 -3038 2073 0
-2933 -3039 2074 0
-2933 -3040 2075 0
-2934 -2983 2019 0
-2934 -2984 2020 0
-2934 -2985 2021 0
-2934 -2986 2022 0
-2934 -2987 2023 0
-2934 -2988 2024 0
-2934 -2989 2025 0
-2934 -2990 2026 0
-2934 -2991 2027 0
-2934 -2992 2028 0
-2934 -2993 2029 0
-2934 -2994 2030 0
-2934 -2995 2031 0
-2934 -2996 2032 0
-2934 -2997 2033 0
-2934 -2998 2034 0
-2934 -2999 2035 0
-2934 -3000 2036 0
-2934 -3001 2037 0
-2934 -3002 2038 0
-2934 -3003 2039 0
-2934 -3004 2040 0
-2934 -3005 2041 0
-2934 -3006 2042 0
-2934 -3007 2043 0
-2934 -3008 2044 0
-2934 -3009 2045 0
-2934 -3010 2046 0
-2934 -3011 2047 0
-2934 -3012 2048 0
-2934 -3013 2049 0
-2934 -3014 2050 0
-2934 -3015 2051 0
-2934 -3016 2052 0
-2934 -3017 2053 0
-2934 -3018 2054 0
-2934 -3019 2055 0
-2934 -3020 2056 0
-2934 -3021 2057 0
-2934 -3022 2058 0
-2934 -3023 2059 0
-2934 -3024 2060 0
-2934 -3025 2061 0
-2934 -3026 2062 0
-2934 -3027 2063 0
-2934 -3028 2064 0
-2934 -3029 2065 0
-2934 -3030 2066 0
-2934 -3031 2067 0
-2934 -3032 2068 0
-2934 -3033 2069 0
-2934 -3034 2070 0
-2934 -3035 2071 0
-2934 -3036 2072 0
-2934 -3037 2073 0
-2934 -3038 2074 0
-2934 -3039 2075 0
-2934 -3040 2076 0
-2935 -2983 2020 0
-2935 -2984 2021 0
-2935 -2985 2022 0
-2935 -2986 2023 0
-2935 -2987 2024 0
-2935 -2988 2025 0
-2935 -2989 2026 0
-2935 -2990 2027 0
-2935 -2991 2028 0
-2935 -2992 2029 0
-2935 -2993 2030 0
-2935 -2994 2031 0
-2935 -2995 2032 0
-2935 -2996 2033 0
-2935 -2997 2034 0
-2935 -2998 2035 0
-2935 -2999 2036 0
-2935 -3000 2037 0
-2935 -3001 2038 0
-2935 -3002 2039 0
-2935 -3003 2040 0
-2935 -3004 2041 0
-2935 -3005 2042 0
-2935 -3006 2043 0
-2935 -3007 2044 0
-2935 -3008 2045 0
-2935 -3009 2046 0
-2935 -3010 2047 0
-2935 -3011 2048 0
-2935 -3012 2049 0
-2935 -3013 2050 0
-2935 -3014 2051 0
-2935 -3015 2052 0
-2935 -3016 2053 0
-2935 -3017 2054 0
-2935 -3018 2055 0
-2935 -3019 2056 0
-2935 -3020 2057 0
-2935 -3021 2058 0
-2935 -3022 2059 0
-2935 -3023 2060 0
-2935 -3024 2061 0
-2935 -3025 2062 0
-2935 -3026 2063 0
-2935 -3027 2064 0
-2935 -3028 2065 0
-2935 -3029 2066 0
-2935 -3030 2067 0
-2935 -3031 2068 0
-2935 -3032 2069 0
-2935 -3033 2070 0
-2935 -3034 2071 0
-2935 -3035 2072 0
-2935 -3036 2073 0
-2935 -3037 2074 0
-2935 -3038 2075 0
-2935 -3039 2076 0
-2935 -3040 2077 0
-2936 -2983 2021 0
-2936 -2984 2022 0
-2936 -2985 2023 0
-2936 -2986 2024 0
-2936 -2987 2025 0
-2936 -2988 2026 0
-2936 -2989 2027 0
-2936 -2990 2028 0
-2936 -2991 2029 0
-2936 -2992 2030 0
-2936 -2993 2031 0
-2936 -2994 2032 0
-2936 -2995 2033 0
-2936 -2996 2034 0
-2936 -2997 2035 0
-2936 -2998 2036 0
-2936 -2999 2037 0
-2936 -3000 2038 0
-2936 -3001 2039 0
-2936 -3002 2040 0
-2936 -3003 2041 0
-2936 -3004 2042 0
-2936 -3005 2043 0
-2936 -3006 2044 0
-2936 -3007 2045 0
-2936 -3008 2046 0
-2936 -3009 2047 0
-2936 -3010 2048 0
-2936 -3011 2049 0
-2936 -3012 2050 0
-2936 -3013 2051 0
-2936 -3014 2052 0
-2936 -3015 2053 0
-2936 -3016 2054 0
-2936 -3017 2055 0
-2936 -3018 2056 0
-2936 -3019 2057 0
-2936 -3020 2058 0
-2936 -3021 2059 0
-2936 -3022 2060 0
-2936 -3023 2061 0
-2936 -3024 2062 0
-2936 -3025 2063 0
-2936 -3026 2064 0
-2936 -3027 2065 0
-2936 -3028 2066 0
-2936 -3029 2067 0
-2936 -3030 2068 0
-2936 -3031 2069 0
-2936 -3032 2070 0
-2936 -3033 2071 0
-2936 -3034 2072 0
-2936 -3035 2073 0
-2936 -3036 2074 0
-2936 -3037 2075 0
-2936 -3038 2076 0
-2936 -3039 2077 0
-2936 -3040 2078 0
-2937 -2983 2022 0
-2937 -2984 2023 0
-2937 -2985 2024 0
-2937 -2986 2025 0
-2937 -2987 2026 0
-2937 -2988 2027 0
-2937 -2989 2028 0
-2937 -2990 2029 0
-2937 -2991 2030 0
-2937 -2992 2031 0
-2937 -2993 2032 0
-2937 -2994 2033 0
-2937 -2995 2034 0
-2937 -2996 2035 0
-2937 -2997 2036 0
-2937 -2998 2037 0
-2937 -2999 2038 0
-2937 -3000 2039 0
-2937 -3001 2040 0
-2937 -3002 2041 0
-2937 -3003 2042 0
-2937 -3004 2043 0
-2937 -3005 2044 0
-2937 -3006 2045 0
-2937 -3007 2046 0
-2937 -3008 2047 0
-2937 -3009 2048 0
-2937 -3010 2049 0
-2937 -3011 2050 0
-2937 -3012 2051 0
-2937 -3013 2052 0
-2937 -3014 2053 0
-2937 -3015 2054 0
-2937 -3016 2055 0
-2937 -3017 2056 0
-2937 -3018 2057 0
-2937 -3019 2058 0
-2937 -3020 2059 0
-2937 -3021 2060 0
-2937 -3022 2061 0
-2937 -3023 2062 0
-2937 -3024 2063 0
-2937 -3025 2064 0
-2937 -3026 2065 0
-2937 -3027 2066 0
-2937 -3028 2067 0
-2937 -3029 2068 0
-2937 -3030 2069 0
-2937 -3031 2070 0
-2937 -3032 2071 0
-2937 -3033 2072 0
-2937 -3034 2073 0
-2937 -3035 2074 0
-2937 -3036 2075 0
-2937 -3037 2076 0
-2937 -3038 2077 0
-2937 -3039 2078 0
-2937 -3040 2079 0
-2938 -2983 2023 0
-2938 -2984 2024 0
-2938 -2985 2025 0
-2938 -2986 2026 0
-2938 -2987 2027 0
-2938 -2988 2028 0
-2938 -2989 2029 0
-2938 -2990 2030 0
-2938 -2991 2031 0
-2938 -2992 2032 0
-2938 -2993 2033 0
-2938 -2994 2034 0
-2938 -2995 2035 0
-2938 -2996 2036 0
-2938 -2997 2037 0
-2938 -2998 2038 0
-2938 -2999 2039 0
-2938 -3000 2040 0
-2938 -3001 2041 0
-2938 -3002 2042 0
-2938 -3003 2043 0
-2938 -3004 2044 0
-2938 -3005 2045 0
-2938 -3006 2046 0
-2938 -3007 2047 0
-2938 -3008 2048 0
-2938 -3009 2049 0
-2938 -3010 2050 0
-2938 -3011 2051 0
-2938 -3012 2052 0
-2938 -3013 2053 0
-2938 -3014 2054 0
-2938 -3015 2055 0
-2938 -3016 2056 0
-2938 -3017 2057 0
-2938 -3018 2058 0
-2938 -3019 2059 0
-2938 -3020 2060 0
-2938 -3021 2061 0
-2938 -3022 2062 0
-2938 -3023 2063 0
-2938 -3024 2064 0
-2938 -3025 2065 0
-2938 -3026 2066 0
-2938 -3027 2067 0
-2938 -3028 2068 0
-2938 -3029 2069 0
-2938 -3030 2070 0
-2938 -3031 2071 0
-2938 -3032 2072 0
-2938 -3033 2073 0
-2938 -3034 2074 0
-2938 -3035 2075 0
-2938 -3036 2076 0
-2938 -3037 2077 0
-2938 -3038 2078 0
-2938 -3039 2079 0
-2938 -3040 2080 0
-2939 -2983 2024 0
-2939 -2984 2025 0
-2939 -2985 2026 0
-2939 -2986 2027 0
-2939 -2987 2028 0
-2939 -2988 2029 0
-2939 -2989 2030 0
-2939 -2990 2031 0
-2939 -2991 2032 0
-2939 -2992 2033 0
-2939 -2993 2034 0
-2939 -2994 2035 0
-2939 -2995 2036 0
-2939 -2996 2037 0
-2939 -2997 2038 0
-2939 -2998 2039 0
-2939 -2999 2040 0
-2939 -3000 2041 0
-2939 -3001 2042 0
-2939 -3002 2043 0
-2939 -3003 2044 0
-2939 -3004 2045 0
-2939 -3005 2046 0
-2939 -3006 2047 0
-2939 -3007 2048 0
-2939 -3008 2049 0
-2939 -3009 2050 0
-2939 -3010 2051 0
-2939 -3011 2052 0
-2939 -3012 2053 0
-2939 -3013 2054 0
-2939 -3014 2055 0
-2939 -3015 2056 0
-2939 -3016 2057 0
-2939 -3017 2058 0
-2939 -3018 2059 0
-2939 -3019 2060 0
-2939 -3020 2061 0
-2939 -3021 2062 0
-2939 -3022 2063 0
-2939 -3023 2064 0
-2939 -3024 2065 0
-2939 -3025 2066 0
-2939 -3026 2067 0
-2939 -3027 2068 0
-2939 -3028 2069 0
-2939 -3029 2070 0
-2939 -3030 2071 0
-2939 -3031 2072 0
-2939 -3032 2073 0
-2939 -3033 2074 0
-2939 -3034 2075 0
-2939 -3035 2076 0
-2939 -3036 2077 0
-2939 -3037 2078 0
-2939 -3038 2079 0
-2939 -3039 2080 0
-2939 -3040 2081 0
-2940 -2983 2025 0
-2940 -2984 2026 0
-2940 -2985 2027 0
-2940 -2986 2028 0
-2940 -2987 2029 0
-2940 -2988 2030 0
-2940 -2989 2031 0
-2940 -2990 2032 0
-2940 -2991 2033 0
-2940 -2992 2034 0
-2940 -2993 2035 0
-2940 -2994 2036 0
-2940 -2995 2037 0
-2940 -2996 2038 0
-2940 -2997 2039 0
-2940 -2998 2040 0
-2940 -2999 2041 0
-2940 -3000 2042 0
-2940 -3001 2043 0
-2940 -3002 2044 0
-2940 -3003 2045 0
-2940 -3004 2046 0
-2940 -3005 2047 0
-2940 -3006 2048 0
-2940 -3007 2049 0
-2940 -3008 2050 0
-2940 -3009 2051 0
-2940 -3010 2052 0
-2940 -3011 2053 0
-2940 -3012 2054 0
-2940 -3013 2055 0
-2940 -3014 2056 0
-2940 -3015 2057 0
-2940 -3016 2058 0
-2940 -3017 2059 0
-2940 -3018 2060 0
-2940 -3019 2061 0
-2940 -3020 2062 0
-2940 -3021 2063 0
-2940 -3022 2064 0
-2940 -3023 2065 0
-2940 -3024 2066 0
-2940 -3025 2067 0
-2940 -3026 2068 0
-2940 -3027 2069 0
-2940 -3028 2070 0
-2940 -3029 2071 0
-2940 -3030 2072 0
-2940 -3031 2073 0
-2940 -3032 2074 0
-2940 -3033 2075 0
-2940 -3034 2076 0
-2940 -3035 2077 0
-2940 -3036 2078 0
-2940 -3037 2079 0
-2940 -3038 2080 0
-2940 -3039 2081 0
-2940 -3040 2082 0
-2941 -2983 2026 0
-2941 -2984 2027 0
-2941 -2985 2028 0
-2941 -2986 2029 0
-2941 -2987 2030 0
-2941 -2988 2031 0
-2941 -2989 2032 0
-2941 -2990 2033 0
-2941 -2991 2034 0
-2941 -2992 2035 0
-2941 -2993 2036 0
-2941 -2994 2037 0
-2941 -2995 2038 0
-2941 -2996 2039 0
-2941 -2997 2040 0
-2941 -2998 2041 0
-2941 -2999 2042 0
-2941 -3000 2043 0
-2941 -3001 2044 0
-2941 -3002 2045 0
-2941 -3003 2046 0
-2941 -3004 2047 0
-2941 -3005 2048 0
-2941 -3006 2049 0
-2941 -3007 2050 0
-2941 -3008 2051 0
-2941 -3009 2052 0
-2941 -3010 2053 0
-2941 -3011 2054 0
-2941 -3012 2055 0
-2941 -3013 2056 0
-2941 -3014 2057 0
-2941 -3015 2058 0
-2941 -3016 2059 0
-2941 -3017 2060 0
-2941 -3018 2061 0
-2941 -3019 2062 0
-2941 -3020 2063 0
-2941 -3021 2064 0
-2941 -3022 2065 0
-2941 -3023 2066 0
-2941 -3024 2067 0
-2941 -3025 2068 0
-2941 -3026 2069 0
-2941 -3027 2070 0
-2941 -3028 2071 0
-2941 -3029 2072 0
-2941 -3030 2073 0
-2941 -3031 2074 0
-2941 -3032 2075 0
-2941 -3033 2076 0
-2941 -3034 2077 0
-2941 -3035 2078 0
-2941 -3036 2079 0
-2941 -3037 2080 0
-2941 -3038 2081 0
-2941 -3039 2082 0
-2941 -3040 2083 0
-2942 -2983 2027 0
-2942 -2984 2028 0
-2942 -2985 2029 0
-2942 -2986 2030 0
-2942 -2987 2031 0
-2942 -2988 2032 0
-2942 -2989 2033 0
-2942 -2990 2034 0
-2942 -2991 2035 0
-2942 -2992 2036 0
-2942 -2993 2037 0
-2942 -2994 2038 0
-2942 -2995 2039 0
-2942 -2996 2040 0
-2942 -2997 2041 0
-2942 -2998 2042 0
-2942 -2999 2043 0
-2942 -3000 2044 0
-2942 -3001 2045 0
-2942 -3002 2046 0
-2942 -3003 2047 0
-2942 -3004 2048 0
-2942 -3005 2049 0
-2942 -3006 2050 0
-2942 -3007 2051 0
-2942 -3008 2052 0
-2942 -3009 2053 0
-2942 -3010 2054 0
-2942 -3011 2055 0
-2942 -3012 2056 0
-2942 -3013 2057 0
-2942 -3014 2058 0
-2942 -3015 2059 0
-2942 -3016 2060 0
-2942 -3017 2061 0
-2942 -3018 2062 0
-2942 -3019 2063 0
-2942 -3020 2064 0
-2942 -3021 2065 0
-2942 -3022 2066 0
-2942 -3023 2067 0
-2942 -3024 2068 0
-2942 -3025 2069 0
-2942 -3026 2070 0
-2942 -3027 2071 0
-2942 -3028 2072 0
-2942 -3029 2073 0
-2942 -3030 2074 0
-2942 -3031 2075 0
-2942 -3032 2076 0
-2942 -3033 2077 0
-2942 -3034 2078 0
-2942 -3035 2079 0
-2942 -3036 2080 0
-2942 -3037 2081 0
-2942 -3038 2082 0
-2942 -3039 2083 0
-2942 -3040 2084 0
-2943 -2983 2028 0
-2943 -2984 2029 0
-2943 -2985 2030 0
-2943 -2986 2031 0
-2943 -2987 2032 0
-2943 -2988 2033 0
-2943 -2989 2034 0
-2943 -2990 2035 0
-2943 -2991 2036 0
-2943 -2992 2037 0
-2943 -2993 2038 0
-2943 -2994 2039 0
-2943 -2995 2040 0
-2943 -2996 2041 0
-2943 -2997 2042 0
-2943 -2998 2043 0
-2943 -2999 2044 0
-2943 -3000 2045 0
-2943 -3001 2046 0
-2943 -3002 2047 0
-2943 -3003 2048 0
-2943 -3004 2049 0
-2943 -3005 2050 0
-2943 -3006 2051 0
-2943 -3007 2052 0
-2943 -3008 2053 0
-2943 -3009 2054 0
-2943 -3010 2055 0
-2943 -3011 2056 0
-2943 -3012 2057 0
-2943 -3013 2058 0
-2943 -3014 2059 0
-2943 -3015 2060 0
-2943 -3016 2061 0
-2943 -3017 2062 0
-2943 -3018 2063 0
-2943 -3019 2064 0
-2943 -3020 2065 0
-2943 -3021 2066 0
-2943 -3022 2067 0
-2943 -3023 2068 0
-2943 -3024 2069 0
-2943 -3025 2070 0
-2943 -3026 2071 0
-2943 -3027 2072 0
-2943 -3028 2073 0
-2943 -3029 2074 0
-2943 -3030 2075 0
-2943 -3031 2076 0
-2943 -3032 2077 0
-2943 -3033 2078 0
-2943 -3034 2079 0
-2943 -3035 2080 0
-2943 -3036 2081 0
-2943 -3037 2082 0
-2943 -3038 2083 0
-2943 -3039 2084 0
-2943 -3040 2085 0
-2944 -2983 2029 0
-2944 -2984 2030 0
-2944 -2985 2031 0
-2944 -2986 2032 0
-2944 -2987 2033 0
-2944 -2988 2034 0
-2944 -2989 2035 0
-2944 -2990 2036 0
-2944 -2991 2037 0
-2944 -2992 2038 0
-2944 -2993 2039 0
-2944 -2994 2040 0
-2944 -2995 2041 0
-2944 -2996 2042 0
-2944 -2997 2043 0
-2944 -2998 2044 0
-2944 -2999 2045 0
-2944 -3000 2046 0
-2944 -3001 2047 0
-2944 -3002 2048 0
-2944 -3003 2049 0
-2944 -3004 2050 0
-2944 -3005 2051 0
-2944 -3006 2052 0
-2944 -3007 2053 0
-2944 -3008 2054 0
-2944 -3009 2055 0
-2944 -3010 2056 0
-2944 -3011 2057 0
-2944 -3012 2058 0
-2944 -3013 2059 0
-2944 -3014 2060 0
-2944 -3015 2061 0
-2944 -3016 2062 0
-2944 -3017 2063 0
-2944 -3018 2064 0
-2944 -3019 2065 0
-2944 -3020 2066 0
-2944 -3021 2067 0
-2944 -3022 2068 0
-2944 -3023 2069 0
-2944 -3024 2070 0
-2944 -3025 2071 0
-2944 -3026 2072 0
-2944 -3027 2073 0
-2944 -3028 2074 0
-2944 -3029 2075 0
-2944 -3030 2076 0
-2944 -3031 2077 0
-2944 -3032 2078 0
-2944 -3033 2079 0
-2944 -3034 2080 0
-2944 -3035 2081 0
-2944 -3036 2082 0
-2944 -3037 2083 0
-2944 -3038 2084 0
-2944 -3039 2085 0
-2944 -3040 2086 0
-2945 -2983 2030 0
-2945 -2984 2031 0
-2945 -2985 2032 0
-2945 -2986 2033 0
-2945 -2987 2034 0
-2945 -2988 2035 0
-2945 -2989 2036 0
-2945 -2990 2037 0
-2945 -2991 2038 0
-2945 -2992 2039 0
-2945 -2993 2040 0
-2945 -2994 2041 0
-2945 -2995 2042 0
-2945 -2996 2043 0
-2945 -2997 2044 0
-2945 -2998 2045 0
-2945 -2999 2046 0
-2945 -3000 2047 0
-2945 -3001 2048 0
-2945 -3002 2049 0
-2945 -3003 2050 0
-2945 -3004 2051 0
-2945 -3005 2052 0
-2945 -3006 2053 0
-2945 -3007 2054 0
-2945 -3008 2055 0
-2945 -3009 2056 0
-2945 -3010 2057 0
-2945 -3011 2058 0
-2945 -3012 2059 0
-2945 -3013 2060 0
-2945 -3014 2061 0
-2945 -3015 2062 0
-2945 -3016 2063 0
-2945 -3017 2064 0
-2945 -3018 2065 0
-2945 -3019 2066 0
-2945 -3020 2067 0
-2945 -3021 2068 0
-2945 -3022 2069 0
-2945 -3023 2070 0
-2945 -3024 2071 0
-2945 -3025 2072 0
-2945 -3026 2073 0
-2945 -3027 2074 0
-2945 -3028 2075 0
-2945 -3029 2076 0
-2945 -3030 2077 0
-2945 -3031 2078 0
-2945 -3032 2079 0
-2945 -3033 2080 0
-2945 -3034 2081 0
-2945 -3035 2082 0
-2945 -3036 2083 0
-2945 -3037 2084 0
-2945 -3038 2085 0
-2945 -3039 2086 0
-2945 -3040 2087 0
-2946 -2983 2031 0
-2946 -2984 2032 0
-2946 -2985 2033 0
-2946 -2986 2034 0
-2946 -2987 2035 0
-2946 -2988 2036 0
-2946 -2989 2037 0
-2946 -2990 2038 0
-2946 -2991 2039 0
-2946 -2992 2040 0
-2946 -2993 2041 0
-2946 -2994 2042 0
-2946 -2995 2043 0
-2946 -2996 2044 0
-2946 -2997 2045 0
-2946 -2998 2046 0
-2946 -2999 2047 0
-2946 -3000 2048 0
-2946 -3001 2049 0
-2946 -3002 2050 0
-2946 -3003 2051 0
-2946 -3004 2052 0
-2946 -3005 2053 0
-2946 -3006 2054 0
-2946 -3007 2055 0
-2946 -3008 2056 0
-2946 -3009 2057 0
-2946 -3010 2058 0
-2946 -3011 2059 0
-2946 -3012 2060 0
-2946 -3013 2061 0
-2946 -3014 2062 0
-2946 -3015 2063 0
-2946 -3016 2064 0
-2946 -3017 2065 0
-2946 -3018 2066 0
-2946 -3019 2067 0
-2946 -3020 2068 0
-2946 -3021 2069 0
-2946 -3022 2070 0
-2946 -3023 2071 0
-2946 -3024 2072 0
-2946 -3025 2073 0
-2946 -3026 2074 0
-2946 -3027 2075 0
-2946 -3028 2076 0
-2946 -3029 2077 0
-2946 -3030 2078 0
-2946 -3031 2079 0
-2946 -3032 2080 0
-2946 -3033 2081 0
-2946 -3034 2082 0
-2946 -3035 2083 0
-2946 -3036 2084 0
-2946 -3037 2085 0
-2946 -3038 2086 0
-2946 -3039 2087 0
-2946 -3040 2088 0
-2947 -2983 2032 0
-2947 -2984 2033 0
-2947 -2985 2034 0
-2947 -2986 2035 0
-2947 -2987 2036 0
-2947 -2988 2037 0
-2947 -2989 2038 0
-2947 -2990 2039 0
-2947 -2991 2040 0
-2947 -2992 2041 0
-2947 -2993 2042 0
-2947 -2994 2043 0
-2947 -2995 2044 0
-2947 -2996 2045 0
-2947 -2997 2046 0
-2947 -2998 2047 0
-2947 -2999 2048 0
-2947 -3000 2049 0
-2947 -3001 2050 0
-2947 -3002 2051 0
-2947 -3003 2052 0
-2947 -3004 2053 0
-2947 -3005 2054 0
-2947 -3006 2055 0
-2947 -3007 2056 0
-2947 -3008 2057 0
-2947 -3009 2058 0
-2947 -3010 2059 0
-2947 -3011 2060 0
-2947 -3012 2061 0
-2947 -3013 2062 0
-2947 -3014 2063 0
-2947 -3015 2064 0
-2947 -3016 2065 0
-2947 -3017 2066 0
-2947 -3018 2067 0
-2947 -3019 2068 0
-2947 -3020 2069 0
-2947 -3021 2070 0
-2947 -3022 2071 0
-2947 -3023 2072 0
-2947 -3024 2073 0
-2947 -3025 2074 0
-2947 -3026 2075 0
-2947 -3027 2076 0
-2947 -3028 2077 0
-2947 -3029 2078 0
-2947 -3030 2079 0
-2947 -3031 2080 0
-2947 -3032 2081 0
-2947 -3033 2082 0
-2947 -3034 2083 0
-2947 -3035 2084 0
-2947 -3036 2085 0
-2947 -3037 2086 0
-2947 -3038 2087 0
-2947 -3039 2088 0
-2947 -3040 2089 0
-2948 -2983 2033 0
-2948 -2984 2034 0
-2948 -2985 2035 0
-2948 -2986 2036 0
-2948 -2987 2037 0
-2948 -2988 2038 0
-2948 -2989 2039 0
-2948 -2990 2040 0
-2948 -2991 2041 0
-2948 -2992 2042 0
-2948 -2993 2043 0
-2948 -2994 2044 0
-2948 -2995 2045 0
-2948 -2996 2046 0
-2948 -2997 2047 0
-2948 -2998 2048 0
-2948 -2999 2049 0
-2948 -3000 2050 0
-2948 -3001 2051 0
-2948 -3002 2052 0
-2948 -3003 2053 0
-2948 -3004 2054 0
-2948 -3005 2055 0
-2948 -3006 2056 0
-2948 -3007 2057 0
-2948 -3008 2058 0
-2948 -3009 2059 0
-2948 -3010 2060 0
-2948 -3011 2061 0
-2948 -3012 2062 0
-2948 -3013 2063 0
-2948 -3014 2064 0
-2948 -3015 2065 0
-2948 -3016 2066 0
-2948 -3017 2067 0
-2948 -3018 2068 0
-2948 -3019 2069 0
-2948 -3020 2070 0
-2948 -3021 2071 0
-2948 -3022 2072 0
-2948 -3023 2073 0
-2948 -3024 2074 0
-2948 -3025 2075 0
-2948 -3026 2076 0
-2948 -3027 2077 0
-2948 -3028 2078 0
-2948 -3029 2079 0
-2948 -3030 2080 0
-2948 -3031 2081 0
-2948 -3032 2082 0
-2948 -3033 2083 0
-2948 -3034 2084 0
-2948 -3035 2085 0
-2948 -3036 2086 0
-2948 -3037 2087 0
-2948 -3038 2088 0
-2948 -3039 2089 0
-2948 -3040 2090 0
-2949 -2983 2034 0
-2949 -2984 2035 0
-2949 -2985 2036 0
-2949 -2986 2037 0
-2949 -2987 2038 0
-2949 -2988 2039 0
-2949 -2989 2040 0
-2949 -2990 2041 0
-2949 -2991 2042 0
-2949 -2992 2043 0
-2949 -2993 2044 0
-2949 -2994 2045 0
-2949 -2995 2046 0
-2949 -2996 2047 0
-2949 -2997 2048 0
-2949 -2998 2049 0
-2949 -2999 2050 0
-2949 -3000 2051 0
-2949 -3001 2052 0
-2949 -3002 2053 0
-2949 -3003 2054 0
-2949 -3004 2055 0
-2949 -3005 2056 0
-2949 -3006 2057 0
-2949 -3007 2058 0
-2949 -3008 2059 0
-2949 -3009 2060 0
-2949 -3010 2061 0
-2949 -3011 2062 0
-2949 -3012 2063 0
-2949 -3013 2064 0
-2949 -3014 2065 0
-2949 -3015 2066 0
-2949 -3016 2067 0
-2949 -3017 2068 0
-2949 -3018 2069 0
-2949 -3019 2070 0
-2949 -3020 2071 0
-2949 -3021 2072 0
-2949 -3022 2073 0
-2949 -3023 2074 0
-2949 -3024 2075 0
-2949 -3025 2076 0
-2949 -3026 2077 0
-2949 -3027 2078 0
-2949 -3028 2079 0
-2949 -3029 2080 0
-2949 -3030 2081 0
-2949 -3031 2082 0
-2949 -3032 2083 0
-2949 -3033 2084 0
-2949 -3034 2085 0
-2949 -3035 2086 0
-2949 -3036 2087 0
-2949 -3037 2088 0
-2949 -3038 2089 0
-2949 -3039 2090 0
-2949 -3040 2091 0
-2950 -2983 2035 0
-2950 -2984 2036 0
-2950 -2985 2037 0
-2950 -2986 2038 0
-2950 -2987 2039 0
-2950 -2988 2040 0
-2950 -2989 2041 0
-2950 -2990 2042 0
-2950 -2991 2043 0
-2950 -2992 2044 0
-2950 -2993 2045 0
-2950 -2994 2046 0
-2950 -2995 2047 0
-2950 -2996 2048 0
-2950 -2997 2049 0
-2950 -2998 2050 0
-2950 -2999 2051 0
-2950 -3000 2052 0
-2950 -3001 2053 0
-2950 -3002 2054 0
-2950 -3003 2055 0
-2950 -3004 2056 0
-2950 -3005 2057 0
-2950 -3006 2058 0
-2950 -3007 2059 0
-2950 -3008 2060 0
-2950 -3009 2061 0
-2950 -3010 2062 0
-2950 -3011 2063 0
-2950 -3012 2064 0
-2950 -3013 2065 0
-2950 -3014 2066 0
-2950 -3015 2067 0
-2950 -3016 2068 0
-2950 -3017 2069 0
-2950 -3018 2070 0
-2950 -3019 2071 0
-2950 -3020 2072 0
-2950 -3021 2073 0
-2950 -3022 2074 0
-2950 -3023 2075 0
-2950 -3024 2076 0
-2950 -3025 2077 0
-2950 -3026 2078 0
-2950 -3027 2079 0
-2950 -3028 2080 0
-2950 -3029 2081 0
-2950 -3030 2082 0
-2950 -3031 2083 0
-2950 -3032 2084 0
-2950 -3033 2085 0
-2950 -3034 2086 0
-2950 -3035 2087 0
-2950 -3036 2088 0
-2950 -3037 2089 0
-2950 -3038 2090 0
-2950 -3039 2091 0
-2950 -3040 2092 0
-2951 -2983 2036 0
-2951 -2984 2037 0
-2951 -2985 2038 0
-2951 -2986 2039 0
-2951 -2987 2040 0
-2951 -2988 2041 0
-2951 -2989 2042 0
-2951 -2990 2043 0
-2951 -2991 2044 0
-2951 -2992 2045 0
-2951 -2993 2046 0
-2951 -2994 2047 0
-2951 -2995 2048 0
-2951 -2996 2049 0
-2951 -2997 2050 0
-2951 -2998 2051 0
-2951 -2999 2052 0
-2951 -3000 2053 0
-2951 -3001 2054 0
-2951 -3002 2055 0
-2951 -3003 2056 0
-2951 -3004 2057 0
-2951 -3005 2058 0
-2951 -3006 2059 0
-2951 -3007 2060 0
-2951 -3008 2061 0
-2951 -3009 2062 0
-2951 -3010 2063 0
-2951 -3011 2064 0
-2951 -3012 2065 0
-2951 -3013 2066 0
-2951 -3014 2067 0
-2951 -3015 2068 0
-2951 -3016 2069 0
-2951 -3017 2070 0
-2951 -3018 2071 0
-2951 -3019 2072 0
-2951 -3020 2073 0
-2951 -3021 2074 0
-2951 -3022 2075 0
-2951 -3023 2076 0
-2951 -3024 2077 0
-2951 -3025 2078 0
-2951 -3026 2079 0
-2951 -3027 2080 0
-2951 -3028 2081 0
-2951 -3029 2082 0
-2951 -3030 2083 0
-2951 -3031 2084 0
-2951 -3032 2085 0
-2951 -3033 2086 0
-2951 -3034 2087 0
-2951 -3035 2088 0
-2951 -3036 2089 0
-2951 -3037 2090 0
-2951 -3038 2091 0
-2951 -3039 2092 0
-2951 -3040 2093 0
-2952 -2983 2037 0
-2952 -2984 2038 0
-2952 -2985 2039 0
-2952 -2986 2040 0
-2952 -2987 2041 0
-2952 -2988 2042 0
-2952 -2989 2043 0
-2952 -2990 2044 0
-2952 -2991 2045 0
-2952 -2992 2046 0
-2952 -2993 2047 0
-2952 -2994 2048 0
-2952 -2995 2049 0
-2952 -2996 2050 0
-2952 -2997 2051 0
-2952 -2998 2052 0
-2952 -2999 2053 0
-2952 -3000 2054 0
-2952 -3001 2055 0
-2952 -3002 2056 0
-2952 -3003 2057 0
-2952 -3004 2058 0
-2952 -3005 2059 0
-2952 -3006 2060 0
-2952 -3007 2061 0
-2952 -3008 2062 0
-2952 -3009 2063 0
-2952 -3010 2064 0
-2952 -3011 2065 0
-2952 -3012 2066 0
-2952 -3013 2067 0
-2952 -3014 2068 0
-2952 -3015 2069 0
-2952 -3016 2070 0
-2952 -3017 2071 0
-2952 -3018 2072 0
-2952 -3019 2073 0
-2952 -3020 2074 0
-2952 -3021 2075 0
-2952 -3022 2076 0
-2952 -3023 2077 0
-2952 -3024 2078 0
-2952 -3025 2079 0
-2952 -3026 2080 0
-2952 -3027 2081 0
-2952 -3028 2082 0
-2952 -3029 2083 0
-2952 -3030 2084 0
-2952 -3031 2085 0
-2952 -3032 2086 0
-2952 -3033 2087 0
-2952 -3034 2088 0
-2952 -3035 2089 0
-2952 -3036 2090 0
-2952 -3037 2091 0
-2952 -3038 2092 0
-2952 -3039 2093 0
-2952 -3040 2094 0
-2953 -2983 2038 0
-2953 -2984 2039 0
-2953 -2985 2040 0
-2953 -2986 2041 0
-2953 -2987 2042 0
-2953 -2988 2043 0
-2953 -2989 2044 0
-2953 -2990 2045 0
-2953 -2991 2046 0
-2953 -2992 2047 0
-2953 -2993 2048 0
-2953 -2994 2049 0
-2953 -2995 2050 0
-2953 -2996 2051 0
-2953 -2997 2052 0
-2953 -2998 2053 0
-2953 -2999 2054 0
-2953 -3000 2055 0
-2953 -3001 2056 0
-2953 -3002 2057 0
-2953 -3003 2058 0
-2953 -3004 2059 0
-2953 -3005 2060 0
-2953 -3006 2061 0
-2953 -3007 2062 0
-2953 -3008 2063 0
-2953 -3009 2064 0
-2953 -3010 2065 0
-2953 -3011 2066 0
-2953 -3012 2067 0
-2953 -3013 2068 0
-2953 -3014 2069 0
-2953 -3015 2070 0
-2953 -3016 2071 0
-2953 -3017 2072 0
-2953 -3018 2073 0
-2953 -3019 2074 0
-2953 -3020 2075 0
-2953 -3021 2076 0
-2953 -3022 2077 0
-2953 -3023 2078 0
-2953 -3024 2079 0
-2953 -3025 2080 0
-2953 -3026 2081 0
-2953 -3027 2082 0
-2953 -3028 2083 0
-2953 -3029 2084 0
-2953 -3030 2085 0
-2953 -3031 2086 0
-2953 -3032 2087 0
-2953 -3033 2088 0
-2953 -3034 2089 0
-2953 -3035 2090 0
-2953 -3036 2091 0
-2953 -3037 2092 0
-2953 -3038 2093 0
-2953 -3039 2094 0
-2953 -3040 2095 0
-2954 -2983 2039 0
-2954 -2984 2040 0
-2954 -2985 2041 0
-2954 -2986 2042 0
-2954 -2987 2043 0
-2954 -2988 2044 0
-2954 -2989 2045 0
-2954 -2990 2046 0
-2954 -2991 2047 0
-2954 -2992 2048 0
-2954 -2993 2049 0
-2954 -2994 2050 0
-2954 -2995 2051 0
-2954 -2996 2052 0
-2954 -2997 2053 0
-2954 -2998 2054 0
-2954 -2999 2055 0
-2954 -3000 2056 0
-2954 -3001 2057 0
-2954 -3002 2058 0
-2954 -3003 2059 0
-2954 -3004 2060 0
-2954 -3005 2061 0
-2954 -3006 2062 0
-2954 -3007 2063 0
-2954 -3008 2064 0
-2954 -3009 2065 0
-2954 -3010 2066 0
-2954 -3011 2067 0
-2954 -3012 2068 0
-2954 -3013 2069 0
-2954 -3014 2070 0
-2954 -3015 2071 0
-2954 -3016 2072 0
-2954 -3017 2073 0
-2954 -3018 2074 0
-2954 -3019 2075 0
-2954 -3020 2076 0
-2954 -3021 2077 0
-2954 -3022 2078 0
-2954 -3023 2079 0
-2954 -3024 2080 0
-2954 -3025 2081 0
-2954 -3026 2082 0
-2954 -3027 2083 0
-2954 -3028 2084 0
-2954 -3029 2085 0
-2954 -3030 2086 0
-2954 -3031 2087 0
-2954 -3032 2088 0
-2954 -3033 2089 0
-2954 -3034 2090 0
-2954 -3035 2091 0
-2954 -3036 2092 0
-2954 -3037 2093 0
-2954 -3038 2094 0
-2954 -3039 2095 0
-2954 -3040 2096 0
-2955 -2983 2040 0
-2955 -2984 2041 0
-2955 -2985 2042 0
-2955 -2986 2043 0
-2955 -2987 2044 0
-2955 -2988 2045 0
-2955 -2989 2046 0
-2955 -2990 2047 0
-2955 -2991 2048 0
-2955 -2992 2049 0
-2955 -2993 2050 0
-2955 -2994 2051 0
-2955 -2995 2052 0
-2955 -2996 2053 0
-2955 -2997 2054 0
-2955 -2998 2055 0
-2955 -2999 2056 0
-2955 -3000 2057 0
-2955 -3001 2058 0
-2955 -3002 2059 0
-2955 -3003 2060 0
-2955 -3004 2061 0
-2955 -3005 2062 0
-2955 -3006 2063 0
-2955 -3007 2064 0
-2955 -3008 2065 0
-2955 -3009 2066 0
-2955 -3010 2067 0
-2955 -3011 2068 0
-2955 -3012 2069 0
-2955 -3013 2070 0
-2955 -3014 2071 0
-2955 -3015 2072 0
-2955 -3016 2073 0
-2955 -3017 2074 0
-2955 -3018 2075 0
-2955 -3019 2076 0
-2955 -3020 2077 0
-2955 -3021 2078 0
-2955 -3022 2079 0
-2955 -3023 2080 0
-2955 -3024 2081 0
-2955 -3025 2082 0
-2955 -3026 2083 0
-2955 -3027 2084 0
-2955 -3028 2085 0
-2955 -3029 2086 0
-2955 -3030 2087 0
-2955 -3031 2088 0
-2955 -3032 2089 0
-2955 -3033 2090 0
-2955 -3034 2091 0
-2955 -3035 2092 0
-2955 -3036 2093 0
-2955 -3037 2094 0
-2955 -3038 2095 0
-2955 -3039 2096 0
-2955 -3040 2097 0
-2956 -2983 2041 0
-2956 -2984 2042 0
-2956 -2985 2043 0
-2956 -2986 2044 0
-2956 -2987 2045 0
-2956 -2988 2046 0
-2956 -2989 2047 0
-2956 -2990 2048 0
-2956 -2991 2049 0
-2956 -2992 2050 0
-2956 -2993 2051 0
-2956 -2994 2052 0
-2956 -2995 2053 0
-2956 -2996 2054 0
-2956 -2997 2055 0
-2956 -2998 2056 0
-2956 -2999 2057 0
-2956 -3000 2058 0
-2956 -3001 2059 0
-2956 -3002 2060 0
-2956 -3003 2061 0
-2956 -3004 2062 0
-2956 -3005 2063 0
-2956 -3006 2064 0
-2956 -3007 2065 0
-2956 -3008 2066 0
-2956 -3009 2067 0
-2956 -3010 2068 0
-2956 -3011 2069 0
-2956 -3012 2070 0
-2956 -3013 2071 0
-2956 -3014 2072 0
-2956 -3015 2073 0
-2956 -3016 2074 0
-2956 -3017 2075 0
-2956 -3018 2076 0
-2956 -3019 2077 0
-2956 -3020 2078 0
-2956 -3021 2079 0
-2956 -3022 2080 0
-2956 -3023 2081 0
-2956 -3024 2082 0
-2956 -3025 2083 0
-2956 -3026 2084 0
-2956 -3027 2085 0
-2956 -3028 2086 0
-2956 -3029 2087 0
-2956 -3030 2088 0
-2956 -3031 2089 0
-2956 -3032 2090 0
-2956 -3033 2091 0
-2956 -3034 2092 0
-2956 -3035 2093 0
-2956 -3036 2094 0
-2956 -3037 2095 0
-2956 -3038 2096 0
-2956 -3039 2097 0
-2956 -3040 2098 0
-2957 -2983 2042 0
-2957 -2984 2043 0
-2957 -2985 2044 0
-2957 -2986 2045 0
-2957 -2987 2046 0
-2957 -2988 2047 0
-2957 -2989 2048 0
-2957 -2990 2049 0
-2957 -2991 2050 0
-2957 -2992 2051 0
-2957 -2993 2052 0
-2957 -2994 2053 0
-2957 -2995 2054 0
-2957 -2996 2055 0
-2957 -2997 2056 0
-2957 -2998 2057 0
-2957 -2999 2058 0
-2957 -3000 2059 0
-2957 -3001 2060 0
-2957 -3002 2061 0
-2957 -3003 2062 0
-2957 -3004 2063 0
-2957 -3005 2064 0
-2957 -3006 2065 0
-2957 -3007 2066 0
-2957 -3008 2067 0
-2957 -3009 2068 0
-2957 -3010 2069 0
-2957 -3011 2070 0
-2957 -3012 2071 0
-2957 -3013 2072 0
-2957 -3014 2073 0
-2957 -3015 2074 0
-2957 -3016 2075 0
-2957 -3017 2076 0
-2957 -3018 2077 0
-2957 -3019 2078 0
-2957 -3020 2079 0
-2957 -3021 2080 0
-2957 -3022 2081 0
-2957 -3023 2082 0
-2957 -3024 2083 0
-2957 -3025 2084 0
-2957 -3026 2085 0
-2957 -3027 2086 0
-2957 -3028 2087 0
-2957 -3029 2088 0
-2957 -3030 2089 0
-2957 -3031 2090 0
-2957 -3032 2091 0
-2957 -3033 2092 0
-2957 -3034 2093 0
-2957 -3035 2094 0
-2957 -3036 2095 0
-2957 -3037 2096 0
-2957 -3038 2097 0
-2957 -3039 2098 0
-2957 -3040 2099 0
-2958 -2983 2043 0
-2958 -2984 2044 0
-2958 -2985 2045 0
-2958 -2986 2046 0
-2958 -2987 2047 0
-2958 -2988 2048 0
-2958 -2989 2049 0
-2958 -2990 2050 0
-2958 -2991 2051 0
-2958 -2992 2052 0
-2958 -2993 2053 0
-2958 -2994 2054 0
-2958 -2995 2055 0
-2958 -2996 2056 0
-2958 -2997 2057 0
-2958 -2998 2058 0
-2958 -2999 2059 0
-2958 -3000 2060 0
-2958 -3001 2061 0
-2958 -3002 2062 0
-2958 -3003 2063 0
-2958 -3004 2064 0
-2958 -3005 2065 0
-2958 -3006 2066 0
-2958 -3007 2067 0
-2958 -3008 2068 0
-2958 -3009 2069 0
-2958 -3010 2070 0
-2958 -3011 2071 0
-2958 -3012 2072 0
-2958 -3013 2073 0
-2958 -3014 2074 0
-2958 -3015 2075 0
-2958 -3016 2076 0
-2958 -3017 2077 0
-2958 -3018 2078 0
-2958 -3019 2079 0
-2958 -3020 2080 0
-2958 -3021 2081 0
-2958 -3022 2082 0
-2958 -3023 2083 0
-2958 -3024 2084 0
-2958 -3025 2085 0
-2958 -3026 2086 0
-2958 -3027 2087 0
-2958 -3028 2088 0
-2958 -3029 2089 0
-2958 -3030 2090 0
-2958 -3031 2091 0
-2958 -3032 2092 0
-2958 -3033 2093 0
-2958 -3034 2094 0
-2958 -3035 2095 0
-2958 -3036 2096 0
-2958 -3037 2097 0
-2958 -3038 2098 0
-2958 -3039 2099 0
-2958 -3040 2100 0
-2959 -2983 2044 0
-2959 -2984 2045 0
-2959 -2985 2046 0
-2959 -2986 2047 0
-2959 -2987 2048 0
-2959 -2988 2049 0
-2959 -2989 2050 0
-2959 -2990 2051 0
-2959 -2991 2052 0
-2959 -2992 2053 0
-2959 -2993 2054 0
-2959 -2994 2055 0
-2959 -2995 2056 0
-2959 -2996 2057 0
-2959 -2997 2058 0
-2959 -2998 2059 0
-2959 -2999 2060 0
-2959 -3000 2061 0
-2959 -3001 2062 0
-2959 -3002 2063 0
-2959 -3003 2064 0
-2959 -3004 2065 0
-2959 -3005 2066 0
-2959 -3006 2067 0
-2959 -3007 2068 0
-2959 -3008 2069 0
-2959 -3009 2070 0
-2959 -3010 2071 0
-2959 -3011 2072 0
-2959 -3012 2073 0
-2959 -3013 2074 0
-2959 -3014 2075 0
-2959 -3015 2076 0
-2959 -3016 2077 0
-2959 -3017 2078 0
-2959 -3018 2079 0
-2959 -3019 2080 0
-2959 -3020 2081 0
-2959 -3021 2082 0
-2959 -3022 2083 0
-2959 -3023 2084 0
-2959 -3024 2085 0
-2959 -3025 2086 0
-2959 -3026 2087 0
-2959 -3027 2088 0
-2959 -3028 2089 0
-2959 -3029 2090 0
-2959 -3030 2091 0
-2959 -3031 2092 0
-2959 -3032 2093 0
-2959 -3033 2094 0
-2959 -3034 2095 0
-2959 -3035 2096 0
-2959 -3036 2097 0
-2959 -3037 2098 0
-2959 -3038 2099 0
-2959 -3039 2100 0
-2959 -3040 2101 0
-2960 -2983 2045 0
-2960 -2984 2046 0
-2960 -2985 2047 0
-2960 -2986 2048 0
-2960 -2987 2049 0
-2960 -2988 2050 0
-2960 -2989 2051 0
-2960 -2990 2052 0
-2960 -2991 2053 0
-2960 -2992 2054 0
-2960 -2993 2055 0
-2960 -2994 2056 0
-2960 -2995 2057 0
-2960 -2996 2058 0
-2960 -2997 2059 0
-2960 -2998 2060 0
-2960 -2999 2061 0
-2960 -3000 2062 0
-2960 -3001 2063 0
-2960 -3002 2064 0
-2960 -3003 2065 0
-2960 -3004 2066 0
-2960 -3005 2067 0
-2960 -3006 2068 0
-2960 -3007 2069 0
-2960 -3008 2070 0
-2960 -3009 2071 0
-2960 -3010 2072 0
-2960 -3011 2073 0
-2960 -3012 2074 0
-2960 -3013 2075 0
-2960 -3014 2076 0
-2960 -3015 2077 0
-2960 -3016 2078 0
-2960 -3017 2079 0
-2960 -3018 2080 0
-2960 -3019 2081 0
-2960 -3020 2082 0
-2960 -3021 2083 0
-2960 -3022 2084 0
-2960 -3023 2085 0
-2960 -3024 2086 0
-2960 -3025 2087 0
-2960 -3026 2088 0
-2960 -3027 2089 0
-2960 -3028 2090 0
-2960 -3029 2091 0
-2960 -3030 2092 0
-2960 -3031 2093 0
-2960 -3032 2094 0
-2960 -3033 2095 0
-2960 -3034 2096 0
-2960 -3035 2097 0
-2960 -3036 2098 0
-2960 -3037 2099 0
-2960 -3038 2100 0
-2960 -3039 2101 0
-2960 -3040 2102 0
-2961 -2983 2046 0
-2961 -2984 2047 0
-2961 -2985 2048 0
-2961 -2986 2049 0
-2961 -2987 2050 0
-2961 -2988 2051 0
-2961 -2989 2052 0
-2961 -2990 2053 0
-2961 -2991 2054 0
-2961 -2992 2055 0
-2961 -2993 2056 0
-2961 -2994 2057 0
-2961 -2995 2058 0
-2961 -2996 2059 0
-2961 -2997 2060 0
-2961 -2998 2061 0
-2961 -2999 2062 0
-2961 -3000 2063 0
-2961 -3001 2064 0
-2961 -3002 2065 0
-2961 -3003 2066 0
-2961 -3004 2067 0
-2961 -3005 2068 0
-2961 -3006 2069 0
-2961 -3007 2070 0
-2961 -3008 2071 0
-2961 -3009 2072 0
-2961 -3010 2073 0
-2961 -3011 2074 0
-2961 -3012 2075 0
-2961 -3013 2076 0
-2961 -3014 2077 0
-2961 -3015 2078 0
-2961 -3016 2079 0
-2961 -3017 2080 0
-2961 -3018 2081 0
-2961 -3019 2082 0
-2961 -3020 2083 0
-2961 -3021 2084 0
-2961 -3022 2085 0
-2961 -3023 2086 0
-2961 -3024 2087 0
-2961 -3025 2088 0
-2961 -3026 2089 0
-2961 -3027 2090 0
-2961 -3028 2091 0
-2961 -3029 2092 0
-2961 -3030 2093 0
-2961 -3031 2094 0
-2961 -3032 2095 0
-2961 -3033 2096 0
-2961 -3034 2097 0
-2961 -3035 2098 0
-2961 -3036 2099 0
-2961 -3037 2100 0
-2961 -3038 2101 0
-2961 -3039 2102 0
-2961 -3040 2103 0
-2962 -2983 2047 0
-2962 -2984 2048 0
-2962 -2985 2049 0
-2962 -2986 2050 0
-2962 -2987 2051 0
-2962 -2988 2052 0
-2962 -2989 2053 0
-2962 -2990 2054 0
-2962 -2991 2055 0
-2962 -2992 2056 0
-2962 -2993 2057 0
-2962 -2994 2058 0
-2962 -2995 2059 0
-2962 -2996 2060 0
-2962 -2997 2061 0
-2962 -2998 2062 0
-2962 -2999 2063 0
-2962 -3000 2064 0
-2962 -3001 2065 0
-2962 -3002 2066 0
-2962 -3003 2067 0
-2962 -3004 2068 0
-2962 -3005 2069 0
-2962 -3006 2070 0
-2962 -3007 2071 0
-2962 -3008 2072 0
-2962 -3009 2073 0
-2962 -3010 2074 0
-2962 -3011 2075 0
-2962 -3012 2076 0
-2962 -3013 2077 0
-2962 -3014 2078 0
-2962 -3015 2079 0
-2962 -3016 2080 0
-2962 -3017 2081 0
-2962 -3018 2082 0
-2962 -3019 2083 0
-2962 -3020 2084 0
-2962 -3021 2085 0
-2962 -3022 2086 0
-2962 -3023 2087 0
-2962 -3024 2088 0
-2962 -3025 2089 0
-2962 -3026 2090 0
-2962 -3027 2091 0
-2962 -3028 2092 0
-2962 -3029 2093 0
-2962 -3030 2094 0
-2962 -3031 2095 0
-2962 -3032 2096 0
-2962 -3033 2097 0
-2962 -3034 2098 0
-2962 -3035 2099 0
-2962 -3036 2100 0
-2962 -3037 2101 0
-2962 -3038 2102 0
-2962 -3039 2103 0
-2962 -3040 2104 0
-2963 -2983 2048 0
-2963 -2984 2049 0
-2963 -2985 2050 0
-2963 -2986 2051 0
-2963 -2987 2052 0
-2963 -2988 2053 0
-2963 -2989 2054 0
-2963 -2990 2055 0
-2963 -2991 2056 0
-2963 -2992 2057 0
-2963 -2993 2058 0
-2963 -2994 2059 0
-2963 -2995 2060 0
-2963 -2996 2061 0
-2963 -2997 2062 0
-2963 -2998 2063 0
-2963 -2999 2064 0
-2963 -3000 2065 0
-2963 -3001 2066 0
-2963 -3002 2067 0
-2963 -3003 2068 0
-2963 -3004 2069 0
-2963 -3005 2070 0
-2963 -3006 2071 0
-2963 -3007 2072 0
-2963 -3008 2073 0
-2963 -3009 2074 0
-2963 -3010 2075 0
-2963 -3011 2076 0
-2963 -3012 2077 0
-2963 -3013 2078 0
-2963 -3014 2079 0
-2963 -3015 2080 0
-2963 -3016 2081 0
-2963 -3017 2082 0
-2963 -3018 2083 0
-2963 -3019 2084 0
-2963 -3020 2085 0
-2963 -3021 2086 0
-2963 -3022 2087 0
-2963 -3023 2088 0
-2963 -3024 2089 0
-2963 -3025 2090 0
-2963 -3026 2091 0
-2963 -3027 2092 0
-2963 -3028 2093 0
-2963 -3029 2094 0
-2963 -3030 2095 0
-2963 -3031 2096 0
-2963 -3032 2097 0
-2963 -3033 2098 0
-2963 -3034 2099 0
-2963 -3035 2100 0
-2963 -3036 2101 0
-2963 -3037 2102 0
-2963 -3038 2103 0
-2963 -3039 2104 0
-2963 -3040 2105 0
-2964 -2983 2049 0
-2964 -2984 2050 0
-2964 -2985 2051 0
-2964 -2986 2052 0
-2964 -2987 2053 0
-2964 -2988 2054 0
-2964 -2989 2055 0
-2964 -2990 2056 0
-2964 -2991 2057 0
-2964 -2992 2058 0
-2964 -2993 2059 0
-2964 -2994 2060 0
-2964 -2995 2061 0
-2964 -2996 2062 0
-2964 -2997 2063 0
-2964 -2998 2064 0
-2964 -2999 2065 0
-2964 -3000 2066 0
-2964 -3001 2067 0
-2964 -3002 2068 0
-2964 -3003 2069 0
-2964 -3004 2070 0
-2964 -3005 2071 0
-2964 -3006 2072 0
-2964 -3007 2073 0
-2964 -3008 2074 0
-2964 -3009 2075 0
-2964 -3010 2076 0
-2964 -3011 2077 0
-2964 -3012 2078 0
-2964 -3013 2079 0
-2964 -3014 2080 0
-2964 -3015 2081 0
-2964 -3016 2082 0
-2964 -3017 2083 0
-2964 -3018 2084 0
-2964 -3019 2085 0
-2964 -3020 2086 0
-2964 -3021 2087 0
-2964 -3022 2088 0
-2964 -3023 2089 0
-2964 -3024 2090 0
-2964 -3025 2091 0
-2964 -3026 2092 0
-2964 -3027 2093 0
-2964 -3028 2094 0
-2964 -3029 2095 0
-2964 -3030 2096 0
-2964 -3031 2097 0
-2964 -3032 2098 0
-2964 -3033 2099 0
-2964 -3034 2100 0
-2964 -3035 2101 0
-2964 -3036 2102 0
-2964 -3037 2103 0
-2964 -3038 2104 0
-2964 -3039 2105 0
-2964 -3040 2106 0
-2965 -2983 2050 0
-2965 -2984 2051 0
-2965 -2985 2052 0
-2965 -2986 2053 0
-2965 -2987 2054 0
-2965 -2988 2055 0
-2965 -2989 2056 0
-2965 -2990 2057 0
-2965 -2991 2058 0
-2965 -2992 2059 0
-2965 -2993 2060 0
-2965 -2994 2061 0
-2965 -2995 2062 0
-2965 -2996 2063 0
-2965 -2997 2064 0
-2965 -2998 2065 0
-2965 -2999 2066 0
-2965 -3000 2067 0
-2965 -3001 2068 0
-2965 -3002 2069 0
-2965 -3003 2070 0
-2965 -3004 2071 0
-2965 -3005 2072 0
-2965 -3006 2073 0
-2965 -3007 2074 0
-2965 -3008 2075 0
-2965 -3009 2076 0
-2965 -3010 2077 0
-2965 -3011 2078 0
-2965 -3012 2079 0
-2965 -3013 2080 0
-2965 -3014 2081 0
-2965 -3015 2082 0
-2965 -3016 2083 0
-2965 -3017 2084 0
-2965 -3018 2085 0
-2965 -3019 2086 0
-2965 -3020 2087 0
-2965 -3021 2088 0
-2965 -3022 2089 0
-2965 -3023 2090 0
-2965 -3024 2091 0
-2965 -3025 2092 0
-2965 -3026 2093 0
-2965 -3027 2094 0
-2965 -3028 2095 0
-2965 -3029 2096 0
-2965 -3030 2097 0
-2965 -3031 2098 0
-2965 -3032 2099 0
-2965 -3033 2100 0
-2965 -3034 2101 0
-2965 -3035 2102 0
-2965 -3036 2103 0
-2965 -3037 2104 0
-2965 -3038 2105 0
-2965 -3039 2106 0
-2965 -3040 2107 0
-2966 -2983 2051 0
-2966 -2984 2052 0
-2966 -2985 2053 0
-2966 -2986 2054 0
-2966 -2987 2055 0
-2966 -2988 2056 0
-2966 -2989 2057 0
-2966 -2990 2058 0
-2966 -2991 2059 0
-2966 -2992 2060 0
-2966 -2993 2061 0
-2966 -2994 2062 0
-2966 -2995 2063 0
-2966 -2996 2064 0
-2966 -2997 2065 0
-2966 -2998 2066 0
-2966 -2999 2067 0
-2966 -3000 2068 0
-2966 -3001 2069 0
-2966 -3002 2070 0
-2966 -3003 2071 0
-2966 -3004 2072 0
-2966 -3005 2073 0
-2966 -3006 2074 0
-2966 -3007 2075 0
-2966 -3008 2076 0
-2966 -3009 2077 0
-2966 -3010 2078 0
-2966 -3011 2079 0
-2966 -3012 2080 0
-2966 -3013 2081 0
-2966 -3014 2082 0
-2966 -3015 2083 0
-2966 -3016 2084 0
-2966 -3017 2085 0
-2966 -3018 2086 0
-2966 -3019 2087 0
-2966 -3020 2088 0
-2966 -3021 2089 0
-2966 -3022 2090 0
-2966 -3023 2091 0
-2966 -3024 2092 0
-2966 -3025 2093 0
-2966 -3026 2094 0
-2966 -3027 2095 0
-2966 -3028 2096 0
-2966 -3029 2097 0
-2966 -3030 2098 0
-2966 -3031 2099 0
-2966 -3032 2100 0
-2966 -3033 2101 0
-2966 -3034 2102 0
-2966 -3035 2103 0
-2966 -3036 2104 0
-2966 -3037 2105 0
-2966 -3038 2106 0
-2966 -3039 2107 0
-2966 -3040 2108 0
-2967 -2983 2052 0
-2967 -2984 2053 0
-2967 -2985 2054 0
-2967 -2986 2055 0
-2967 -2987 2056 0
-2967 -2988 2057 0
-2967 -2989 2058 0
-2967 -2990 2059 0
-2967 -2991 2060 0
-2967 -2992 2061 0
-2967 -2993 2062 0
-2967 -2994 2063 0
-2967 -2995 2064 0
-2967 -2996 2065 0
-2967 -2997 2066 0
-2967 -2998 2067 0
-2967 -2999 2068 0
-2967 -3000 2069 0
-2967 -3001 2070 0
-2967 -3002 2071 0
-2967 -3003 2072 0
-2967 -3004 2073 0
-2967 -3005 2074 0
-2967 -3006 2075 0
-2967 -3007 2076 0
-2967 -3008 2077 0
-2967 -3009 2078 0
-2967 -3010 2079 0
-2967 -3011 2080 0
-2967 -3012 2081 0
-2967 -3013 2082 0
-2967 -3014 2083 0
-2967 -3015 2084 0
-2967 -3016 2085 0
-2967 -3017 2086 0
-2967 -3018 2087 0
-2967 -3019 2088 0
-2967 -3020 2089 0
-2967 -3021 2090 0
-2967 -3022 2091 0
-2967 -3023 2092 0
-2967 -3024 2093 0
-2967 -3025 2094 0
-2967 -3026 2095 0
-2967 -3027 2096 0
-2967 -3028 2097 0
-2967 -3029 2098 0
-2967 -3030 2099 0
-2967 -3031 2100 0
-2967 -3032 2101 0
-2967 -3033 2102 0
-2967 -3034 2103 0
-2967 -3035 2104 0
-2967 -3036 2105 0
-2967 -3037 2106 0
-2967 -3038 2107 0
-2967 -3039 2108 0
-2967 -3040 2109 0
-2968 -2983 2053 0
-2968 -2984 2054 0
-2968 -2985 2055 0
-2968 -2986 2056 0
-2968 -2987 2057 0
-2968 -2988 2058 0
-2968 -2989 2059 0
-2968 -2990 2060 0
-2968 -2991 2061 0
-2968 -2992 2062 0
-2968 -2993 2063 0
-2968 -2994 2064 0
-2968 -2995 2065 0
-2968 -2996 2066 0
-2968 -2997 2067 0
-2968 -2998 2068 0
-2968 -2999 2069 0
-2968 -3000 2070 0
-2968 -3001 2071 0
-2968 -3002 2072 0
-2968 -3003 2073 0
-2968 -3004 2074 0
-2968 -3005 2075 0
-2968 -3006 2076 0
-2968 -3007 2077 0
-2968 -3008 2078 0
-2968 -3009 2079 0
-2968 -3010 2080 0
-2968 -3011 2081 0
-2968 -3012 2082 0
-2968 -3013 2083 0
-2968 -3014 2084 0
-2968 -3015 2085 0
-2968 -3016 2086 0
-2968 -3017 2087 0
-2968 -3018 2088 0
-2968 -3019 2089 0
-2968 -3020 2090 0
-2968 -3021 2091 0
-2968 -3022 2092 0
-2968 -3023 2093 0
-2968 -3024 2094 0
-2968 -3025 2095 0
-2968 -3026 2096 0
-2968 -3027 2097 0
-2968 -3028 2098 0
-2968 -3029 2099 0
-2968 -3030 2100 0
-2968 -3031 2101 0
-2968 -3032 2102 0
-2968 -3033 2103 0
-2968 -3034 2104 0
-2968 -3035 2105 0
-2968 -3036 2106 0
-2968 -3037 2107 0
-2968 -3038 2108 0
-2968 -3039 2109 0
-2968 -3040 2110 0
-2969 -2983 2054 0
-2969 -2984 2055 0
-2969 -2985 2056 0
-2969 -2986 2057 0
-2969 -2987 2058 0
-2969 -2988 2059 0
-2969 -2989 2060 0
-2969 -2990 2061 0
-2969 -2991 2062 0
-2969 -2992 2063 0
-2969 -2993 2064 0
-2969 -2994 2065 0
-2969 -2995 2066 0
-2969 -2996 2067 0
-2969 -2997 2068 0
-2969 -2998 2069 0
-2969 -2999 2070 0
-2969 -3000 2071 0
-2969 -3001 2072 0
-2969 -3002 2073 0
-2969 -3003 2074 0
-2969 -3004 2075 0
-2969 -3005 2076 0
-2969 -3006 2077 0
-2969 -3007 2078 0
-2969 -3008 2079 0
-2969 -3009 2080 0
-2969 -3010 2081 0
-2969 -3011 2082 0
-2969 -3012 2083 0
-2969 -3013 2084 0
-2969 -3014 2085 0
-2969 -3015 2086 0
-2969 -3016 2087 0
-2969 -3017 2088 0
-2969 -3018 2089 0
-2969 -3019 2090 0
-2969 -3020 2091 0
-2969 -3021 2092 0
-2969 -3022 2093 0
-2969 -3023 2094 0
-2969 -3024 2095 0
-2969 -3025 2096 0
-2969 -3026 2097 0
-2969 -3027 2098 0
-2969 -3028 2099 0
-2969 -3029 2100 0
-2969 -3030 2101 0
-2969 -3031 2102 0
-2969 -3032 2103 0
-2969 -3033 2104 0
-2969 -3034 2105 0
-2969 -3035 2106 0
-2969 -3036 2107 0
-2969 -3037 2108 0
-2969 -3038 2109 0
-2969 -3039 2110 0
-2969 -3040 2111 0
-2970 -2983 2055 0
-2970 -2984 2056 0
-2970 -2985 2057 0
-2970 -2986 2058 0
-2970 -2987 2059 0
-2970 -2988 2060 0
-2970 -2989 2061 0
-2970 -2990 2062 0
-2970 -2991 2063 0
-2970 -2992 2064 0
-2970 -2993 2065 0
-2970 -2994 2066 0
-2970 -2995 2067 0
-2970 -2996 2068 0
-2970 -2997 2069 0
-2970 -2998 2070 0
-2970 -2999 2071 0
-2970 -3000 2072 0
-2970 -3001 2073 0
-2970 -3002 2074 0
-2970 -3003 2075 0
-2970 -3004 2076 0
-2970 -3005 2077 0
-2970 -3006 2078 0
-2970 -3007 2079 0
-2970 -3008 2080 0
-2970 -3009 2081 0
-2970 -3010 2082 0
-2970 -3011 2083 0
-2970 -3012 2084 0
-2970 -3013 2085 0
-2970 -3014 2086 0
-2970 -3015 2087 0
-2970 -3016 2088 0
-2970 -3017 2089 0
-2970 -3018 2090 0
-2970 -3019 2091 0
-2970 -3020 2092 0
-2970 -3021 2093 0
-2970 -3022 2094 0
-2970 -3023 2095 0
-2970 -3024 2096 0
-2970 -3025 2097 0
-2970 -3026 2098 0
-2970 -3027 2099 0
-2970 -3028 2100 0
-2970 -3029 2101 0
-2970 -3030 2102 0
-2970 -3031 2103 0
-2970 -3032 2104 0
-2970 -3033 2105 0
-2970 -3034 2106 0
-2970 -3035 2107 0
-2970 -3036 2108 0
-2970 -3037 2109 0
-2970 -3038 2110 0
-2970 -3039 2111 0
-2970 -3040 2112 0
-2971 -2983 2056 0
-2971 -2984 2057 0
-2971 -2985 2058 0
-2971 -2986 2059 0
-2971 -2987 2060 0
-2971 -2988 2061 0
-2971 -2989 2062 0
-2971 -2990 2063 0
-2971 -2991 2064 0
-2971 -2992 2065 0
-2971 -2993 2066 0
-2971 -2994 2067 0
-2971 -2995 2068 0
-2971 -2996 2069 0
-2971 -2997 2070 0
-2971 -2998 2071 0
-2971 -2999 2072 0
-2971 -3000 2073 0
-2971 -3001 2074 0
-2971 -3002 2075 0
-2971 -3003 2076 0
-2971 -3004 2077 0
-2971 -3005 2078 0
-2971 -3006 2079 0
-2971 -3007 2080 0
-2971 -3008 2081 0
-2971 -3009 2082 0
-2971 -3010 2083 0
-2971 -3011 2084 0
-2971 -3012 2085 0
-2971 -3013 2086 0
-2971 -3014 2087 0
-2971 -3015 2088 0
-2971 -3016 2089 0
-2971 -3017 2090 0
-2971 -3018 2091 0
-2971 -3019 2092 0
-2971 -3020 2093 0
-2971 -3021 2094 0
-2971 -3022 2095 0
-2971 -3023 2096 0
-2971 -3024 2097 0
-2971 -3025 2098 0
-2971 -3026 2099 0
-2971 -3027 2100 0
-2971 -3028 2101 0
-2971 -3029 2102 0
-2971 -3030 2103 0
-2971 -3031 2104 0
-2971 -3032 2105 0
-2971 -3033 2106 0
-2971 -3034 2107 0
-2971 -3035 2108 0
-2971 -3036 2109 0
-2971 -3037 2110 0
-2971 -3038 2111 0
-2971 -3039 2112 0
-2971 -3040 2113 0
-2972 -2983 2057 0
-2972 -2984 2058 0
-2972 -2985 2059 0
-2972 -2986 2060 0
-2972 -2987 2061 0
-2972 -2988 2062 0
-2972 -2989 2063 0
-2972 -2990 2064 0
-2972 -2991 2065 0
-2972 -2992 2066 0
-2972 -2993 2067 0
-2972 -2994 2068 0
-2972 -2995 2069 0
-2972 -2996 2070 0
-2972 -2997 2071 0
-2972 -2998 2072 0
-2972 -2999 2073 0
-2972 -3000 2074 0
-2972 -3001 2075 0
-2972 -3002 2076 0
-2972 -3003 2077 0
-2972 -3004 2078 0
-2972 -3005 2079 0
-2972 -3006 2080 0
-2972 -3007 2081 0
-2972 -3008 2082 0
-2972 -3009 2083 0
-2972 -3010 2084 0
-2972 -3011 2085 0
-2972 -3012 2086 0
-2972 -3013 2087 0
-2972 -3014 2088 0
-2972 -3015 2089 0
-2972 -3016 2090 0
-2972 -3017 2091 0
-2972 -3018 2092 0
-2972 -3019 2093 0
-2972 -3020 2094 0
-2972 -3021 2095 0
-2972 -3022 2096 0
-2972 -3023 2097 0
-2972 -3024 2098 0
-2972 -3025 2099 0
-2972 -3026 2100 0
-2972 -3027 2101 0
-2972 -3028 2102 0
-2972 -3029 2103 0
-2972 -3030 2104 0
-2972 -3031 2105 0
-2972 -3032 2106 0
-2972 -3033 2107 0
-2972 -3034 2108 0
-2972 -3035 2109 0
-2972 -3036 2110 0
-2972 -3037 2111 0
-2972 -3038 2112 0
-2972 -3039 2113 0
-2972 -3040 2114 0
-2973 -2983 2058 0
-2973 -2984 2059 0
-2973 -2985 2060 0
-2973 -2986 2061 0
-2973 -2987 2062 0
-2973 -2988 2063 0
-2973 -2989 2064 0
-2973 -2990 2065 0
-2973 -2991 2066 0
-2973 -2992 2067 0
-2973 -2993 2068 0
-2973 -2994 2069 0
-2973 -2995 2070 0
-2973 -2996 2071 0
-2973 -2997 2072 0
-2973 -2998 2073 0
-2973 -2999 2074 0
-2973 -3000 2075 0
-2973 -3001 2076 0
-2973 -3002 2077 0
-2973 -3003 2078 0
-2973 -3004 2079 0
-2973 -3005 2080 0
-2973 -3006 2081 0
-2973 -3007 2082 0
-2973 -3008 2083 0
-2973 -3009 2084 0
-2973 -3010 2085 0
-2973 -3011 2086 0
-2973 -3012 2087 0
-2973 -3013 2088 0
-2973 -3014 2089 0
-2973 -3015 2090 0
-2973 -3016 2091 0
-2973 -3017 2092 0
-2973 -3018 2093 0
-2973 -3019 2094 0
-2973 -3020 2095 0
-2973 -3021 2096 0
-2973 -3022 2097 0
-2973 -3023 2098 0
-2973 -3024 2099 0
-2973 -3025 2100 0
-2973 -3026 2101 0
-2973 -3027 2102 0
-2973 -3028 2103 0
-2973 -3029 2104 0
-2973 -3030 2105 0
-2973 -3031 2106 0
-2973 -3032 2107 0
-2973 -3033 2108 0
-2973 -3034 2109 0
-2973 -3035 2110 0
-2973 -3036 2111 0
-2973 -3037 2112 0
-2973 -3038 2113 0
-2973 -3039 2114 0
-2973 -3040 2115 0
-2974 -2983 2059 0
-2974 -2984 2060 0
-2974 -2985 2061 0
-2974 -2986 2062 0
-2974 -2987 2063 0
-2974 -2988 2064 0
-2974 -2989 2065 0
-2974 -2990 2066 0
-2974 -2991 2067 0
-2974 -2992 2068 0
-2974 -2993 2069 0
-2974 -2994 2070 0
-2974 -2995 2071 0
-2974 -2996 2072 0
-2974 -2997 2073 0
-2974 -2998 2074 0
-2974 -2999 2075 0
-2974 -3000 2076 0
-2974 -3001 2077 0
-2974 -3002 2078 0
-2974 -3003 2079 0
-2974 -3004 2080 0
-2974 -3005 2081 0
-2974 -3006 2082 0
-2974 -3007 2083 0
-2974 -3008 2084 0
-2974 -3009 2085 0
-2974 -3010 2086 0
-2974 -3011 2087 0
-2974 -3012 2088 0
-2974 -3013 2089 0
-2974 -3014 2090 0
-2974 -3015 2091 0
-2974 -3016 2092 0
-2974 -3017 2093 0
-2974 -3018 2094 0
-2974 -3019 2095 0
-2974 -3020 2096 0
-2974 -3021 2097 0
-2974 -3022 2098 0
-2974 -3023 2099 0
-2974 -3024 2100 0
-2974 -3025 2101 0
-2974 -3026 2102 0
-2974 -3027 2103 0
-2974 -3028 2104 0
-2974 -3029 2105 0
-2974 -3030 2106 0
-2974 -3031 2107 0
-2974 -3032 2108 0
-2974 -3033 2109 0
-2974 -3034 2110 0
-2974 -3035 2111 0
-2974 -3036 2112 0
-2974 -3037 2113 0
-2974 -3038 2114 0
-2974 -3039 2115 0
-2974 -3040 2116 0
-2975 -2983 2060 0
-2975 -2984 2061 0
-2975 -2985 2062 0
-2975 -2986 2063 0
-2975 -2987 2064 0
-2975 -2988 2065 0
-2975 -2989 2066 0
-2975 -2990 2067 0
-2975 -2991 2068 0
-2975 -2992 2069 0
-2975 -2993 2070 0
-2975 -2994 2071 0
-2975 -2995 2072 0
-2975 -2996 2073 0
-2975 -2997 2074 0
-2975 -2998 2075 0
-2975 -2999 2076 0
-2975 -3000 2077 0
-2975 -3001 2078 0
-2975 -3002 2079 0
-2975 -3003 2080 0
-2975 -3004 2081 0
-2975 -3005 2082 0
-2975 -3006 2083 0
-2975 -3007 2084 0
-2975 -3008 2085 0
-2975 -3009 2086 0
-2975 -3010 2087 0
-2975 -3011 2088 0
-2975 -3012 2089 0
-2975 -3013 2090 0
-2975 -3014 2091 0
-2975 -3015 2092 0
-2975 -3016 2093 0
-2975 -3017 2094 0
-2975 -3018 2095 0
-2975 -3019 2096 0
-2975 -3020 2097 0
-2975 -3021 2098 0
-2975 -3022 2099 0
-2975 -3023 2100 0
-2975 -3024 2101 0
-2975 -3025 2102 0
-2975 -3026 2103 0
-2975 -3027 2104 0
-2975 -3028 2105 0
-2975 -3029 2106 0
-2975 -3030 2107 0
-2975 -3031 2108 0
-2975 -3032 2109 0
-2975 -3033 2110 0
-2975 -3034 2111 0
-2975 -3035 2112 0
-2975 -3036 2113 0
-2975 -3037 2114 0
-2975 -3038 2115 0
-2975 -3039 2116 0
-2975 -3040 2117 0
-2976 -2983 2061 0
-2976 -2984 2062 0
-2976 -2985 2063 0
-2976 -2986 2064 0
-2976 -2987 2065 0
-2976 -2988 2066 0
-2976 -2989 2067 0
-2976 -2990 2068 0
-2976 -2991 2069 0
-2976 -2992 2070 0
-2976 -2993 2071 0
-2976 -2994 2072 0
-2976 -2995 2073 0
-2976 -2996 2074 0
-2976 -2997 2075 0
-2976 -2998 2076 0
-2976 -2999 2077 0
-2976 -3000 2078 0
-2976 -3001 2079 0
-2976 -3002 2080 0
-2976 -3003 2081 0
-2976 -3004 2082 0
-2976 -3005 2083 0
-2976 -3006 2084 0
-2976 -3007 2085 0
-2976 -3008 2086 0
-2976 -3009 2087 0
-2976 -3010 2088 0
-2976 -3011 2089 0
-2976 -3012 2090 0
-2976 -3013 2091 0
-2976 -3014 2092 0
-2976 -3015 2093 0
-2976 -3016 2094 0
-2976 -3017 2095 0
-2976 -3018 2096 0
-2976 -3019 2097 0
-2976 -3020 2098 0
-2976 -3021 2099 0
-2976 -3022 2100 0
-2976 -3023 2101 0
-2976 -3024 2102 0
-2976 -3025 2103 0
-2976 -3026 2104 0
-2976 -3027 2105 0
-2976 -3028 2106 0
-2976 -3029 2107 0
-2976 -3030 2108 0
-2976 -3031 2109 0
-2976 -3032 2110 0
-2976 -3033 2111 0
-2976 -3034 2112 0
-2976 -3035 2113 0
-2976 -3036 2114 0
-2976 -3037 2115 0
-2976 -3038 2116 0
-2976 -3039 2117 0
-2976 -3040 2118 0
-2977 -2983 2062 0
-2977 -2984 2063 0
-2977 -2985 2064 0
-2977 -2986 2065 0
-2977 -2987 2066 0
-2977 -2988 2067 0
-2977 -2989 2068 0
-2977 -2990 2069 0
-2977 -2991 2070 0
-2977 -2992 2071 0
-2977 -2993 2072 0
-2977 -2994 2073 0
-2977 -2995 2074 0
-2977 -2996 2075 0
-2977 -2997 2076 0
-2977 -2998 2077 0
-2977 -2999 2078 0
-2977 -3000 2079 0
-2977 -3001 2080 0
-2977 -3002 2081 0
-2977 -3003 2082 0
-2977 -3004 2083 0
-2977 -3005 2084 0
-2977 -3006 2085 0
-2977 -3007 2086 0
-2977 -3008 2087 0
-2977 -3009 2088 0
-2977 -3010 2089 0
-2977 -3011 2090 0
-2977 -3012 2091 0
-2977 -3013 2092 0
-2977 -3014 2093 0
-2977 -3015 2094 0
-2977 -3016 2095 0
-2977 -3017 2096 0
-2977 -3018 2097 0
-2977 -3019 2098 0
-2977 -3020 2099 0
-2977 -3021 2100 0
-2977 -3022 2101 0
-2977 -3023 2102 0
-2977 -3024 2103 0
-2977 -3025 2104 0
-2977 -3026 2105 0
-2977 -3027 2106 0
-2977 -3028 2107 0
-2977 -3029 2108 0
-2977 -3030 2109 0
-2977 -3031 2110 0
-2977 -3032 2111 0
-2977 -3033 2112 0
-2977 -3034 2113 0
-2977 -3035 2114 0
-2977 -3036 2115 0
-2977 -3037 2116 0
-2977 -3038 2117 0
-2977 -3039 2118 0
-2977 -3040 2119 0
-2978 -2983 2063 0
-2978 -2984 2064 0
-2978 -2985 2065 0
-2978 -2986 2066 0
-2978 -2987 2067 0
-2978 -2988 2068 0
-2978 -2989 2069 0
-2978 -2990 2070 0
-2978 -2991 2071 0
-2978 -2992 2072 0
-2978 -2993 2073 0
-2978 -2994 2074 0
-2978 -2995 2075 0
-2978 -2996 2076 0
-2978 -2997 2077 0
-2978 -2998 2078 0
-2978 -2999 2079 0
-2978 -3000 2080 0
-2978 -3001 2081 0
-2978 -3002 2082 0
-2978 -3003 2083 0
-2978 -3004 2084 0
-2978 -3005 2085 0
-2978 -3006 2086 0
-2978 -3007 2087 0
-2978 -3008 2088 0
-2978 -3009 2089 0
-2978 -3010 2090 0
-2978 -3011 2091 0
-2978 -3012 2092 0
-2978 -3013 2093 0
-2978 -3014 2094 0
-2978 -3015 2095 0
-2978 -3016 2096 0
-2978 -3017 2097 0
-2978 -3018 2098 0
-2978 -3019 2099 0
-2978 -3020 2100 0
-2978 -3021 2101 0
-2978 -3022 2102 0
-2978 -3023 2103 0
-2978 -3024 2104 0
-2978 -3025 2105 0
-2978 -3026 2106 0
-2978 -3027 2107 0
-2978 -3028 2108 0
-2978 -3029 2109 0
-2978 -3030 2110 0
-2978 -3031 2111 0
-2978 -3032 2112 0
-2978 -3033 2113 0
-2978 -3034 2114 0
-2978 -3035 2115 0
-2978 -3036 2116 0
-2978 -3037 2117 0
-2978 -3038 2118 0
-2978 -3039 2119 0
-2978 -3040 2120 0
-2979 -2983 2064 0
-2979 -2984 2065 0
-2979 -2985 2066 0
-2979 -2986 2067 0
-2979 -2987 2068 0
-2979 -2988 2069 0
-2979 -2989 2070 0
-2979 -2990 2071 0
-2979 -2991 2072 0
-2979 -2992 2073 0
-2979 -2993 2074 0
-2979 -2994 2075 0
-2979 -2995 2076 0
-2979 -2996 2077 0
-2979 -2997 2078 0
-2979 -2998 2079 0
-2979 -2999 2080 0
-2979 -3000 2081 0
-2979 -3001 2082 0
-2979 -3002 2083 0
-2979 -3003 2084 0
-2979 -3004 2085 0
-2979 -3005 2086 0
-2979 -3006 2087 0
-2979 -3007 2088 0
-2979 -3008 2089 0
-2979 -3009 2090 0
-2979 -3010 2091 0
-2979 -3011 2092 0
-2979 -3012 2093 0
-2979 -3013 2094 0
-2979 -3014 2095 0
-2979 -3015 2096 0
-2979 -3016 2097 0
-2979 -3017 2098 0
-2979 -3018 2099 0
-2979 -3019 2100 0
-2979 -3020 2101 0
-2979 -3021 2102 0
-2979 -3022 2103 0
-2979 -3023 2104 0
-2979 -3024 2105 0
-2979 -3025 2106 0
-2979 -3026 2107 0
-2979 -3027 2108 0
-2979 -3028 2109 0
-2979 -3029 2110 0
-2979 -3030 2111 0
-2979 -3031 2112 0
-2979 -3032 2113 0
-2979 -3033 2114 0
-2979 -3034 2115 0
-2979 -3035 2116 0
-2979 -3036 2117 0
-2979 -3037 2118 0
-2979 -3038 2119 0
-2979 -3039 2120 0
-2979 -3040 2121 0
-2980 -2983 2065 0
-2980 -2984 2066 0
-2980 -2985 2067 0
-2980 -2986 2068 0
-2980 -2987 2069 0
-2980 -2988 2070 0
-2980 -2989 2071 0
-2980 -2990 2072 0
-2980 -2991 2073 0
-2980 -2992 2074 0
-2980 -2993 2075 0
-2980 -2994 2076 0
-2980 -2995 2077 0
-2980 -2996 2078 0
-2980 -2997 2079 0
-2980 -2998 2080 0
-2980 -2999 2081 0
-2980 -3000 2082 0
-2980 -3001 2083 0
-2980 -3002 2084 0
-2980 -3003 2085 0
-2980 -3004 2086 0
-2980 -3005 2087 0
-2980 -3006 2088 0
-2980 -3007 2089 0
-2980 -3008 2090 0
-2980 -3009 2091 0
-2980 -3010 2092 0
-2980 -3011 2093 0
-2980 -3012 2094 0
-2980 -3013 2095 0
-2980 -3014 2096 0
-2980 -3015 2097 0
-2980 -3016 2098 0
-2980 -3017 2099 0
-2980 -3018 2100 0
-2980 -3019 2101 0
-2980 -3020 2102 0
-2980 -3021 2103 0
-2980 -3022 2104 0
-2980 -3023 2105 0
-2980 -3024 2106 0
-2980 -3025 2107 0
-2980 -3026 2108 0
-2980 -3027 2109 0
-2980 -3028 2110 0
-2980 -3029 2111 0
-2980 -3030 2112 0
-2980 -3031 2113 0
-2980 -3032 2114 0
-2980 -3033 2115 0
-2980 -3034 2116 0
-2980 -3035 2117 0
-2980 -3036 2118 0
-2980 -3037 2119 0
-2980 -3038 2120 0
-2980 -3039 2121 0
-2980 -3040 2122 0
-2981 -2983 2066 0
-2981 -2984 2067 0
-2981 -2985 2068 0
-2981 -2986 2069 0
-2981 -2987 2070 0
-2981 -2988 2071 0
-2981 -2989 2072 0
-2981 -2990 2073 0
-2981 -2991 2074 0
-2981 -2992 2075 0
-2981 -2993 2076 0
-2981 -2994 2077 0
-2981 -2995 2078 0
-2981 -2996 2079 0
-2981 -2997 2080 0
-2981 -2998 2081 0
-2981 -2999 2082 0
-2981 -3000 2083 0
-2981 -3001 2084 0
-2981 -3002 2085 0
-2981 -3003 2086 0
-2981 -3004 2087 0
-2981 -3005 2088 0
-2981 -3006 2089 0
-2981 -3007 2090 0
-2981 -3008 2091 0
-2981 -3009 2092 0
-2981 -3010 2093 0
-2981 -3011 2094 0
-2981 -3012 2095 0
-2981 -3013 2096 0
-2981 -3014 2097 0
-2981 -3015 2098 0
-2981 -3016 2099 0
-2981 -3017 2100 0
-2981 -3018 2101 0
-2981 -3019 2102 0
-2981 -3020 2103 0
-2981 -3021 2104 0
-2981 -3022 2105 0
-2981 -3023 2106 0
-2981 -3024 2107 0
-2981 -3025 2108 0
-2981 -3026 2109 0
-2981 -3027 2110 0
-2981 -3028 2111 0
-2981 -3029 2112 0
-2981 -3030 2113 0
-2981 -3031 2114 0
-2981 -3032 2115 0
-2981 -3033 2116 0
-2981 -3034 2117 0
-2981 -3035 2118 0
-2981 -3036 2119 0
-2981 -3037 2120 0
-2981 -3038 2121 0
-2981 -3039 2122 0
-2981 -3040 2123 0
-2982 -2983 2067 0
-2982 -2984 2068 0
-2982 -2985 2069 0
-2982 -2986 2070 0
-2982 -2987 2071 0
-2982 -2988 2072 0
-2982 -2989 2073 0
-2982 -2990 2074 0
-2982 -2991 2075 0
-2982 -2992 2076 0
-2982 -2993 2077 0
-2982 -2994 2078 0
-2982 -2995 2079 0
-2982 -2996 2080 0
-2982 -2997 2081 0
-2982 -2998 2082 0
-2982 -2999 2083 0
-2982 -3000 2084 0
-2982 -3001 2085 0
-2982 -3002 2086 0
-2982 -3003 2087 0
-2982 -3004 2088 0
-2982 -3005 2089 0
-2982 -3006 2090 0
-2982 -3007 2091 0
-2982 -3008 2092 0
-2982 -3009 2093 0
-2982 -3010 2094 0
-2982 -3011 2095 0
-2982 -3012 2096 0
-2982 -3013 2097 0
-2982 -3014 2098 0
-2982 -3015 2099 0
-2982 -3016 2100 0
-2982 -3017 2101 0
-2982 -3018 2102 0
-2982 -3019 2103 0
-2982 -3020 2104 0
-2982 -3021 2105 0
-2982 -3022 2106 0
-2982 -3023 2107 0
-2982 -3024 2108 0
-2982 -3025 2109 0
-2982 -3026 2110 0
-2982 -3027 2111 0
-2982 -3028 2112 0
-2982 -3029 2113 0
-2982 -3030 2114 0
-2982 -3031 2115 0
-2982 -3032 2116 0
-2982 -3033 2117 0
-2982 -3034 2118 0
-2982 -3035 2119 0
-2982 -3036 2120 0
-2982 -3037 2121 0
-2982 -3038 2122 0
-2982 -3039 2123 0
-2982 -3040 2124 0
-3070 2983 0
-3071 2984 0
-3072 2985 0
-3073 2986 0
-3074 2987 0
-3075 2988 0
-3076 2989 0
-3077 2990 0
-3078 2991 0
-3079 2992 0
-3080 2993 0
-3081 2994 0
-3082 2995 0
-3083 2996 0
-3084 2997 0
-3085 2998 0
-3086 2999 0
-3087 3000 0
-3088 3001 0
-3089 3002 0
-3090 3003 0
-3091 3004 0
-3092 3005 0
-3093 3006 0
-3094 3007 0
-3095 3008 0
-3096 3009 0
-3097 3010 0
-3098 3011 0
-3041 2983 0
-3042 2984 0
-3043 2985 0
-3044 2986 0
-3045 2987 0
-3046 2988 0
-3047 2989 0
-3048 2990 0
-3049 2991 0
-3050 2992 0
-3051 2993 0
-3052 2994 0
-3053 2995 0
-3054 2996 0
-3055 2997 0
-3056 2998 0
-3057 2999 0
-3058 3000 0
-3059 3001 0
-3060 3002 0
-3061 3003 0
-3062 3004 0
-3063 3005 0
-3064 3006 0
-3065 3007 0
-3066 3008 0
-3067 3009 0
-3068 3010 0
-3069 3011 0
-3041 -3070 2984 0
-3041 -3071 2985 0
-3041 -3072 2986 0
-3041 -3073 2987 0
-3041 -3074 2988 0
-3041 -3075 2989 0
-3041 -3076 2990 0
-3041 -3077 2991 0
-3041 -3078 2992 0
-3041 -3079 2993 0
-3041 -3080 2994 0
-3041 -3081 2995 0
-3041 -3082 2996 0
-3041 -3083 2997 0
-3041 -3084 2998 0
-3041 -3085 2999 0
-3041 -3086 3000 0
-3041 -3087 3001 0
-3041 -3088 3002 0
-3041 -3089 3003 0
-3041 -3090 3004 0
-3041 -3091 3005 0
-3041 -3092 3006 0
-3041 -3093 3007 0
-3041 -3094 3008 0
-3041 -3095 3009 0
-3041 -3096 3010 0
-3041 -3097 3011 0
-3041 -3098 3012 0
-3042 -3070 2985 0
-3042 -3071 2986 0
-3042 -3072 2987 0
-3042 -3073 2988 0
-3042 -3074 2989 0
-3042 -3075 2990 0
-3042 -3076 2991 0
-3042 -3077 2992 0
-3042 -3078 2993 0
-3042 -3079 2994 0
-3042 -3080 2995 0
-3042 -3081 2996 0
-3042 -3082 2997 0
-3042 -3083 2998 0
-3042 -3084 2999 0
-3042 -3085 3000 0
-3042 -3086 3001 0
-3042 -3087 3002 0
-3042 -3088 3003 0
-3042 -3089 3004 0
-3042 -3090 3005 0
-3042 -3091 3006 0
-3042 -3092 3007 0
-3042 -3093 3008 0
-3042 -3094 3009 0
-3042 -3095 3010 0
-3042 -3096 3011 0
-3042 -3097 3012 0
-3042 -3098 3013 0
-3043 -3070 2986 0
-3043 -3071 2987 0
-3043 -3072 2988 0
-3043 -3073 2989 0
-3043 -3074 2990 0
-3043 -3075 2991 0
-3043 -3076 2992 0
-3043 -3077 2993 0
-3043 -3078 2994 0
-3043 -3079 2995 0
-3043 -3080 2996 0
-3043 -3081 2997 0
-3043 -3082 2998 0
-3043 -3083 2999 0
-3043 -3084 3000 0
-3043 -3085 3001 0
-3043 -3086 3002 0
-3043 -3087 3003 0
-3043 -3088 3004 0
-3043 -3089 3005 0
-3043 -3090 3006 0
-3043 -3091 3007 0
-3043 -3092 3008 0
-3043 -3093 3009 0
-3043 -3094 3010 0
-3043 -3095 3011 0
-3043 -3096 3012 0
-3043 -3097 3013 0
-3043 -3098 3014 0
-3044 -3070 2987 0
-3044 -3071 2988 0
-3044 -3072 2989 0
-3044 -3073 2990 0
-3044 -3074 2991 0
-3044 -3075 2992 0
-3044 -3076 2993 0
-3044 -3077 2994 0
-3044 -3078 2995 0
-3044 -3079 2996 0
-3044 -3080 2997 0
-3044 -3081 2998 0
-3044 -3082 2999 0
-3044 -3083 3000 0
-3044 -3084 3001 0
-3044 -3085 3002 0
-3044 -3086 3003 0
-3044 -3087 3004 0
-3044 -3088 3005 0
-3044 -3089 3006 0
-3044 -3090 3007 0
-3044 -3091 3008 0
-3044 -3092 3009 0
-3044 -3093 3010 0
-3044 -3094 3011 0
-3044 -3095 3012 0
-3044 -3096 3013 0
-3044 -3097 3014 0
-3044 -3098 3015 0
-3045 -3070 2988 0
-3045 -3071 2989 0
-3045 -3072 2990 0
-3045 -3073 2991 0
-3045 -3074 2992 0
-3045 -3075 2993 0
-3045 -3076 2994 0
-3045 -3077 2995 0
-3045 -3078 2996 0
-3045 -3079 2997 0
-3045 -3080 2998 0
-3045 -3081 2999 0
-3045 -3082 3000 0
-3045 -3083 3001 0
-3045 -3084 3002 0
-3045 -3085 3003 0
-3045 -3086 3004 0
-3045 -3087 3005 0
-3045 -3088 3006 0
-3045 -3089 3007 0
-3045 -3090 3008 0
-3045 -3091 3009 0
-3045 -3092 3010 0
-3045 -3093 3011 0
-3045 -3094 3012 0
-3045 -3095 3013 0
-3045 -3096 3014 0
-3045 -3097 3015 0
-3045 -3098 3016 0
-3046 -3070 2989 0
-3046 -3071 2990 0
-3046 -3072 2991 0
-3046 -3073 2992 0
-3046 -3074 2993 0
-3046 -3075 2994 0
-3046 -3076 2995 0
-3046 -3077 2996 0
-3046 -3078 2997 0
-3046 -3079 2998 0
-3046 -3080 2999 0
-3046 -3081 3000 0
-3046 -3082 3001 0
-3046 -3083 3002 0
-3046 -3084 3003 0
-3046 -3085 3004 0
-3046 -3086 3005 0
-3046 -3087 3006 0
-3046 -3088 3007 0
-3046 -3089 3008 0
-3046 -3090 3009 0
-3046 -3091 3010 0
-3046 -3092 3011 0
-3046 -3093 3012 0
-3046 -3094 3013 0
-3046 -3095 3014 0
-3046 -3096 3015 0
-3046 -3097 3016 0
-3046 -3098 3017 0
-3047 -3070 2990 0
-3047 -3071 2991 0
-3047 -3072 2992 0
-3047 -3073 2993 0
-3047 -3074 2994 0
-3047 -3075 2995 0
-3047 -3076 2996 0
-3047 -3077 2997 0
-3047 -3078 2998 0
-3047 -3079 2999 0
-3047 -3080 3000 0
-3047 -3081 3001 0
-3047 -3082 3002 0
-3047 -3083 3003 0
-3047 -3084 3004 0
-3047 -3085 3005 0
-3047 -3086 3006 0
-3047 -3087 3007 0
-3047 -3088 3008 0
-3047 -3089 3009 0
-3047 -3090 3010 0
-3047 -3091 3011 0
-3047 -3092 3012 0
-3047 -3093 3013 0
-3047 -3094 3014 0
-3047 -3095 3015 0
-3047 -3096 3016 0
-3047 -3097 3017 0
-3047 -3098 3018 0
-3048 -3070 2991 0
-3048 -3071 2992 0
-3048 -3072 2993 0
-3048 -3073 2994 0
-3048 -3074 2995 0
-3048 -3075 2996 0
-3048 -3076 2997 0
-3048 -3077 2998 0
-3048 -3078 2999 0
-3048 -3079 3000 0
-3048 -3080 3001 0
-3048 -3081 3002 0
-3048 -3082 3003 0
-3048 -3083 3004 0
-3048 -3084 3005 0
-3048 -3085 3006 0
-3048 -3086 3007 0
-3048 -3087 3008 0
-3048 -3088 3009 0
-3048 -3089 3010 0
-3048 -3090 3011 0
-3048 -3091 3012 0
-3048 -3092 3013 0
-3048 -3093 3014 0
-3048 -3094 3015 0
-3048 -3095 3016 0
-3048 -3096 3017 0
-3048 -3097 3018 0
-3048 -3098 3019 0
-3049 -3070 2992 0
-3049 -3071 2993 0
-3049 -3072 2994 0
-3049 -3073 2995 0
-3049 -3074 2996 0
-3049 -3075 2997 0
-3049 -3076 2998 0
-3049 -3077 2999 0
-3049 -3078 3000 0
-3049 -3079 3001 0
-3049 -3080 3002 0
-3049 -3081 3003 0
-3049 -3082 3004 0
-3049 -3083 3005 0
-3049 -3084 3006 0
-3049 -3085 3007 0
-3049 -3086 3008 0
-3049 -3087 3009 0
-3049 -3088 3010 0
-3049 -3089 3011 0
-3049 -3090 3012 0
-3049 -3091 3013 0
-3049 -3092 3014 0
-3049 -3093 3015 0
-3049 -3094 3016 0
-3049 -3095 3017 0
-3049 -3096 3018 0
-3049 -3097 3019 0
-3049 -3098 3020 0
-3050 -3070 2993 0
-3050 -3071 2994 0
-3050 -3072 2995 0
-3050 -3073 2996 0
-3050 -3074 2997 0
-3050 -3075 2998 0
-3050 -3076 2999 0
-3050 -3077 3000 0
-3050 -3078 3001 0
-3050 -3079 3002 0
-3050 -3080 3003 0
-3050 -3081 3004 0
-3050 -3082 3005 0
-3050 -3083 3006 0
-3050 -3084 3007 0
-3050 -3085 3008 0
-3050 -3086 3009 0
-3050 -3087 3010 0
-3050 -3088 3011 0
-3050 -3089 3012 0
-3050 -3090 3013 0
-3050 -3091 3014 0
-3050 -3092 3015 0
-3050 -3093 3016 0
-3050 -3094 3017 0
-3050 -3095 3018 0
-3050 -3096 3019 0
-3050 -3097 3020 0
-3050 -3098 3021 0
-3051 -3070 2994 0
-3051 -3071 2995 0
-3051 -3072 2996 0
-3051 -3073 2997 0
-3051 -3074 2998 0
-3051 -3075 2999 0
-3051 -3076 3000 0
-3051 -3077 3001 0
-3051 -3078 3002 0
-3051 -3079 3003 0
-3051 -3080 3004 0
-3051 -3081 3005 0
-3051 -3082 3006 0
-3051 -3083 3007 0
-3051 -3084 3008 0
-3051 -3085 3009 0
-3051 -3086 3010 0
-3051 -3087 3011 0
-3051 -3088 3012 0
-3051 -3089 3013 0
-3051 -3090 3014 0
-3051 -3091 3015 0
-3051 -3092 3016 0
-3051 -3093 3017 0
-3051 -3094 3018 0
-3051 -3095 3019 0
-3051 -3096 3020 0
-3051 -3097 3021 0
-3051 -3098 3022 0
-3052 -3070 2995 0
-3052 -3071 2996 0
-3052 -3072 2997 0
-3052 -3073 2998 0
-3052 -3074 2999 0
-3052 -3075 3000 0
-3052 -3076 3001 0
-3052 -3077 3002 0
-3052 -3078 3003 0
-3052 -3079 3004 0
-3052 -3080 3005 0
-3052 -3081 3006 0
-3052 -3082 3007 0
-3052 -3083 3008 0
-3052 -3084 3009 0
-3052 -3085 3010 0
-3052 -3086 3011 0
-3052 -3087 3012 0
-3052 -3088 3013 0
-3052 -3089 3014 0
-3052 -3090 3015 0
-3052 -3091 3016 0
-3052 -3092 3017 0
-3052 -3093 3018 0
-3052 -3094 3019 0
-3052 -3095 3020 0
-3052 -3096 3021 0
-3052 -3097 3022 0
-3052 -3098 3023 0
-3053 -3070 2996 0
-3053 -3071 2997 0
-3053 -3072 2998 0
-3053 -3073 2999 0
-3053 -3074 3000 0
-3053 -3075 3001 0
-3053 -3076 3002 0
-3053 -3077 3003 0
-3053 -3078 3004 0
-3053 -3079 3005 0
-3053 -3080 3006 0
-3053 -3081 3007 0
-3053 -3082 3008 0
-3053 -3083 3009 0
-3053 -3084 3010 0
-3053 -3085 3011 0
-3053 -3086 3012 0
-3053 -3087 3013 0
-3053 -3088 3014 0
-3053 -3089 3015 0
-3053 -3090 3016 0
-3053 -3091 3017 0
-3053 -3092 3018 0
-3053 -3093 3019 0
-3053 -3094 3020 0
-3053 -3095 3021 0
-3053 -3096 3022 0
-3053 -3097 3023 0
-3053 -3098 3024 0
-3054 -3070 2997 0
-3054 -3071 2998 0
-3054 -3072 2999 0
-3054 -3073 3000 0
-3054 -3074 3001 0
-3054 -3075 3002 0
-3054 -3076 3003 0
-3054 -3077 3004 0
-3054 -3078 3005 0
-3054 -3079 3006 0
-3054 -3080 3007 0
-3054 -3081 3008 0
-3054 -3082 3009 0
-3054 -3083 3010 0
-3054 -3084 3011 0
-3054 -3085 3012 0
-3054 -3086 3013 0
-3054 -3087 3014 0
-3054 -3088 3015 0
-3054 -3089 3016 0
-3054 -3090 3017 0
-3054 -3091 3018 0
-3054 -3092 3019 0
-3054 -3093 3020 0
-3054 -3094 3021 0
-3054 -3095 3022 0
-3054 -3096 3023 0
-3054 -3097 3024 0
-3054 -3098 3025 0
-3055 -3070 2998 0
-3055 -3071 2999 0
-3055 -3072 3000 0
-3055 -3073 3001 0
-3055 -3074 3002 0
-3055 -3075 3003 0
-3055 -3076 3004 0
-3055 -3077 3005 0
-3055 -3078 3006 0
-3055 -3079 3007 0
-3055 -3080 3008 0
-3055 -3081 3009 0
-3055 -3082 3010 0
-3055 -3083 3011 0
-3055 -3084 3012 0
-3055 -3085 3013 0
-3055 -3086 3014 0
-3055 -3087 3015 0
-3055 -3088 3016 0
-3055 -3089 3017 0
-3055 -3090 3018 0
-3055 -3091 3019 0
-3055 -3092 3020 0
-3055 -3093 3021 0
-3055 -3094 3022 0
-3055 -3095 3023 0
-3055 -3096 3024 0
-3055 -3097 3025 0
-3055 -3098 3026 0
-3056 -3070 2999 0
-3056 -3071 3000 0
-3056 -3072 3001 0
-3056 -3073 3002 0
-3056 -3074 3003 0
-3056 -3075 3004 0
-3056 -3076 3005 0
-3056 -3077 3006 0
-3056 -3078 3007 0
-3056 -3079 3008 0
-3056 -3080 3009 0
-3056 -3081 3010 0
-3056 -3082 3011 0
-3056 -3083 3012 0
-3056 -3084 3013 0
-3056 -3085 3014 0
-3056 -3086 3015 0
-3056 -3087 3016 0
-3056 -3088 3017 0
-3056 -3089 3018 0
-3056 -3090 3019 0
-3056 -3091 3020 0
-3056 -3092 3021 0
-3056 -3093 3022 0
-3056 -3094 3023 0
-3056 -3095 3024 0
-3056 -3096 3025 0
-3056 -3097 3026 0
-3056 -3098 3027 0
-3057 -3070 3000 0
-3057 -3071 3001 0
-3057 -3072 3002 0
-3057 -3073 3003 0
-3057 -3074 3004 0
-3057 -3075 3005 0
-3057 -3076 3006 0
-3057 -3077 3007 0
-3057 -3078 3008 0
-3057 -3079 3009 0
-3057 -3080 3010 0
-3057 -3081 3011 0
-3057 -3082 3012 0
-3057 -3083 3013 0
-3057 -3084 3014 0
-3057 -3085 3015 0
-3057 -3086 3016 0
-3057 -3087 3017 0
-3057 -3088 3018 0
-3057 -3089 3019 0
-3057 -3090 3020 0
-3057 -3091 3021 0
-3057 -3092 3022 0
-3057 -3093 3023 0
-3057 -3094 3024 0
-3057 -3095 3025 0
-3057 -3096 3026 0
-3057 -3097 3027 0
-3057 -3098 3028 0
-3058 -3070 3001 0
-3058 -3071 3002 0
-3058 -3072 3003 0
-3058 -3073 3004 0
-3058 -3074 3005 0
-3058 -3075 3006 0
-3058 -3076 3007 0
-3058 -3077 3008 0
-3058 -3078 3009 0
-3058 -3079 3010 0
-3058 -3080 3011 0
-3058 -3081 3012 0
-3058 -3082 3013 0
-3058 -3083 3014 0
-3058 -3084 3015 0
-3058 -3085 3016 0
-3058 -3086 3017 0
-3058 -3087 3018 0
-3058 -3088 3019 0
-3058 -3089 3020 0
-3058 -3090 3021 0
-3058 -3091 3022 0
-3058 -3092 3023 0
-3058 -3093 3024 0
-3058 -3094 3025 0
-3058 -3095 3026 0
-3058 -3096 3027 0
-3058 -3097 3028 0
-3058 -3098 3029 0
-3059 -3070 3002 0
-3059 -3071 3003 0
-3059 -3072 3004 0
-3059 -3073 3005 0
-3059 -3074 3006 0
-3059 -3075 3007 0
-3059 -3076 3008 0
-3059 -3077 3009 0
-3059 -3078 3010 0
-3059 -3079 3011 0
-3059 -3080 3012 0
-3059 -3081 3013 0
-3059 -3082 3014 0
-3059 -3083 3015 0
-3059 -3084 3016 0
-3059 -3085 3017 0
-3059 -3086 3018 0
-3059 -3087 3019 0
-3059 -3088 3020 0
-3059 -3089 3021 0
-3059 -3090 3022 0
-3059 -3091 3023 0
-3059 -3092 3024 0
-3059 -3093 3025 0
-3059 -3094 3026 0
-3059 -3095 3027 0
-3059 -3096 3028 0
-3059 -3097 3029 0
-3059 -3098 3030 0
-3060 -3070 3003 0
-3060 -3071 3004 0
-3060 -3072 3005 0
-3060 -3073 3006 0
-3060 -3074 3007 0
-3060 -3075 3008 0
-3060 -3076 3009 0
-3060 -3077 3010 0
-3060 -3078 3011 0
-3060 -3079 3012 0
-3060 -3080 3013 0
-3060 -3081 3014 0
-3060 -3082 3015 0
-3060 -3083 3016 0
-3060 -3084 3017 0
-3060 -3085 3018 0
-3060 -3086 3019 0
-3060 -3087 3020 0
-3060 -3088 3021 0
-3060 -3089 3022 0
-3060 -3090 3023 0
-3060 -3091 3024 0
-3060 -3092 3025 0
-3060 -3093 3026 0
-3060 -3094 3027 0
-3060 -3095 3028 0
-3060 -3096 3029 0
-3060 -3097 3030 0
-3060 -3098 3031 0
-3061 -3070 3004 0
-3061 -3071 3005 0
-3061 -3072 3006 0
-3061 -3073 3007 0
-3061 -3074 3008 0
-3061 -3075 3009 0
-3061 -3076 3010 0
-3061 -3077 3011 0
-3061 -3078 3012 0
-3061 -3079 3013 0
-3061 -3080 3014 0
-3061 -3081 3015 0
-3061 -3082 3016 0
-3061 -3083 3017 0
-3061 -3084 3018 0
-3061 -3085 3019 0
-3061 -3086 3020 0
-3061 -3087 3021 0
-3061 -3088 3022 0
-3061 -3089 3023 0
-3061 -3090 3024 0
-3061 -3091 3025 0
-3061 -3092 3026 0
-3061 -3093 3027 0
-3061 -3094 3028 0
-3061 -3095 3029 0
-3061 -3096 3030 0
-3061 -3097 3031 0
-3061 -3098 3032 0
-3062 -3070 3005 0
-3062 -3071 3006 0
-3062 -3072 3007 0
-3062 -3073 3008 0
-3062 -3074 3009 0
-3062 -3075 3010 0
-3062 -3076 3011 0
-3062 -3077 3012 0
-3062 -3078 3013 0
-3062 -3079 3014 0
-3062 -3080 3015 0
-3062 -3081 3016 0
-3062 -3082 3017 0
-3062 -3083 3018 0
-3062 -3084 3019 0
-3062 -3085 3020 0
-3062 -3086 3021 0
-3062 -3087 3022 0
-3062 -3088 3023 0
-3062 -3089 3024 0
-3062 -3090 3025 0
-3062 -3091 3026 0
-3062 -3092 3027 0
-3062 -3093 3028 0
-3062 -3094 3029 0
-3062 -3095 3030 0
-3062 -3096 3031 0
-3062 -3097 3032 0
-3062 -3098 3033 0
-3063 -3070 3006 0
-3063 -3071 3007 0
-3063 -3072 3008 0
-3063 -3073 3009 0
-3063 -3074 3010 0
-3063 -3075 3011 0
-3063 -3076 3012 0
-3063 -3077 3013 0
-3063 -3078 3014 0
-3063 -3079 3015 0
-3063 -3080 3016 0
-3063 -3081 3017 0
-3063 -3082 3018 0
-3063 -3083 3019 0
-3063 -3084 3020 0
-3063 -3085 3021 0
-3063 -3086 3022 0
-3063 -3087 3023 0
-3063 -3088 3024 0
-3063 -3089 3025 0
-3063 -3090 3026 0
-3063 -3091 3027 0
-3063 -3092 3028 0
-3063 -3093 3029 0
-3063 -3094 3030 0
-3063 -3095 3031 0
-3063 -3096 3032 0
-3063 -3097 3033 0
-3063 -3098 3034 0
-3064 -3070 3007 0
-3064 -3071 3008 0
-3064 -3072 3009 0
-3064 -3073 3010 0
-3064 -3074 3011 0
-3064 -3075 3012 0
-3064 -3076 3013 0
-3064 -3077 3014 0
-3064 -3078 3015 0
-3064 -3079 3016 0
-3064 -3080 3017 0
-3064 -3081 3018 0
-3064 -3082 3019 0
-3064 -3083 3020 0
-3064 -3084 3021 0
-3064 -3085 3022 0
-3064 -3086 3023 0
-3064 -3087 3024 0
-3064 -3088 3025 0
-3064 -3089 3026 0
-3064 -3090 3027 0
-3064 -3091 3028 0
-3064 -3092 3029 0
-3064 -3093 3030 0
-3064 -3094 3031 0
-3064 -3095 3032 0
-3064 -3096 3033 0
-3064 -3097 3034 0
-3064 -3098 3035 0
-3065 -3070 3008 0
-3065 -3071 3009 0
-3065 -3072 3010 0
-3065 -3073 3011 0
-3065 -3074 3012 0
-3065 -3075 3013 0
-3065 -3076 3014 0
-3065 -3077 3015 0
-3065 -3078 3016 0
-3065 -3079 3017 0
-3065 -3080 3018 0
-3065 -3081 3019 0
-3065 -3082 3020 0
-3065 -3083 3021 0
-3065 -3084 3022 0
-3065 -3085 3023 0
-3065 -3086 3024 0
-3065 -3087 3025 0
-3065 -3088 3026 0
-3065 -3089 3027 0
-3065 -3090 3028 0
-3065 -3091 3029 0
-3065 -3092 3030 0
-3065 -3093 3031 0
-3065 -3094 3032 0
-3065 -3095 3033 0
-3065 -3096 3034 0
-3065 -3097 3035 0
-3065 -3098 3036 0
-3066 -3070 3009 0
-3066 -3071 3010 0
-3066 -3072 3011 0
-3066 -3073 3012 0
-3066 -3074 3013 0
-3066 -3075 3014 0
-3066 -3076 3015 0
-3066 -3077 3016 0
-3066 -3078 3017 0
-3066 -3079 3018 0
-3066 -3080 3019 0
-3066 -3081 3020 0
-3066 -3082 3021 0
-3066 -3083 3022 0
-3066 -3084 3023 0
-3066 -3085 3024 0
-3066 -3086 3025 0
-3066 -3087 3026 0
-3066 -3088 3027 0
-3066 -3089 3028 0
-3066 -3090 3029 0
-3066 -3091 3030 0
-3066 -3092 3031 0
-3066 -3093 3032 0
-3066 -3094 3033 0
-3066 -3095 3034 0
-3066 -3096 3035 0
-3066 -3097 3036 0
-3066 -3098 3037 0
-3067 -3070 3010 0
-3067 -3071 3011 0
-3067 -3072 3012 0
-3067 -3073 3013 0
-3067 -3074 3014 0
-3067 -3075 3015 0
-3067 -3076 3016 0
-3067 -3077 3017 0
-3067 -3078 3018 0
-3067 -3079 3019 0
-3067 -3080 3020 0
-3067 -3081 3021 0
-3067 -3082 3022 0
-3067 -3083 3023 0
-3067 -3084 3024 0
-3067 -3085 3025 0
-3067 -3086 3026 0
-3067 -3087 3027 0
-3067 -3088 3028 0
-3067 -3089 3029 0
-3067 -3090 3030 0
-3067 -3091 3031 0
-3067 -3092 3032 0
-3067 -3093 3033 0
-3067 -3094 3034 0
-3067 -3095 3035 0
-3067 -3096 3036 0
-3067 -3097 3037 0
-3067 -3098 3038 0
-3068 -3070 3011 0
-3068 -3071 3012 0
-3068 -3072 3013 0
-3068 -3073 3014 0
-3068 -3074 3015 0
-3068 -3075 3016 0
-3068 -3076 3017 0
-3068 -3077 3018 0
-3068 -3078 3019 0
-3068 -3079 3020 0
-3068 -3080 3021 0
-3068 -3081 3022 0
-3068 -3082 3023 0
-3068 -3083 3024 0
-3068 -3084 3025 0
-3068 -3085 3026 0
-3068 -3086 3027 0
-3068 -3087 3028 0
-3068 -3088 3029 0
-3068 -3089 3030 0
-3068 -3090 3031 0
-3068 -3091 3032 0
-3068 -3092 3033 0
-3068 -3093 3034 0
-3068 -3094 3035 0
-3068 -3095 3036 0
-3068 -3096 3037 0
-3068 -3097 3038 0
-3068 -3098 3039 0
-3069 -3070 3012 0
-3069 -3071 3013 0
-3069 -3072 3014 0
-3069 -3073 3015 0
-3069 -3074 3016 0
-3069 -3075 3017 0
-3069 -3076 3018 0
-3069 -3077 3019 0
-3069 -3078 3020 0
-3069 -3079 3021 0
-3069 -3080 3022 0
-3069 -3081 3023 0
-3069 -3082 3024 0
-3069 -3083 3025 0
-3069 -3084 3026 0
-3069 -3085 3027 0
-3069 -3086 3028 0
-3069 -3087 3029 0
-3069 -3088 3030 0
-3069 -3089 3031 0
-3069 -3090 3032 0
-3069 -3091 3033 0
-3069 -3092 3034 0
-3069 -3093 3035 0
-3069 -3094 3036 0
-3069 -3095 3037 0
-3069 -3096 3038 0
-3069 -3097 3039 0
-3069 -3098 3040 0
-3114 3070 0
-3115 3071 0
-3116 3072 0
-3117 3073 0
-3118 3074 0
-3119 3075 0
-3120 3076 0
-3121 3077 0
-3122 3078 0
-3123 3079 0
-3124 3080 0
-3125 3081 0
-3126 3082 0
-3127 3083 0
-3099 3070 0
-3100 3071 0
-3101 3072 0
-3102 3073 0
-3103 3074 0
-3104 3075 0
-3105 3076 0
-3106 3077 0
-3107 3078 0
-3108 3079 0
-3109 3080 0
-3110 3081 0
-3111 3082 0
-3112 3083 0
-3113 3084 0
-3099 -3114 3071 0
-3099 -3115 3072 0
-3099 -3116 3073 0
-3099 -3117 3074 0
-3099 -3118 3075 0
-3099 -3119 3076 0
-3099 -3120 3077 0
-3099 -3121 3078 0
-3099 -3122 3079 0
-3099 -3123 3080 0
-3099 -3124 3081 0
-3099 -3125 3082 0
-3099 -3126 3083 0
-3099 -3127 3084 0
-3100 -3114 3072 0
-3100 -3115 3073 0
-3100 -3116 3074 0
-3100 -3117 3075 0
-3100 -3118 3076 0
-3100 -3119 3077 0
-3100 -3120 3078 0
-3100 -3121 3079 0
-3100 -3122 3080 0
-3100 -3123 3081 0
-3100 -3124 3082 0
-3100 -3125 3083 0
-3100 -3126 3084 0
-3100 -3127 3085 0
-3101 -3114 3073 0
-3101 -3115 3074 0
-3101 -3116 3075 0
-3101 -3117 3076 0
-3101 -3118 3077 0
-3101 -3119 3078 0
-3101 -3120 3079 0
-3101 -3121 3080 0
-3101 -3122 3081 0
-3101 -3123 3082 0
-3101 -3124 3083 0
-3101 -3125 3084 0
-3101 -3126 3085 0
-3101 -3127 3086 0
-3102 -3114 3074 0
-3102 -3115 3075 0
-3102 -3116 3076 0
-3102 -3117 3077 0
-3102 -3118 3078 0
-3102 -3119 3079 0
-3102 -3120 3080 0
-3102 -3121 3081 0
-3102 -3122 3082 0
-3102 -3123 3083 0
-3102 -3124 3084 0
-3102 -3125 3085 0
-3102 -3126 3086 0
-3102 -3127 3087 0
-3103 -3114 3075 0
-3103 -3115 3076 0
-3103 -3116 3077 0
-3103 -3117 3078 0
-3103 -3118 3079 0
-3103 -3119 3080 0
-3103 -3120 3081 0
-3103 -3121 3082 0
-3103 -3122 3083 0
-3103 -3123 3084 0
-3103 -3124 3085 0
-3103 -3125 3086 0
-3103 -3126 3087 0
-3103 -3127 3088 0
-3104 -3114 3076 0
-3104 -3115 3077 0
-3104 -3116 3078 0
-3104 -3117 3079 0
-3104 -3118 3080 0
-3104 -3119 3081 0
-3104 -3120 3082 0
-3104 -3121 3083 0
-3104 -3122 3084 0
-3104 -3123 3085 0
-3104 -3124 3086 0
-3104 -3125 3087 0
-3104 -3126 3088 0
-3104 -3127 3089 0
-3105 -3114 3077 0
-3105 -3115 3078 0
-3105 -3116 3079 0
-3105 -3117 3080 0
-3105 -3118 3081 0
-3105 -3119 3082 0
-3105 -3120 3083 0
-3105 -3121 3084 0
-3105 -3122 3085 0
-3105 -3123 3086 0
-3105 -3124 3087 0
-3105 -3125 3088 0
-3105 -3126 3089 0
-3105 -3127 3090 0
-3106 -3114 3078 0
-3106 -3115 3079 0
-3106 -3116 3080 0
-3106 -3117 3081 0
-3106 -3118 3082 0
-3106 -3119 3083 0
-3106 -3120 3084 0
-3106 -3121 3085 0
-3106 -3122 3086 0
-3106 -3123 3087 0
-3106 -3124 3088 0
-3106 -3125 3089 0
-3106 -3126 3090 0
-3106 -3127 3091 0
-3107 -3114 3079 0
-3107 -3115 3080 0
-3107 -3116 3081 0
-3107 -3117 3082 0
-3107 -3118 3083 0
-3107 -3119 3084 0
-3107 -3120 3085 0
-3107 -3121 3086 0
-3107 -3122 3087 0
-3107 -3123 3088 0
-3107 -3124 3089 0
-3107 -3125 3090 0
-3107 -3126 3091 0
-3107 -3127 3092 0
-3108 -3114 3080 0
-3108 -3115 3081 0
-3108 -3116 3082 0
-3108 -3117 3083 0
-3108 -3118 3084 0
-3108 -3119 3085 0
-3108 -3120 3086 0
-3108 -3121 3087 0
-3108 -3122 3088 0
-3108 -3123 3089 0
-3108 -3124 3090 0
-3108 -3125 3091 0
-3108 -3126 3092 0
-3108 -3127 3093 0
-3109 -3114 3081 0
-3109 -3115 3082 0
-3109 -3116 3083 0
-3109 -3117 3084 0
-3109 -3118 3085 0
-3109 -3119 3086 0
-3109 -3120 3087 0
-3109 -3121 3088 0
-3109 -3122 3089 0
-3109 -3123 3090 0
-3109 -3124 3091 0
-3109 -3125 3092 0
-3109 -3126 3093 0
-3109 -3127 3094 0
-3110 -3114 3082 0
-3110 -3115 3083 0
-3110 -3116 3084 0
-3110 -3117 3085 0
-3110 -3118 3086 0
-3110 -3119 3087 0
-3110 -3120 3088 0
-3110 -3121 3089 0
-3110 -3122 3090 0
-3110 -3123 3091 0
-3110 -3124 3092 0
-3110 -3125 3093 0
-3110 -3126 3094 0
-3110 -3127 3095 0
-3111 -3114 3083 0
-3111 -3115 3084 0
-3111 -3116 3085 0
-3111 -3117 3086 0
-3111 -3118 3087 0
-3111 -3119 3088 0
-3111 -3120 3089 0
-3111 -3121 3090 0
-3111 -3122 3091 0
-3111 -3123 3092 0
-3111 -3124 3093 0
-3111 -3125 3094 0
-3111 -3126 3095 0
-3111 -3127 3096 0
-3112 -3114 3084 0
-3112 -3115 3085 0
-3112 -3116 3086 0
-3112 -3117 3087 0
-3112 -3118 3088 0
-3112 -3119 3089 0
-3112 -3120 3090 0
-3112 -3121 3091 0
-3112 -3122 3092 0
-3112 -3123 3093 0
-3112 -3124 3094 0
-3112 -3125 3095 0
-3112 -3126 3096 0
-3112 -3127 3097 0
-3113 -3114 3085 0
-3113 -3115 3086 0
-3113 -3116 3087 0
-3113 -3117 3088 0
-3113 -3118 3089 0
-3113 -3119 3090 0
-3113 -3120 3091 0
-3113 -3121 3092 0
-3113 -3122 3093 0
-3113 -3123 3094 0
-3113 -3124 3095 0
-3113 -3125 3096 0
-3113 -3126 3097 0
-3113 -3127 3098 0
-3135 3114 0
-3136 3115 0
-3137 3116 0
-3138 3117 0
-3139 3118 0
-3140 3119 0
-3141 3120 0
-3128 3114 0
-3129 3115 0
-3130 3116 0
-3131 3117 0
-3132 3118 0
-3133 3119 0
-3134 3120 0
-3128 -3135 3115 0
-3128 -3136 3116 0
-3128 -3137 3117 0
-3128 -3138 3118 0
-3128 -3139 3119 0
-3128 -3140 3120 0
-3128 -3141 3121 0
-3129 -3135 3116 0
-3129 -3136 3117 0
-3129 -3137 3118 0
-3129 -3138 3119 0
-3129 -3139 3120 0
-3129 -3140 3121 0
-3129 -3141 3122 0
-3130 -3135 3117 0
-3130 -3136 3118 0
-3130 -3137 3119 0
-3130 -3138 3120 0
-3130 -3139 3121 0
-3130 -3140 3122 0
-3130 -3141 3123 0
-3131 -3135 3118 0
-3131 -3136 3119 0
-3131 -3137 3120 0
-3131 -3138 3121 0
-3131 -3139 3122 0
-3131 -3140 3123 0
-3131 -3141 3124 0
-3132 -3135 3119 0
-3132 -3136 3120 0
-3132 -3137 3121 0
-3132 -3138 3122 0
-3132 -3139 3123 0
-3132 -3140 3124 0
-3132 -3141 3125 0
-3133 -3135 3120 0
-3133 -3136 3121 0
-3133 -3137 3122 0
-3133 -3138 3123 0
-3133 -3139 3124 0
-3133 -3140 3125 0
-3133 -3141 3126 0
-3134 -3135 3121 0
-3134 -3136 3122 0
-3134 -3137 3123 0
-3134 -3138 3124 0
-3134 -3139 3125 0
-3134 -3140 3126 0
-3134 -3141 3127 0
-3146 3135 0
-3147 3136 0
-3148 3137 0
-3142 3135 0
-3143 3136 0
-3144 3137 0
-3145 3138 0
-3142 -3146 3136 0
-3142 -3147 3137 0
-3142 -3148 3138 0
-3143 -3146 3137 0
-3143 -3147 3138 0
-3143 -3148 3139 0
-3144 -3146 3138 0
-3144 -3147 3139 0
-3144 -3148 3140 0
-3145 -3146 3139 0
-3145 -3147 3140 0
-3145 -3148 3141 0
-396 3146 0
-3149 3146 0
-3150 3147 0
-3149 -396 3147 0
-3150 -396 3148 0
-395 3149 0
-394 3149 0
-394 -395 3150 0
-3153 3142 0
-3154 3143 0
-3151 3142 0
-3152 3143 0
-3151 -3153 3143 0
-3151 -3154 3144 0
-3152 -3153 3144 0
-3152 -3154 3145 0
-393 3153 0
-392 3153 0
-392 -393 3154 0
-391 3151 0
-390 3151 0
-390 -391 3152 0
-3159 3128 0
-3160 3129 0
-3161 3130 0
-3155 3128 0
-3156 3129 0
-3157 3130 0
-3158 3131 0
-3155 -3159 3129 0
-3155 -3160 3130 0
-3155 -3161 3131 0
-3156 -3159 3130 0
-3156 -3160 3131 0
-3156 -3161 3132 0
-3157 -3159 3131 0
-3157 -3160 3132 0
-3157 -3161 3133 0
-3158 -3159 3132 0
-3158 -3160 3133 0
-3158 -3161 3134 0
-389 3159 0
-3162 3159 0
-3163 3160 0
-3162 -389 3160 0
-3163 -389 3161 0
-388 3162 0
-387 3162 0
-387 -388 3163 0
-3166 3155 0
-3167 3156 0
-3164 3155 0
-3165 3156 0
-3164 -3166 3156 0
-3164 -3167 3157 0
-3165 -3166 3157 0
-3165 -3167 3158 0
-386 3166 0
-385 3166 0
-385 -386 3167 0
-384 3164 0
-383 3164 0
-383 -384 3165 0
-3176 3099 0
-3177 3100 0
-3178 3101 0
-3179 3102 0
-3180 3103 0
-3181 3104 0
-3182 3105 0
-3168 3099 0
-3169 3100 0
-3170 3101 0
-3171 3102 0
-3172 3103 0
-3173 3104 0
-3174 3105 0
-3175 3106 0
-3168 -3176 3100 0
-3168 -3177 3101 0
-3168 -3178 3102 0
-3168 -3179 3103 0
-3168 -3180 3104 0
-3168 -3181 3105 0
-3168 -3182 3106 0
-3169 -3176 3101 0
-3169 -3177 3102 0
-3169 -3178 3103 0
-3169 -3179 3104 0
-3169 -3180 3105 0
-3169 -3181 3106 0
-3169 -3182 3107 0
-3170 -3176 3102 0
-3170 -3177 3103 0
-3170 -3178 3104 0
-3170 -3179 3105 0
-3170 -3180 3106 0
-3170 -3181 3107 0
-3170 -3182 3108 0
-3171 -3176 3103 0
-3171 -3177 3104 0
-3171 -3178 3105 0
-3171 -3179 3106 0
-3171 -3180 3107 0
-3171 -3181 3108 0
-3171 -3182 3109 0
-3172 -3176 3104 0
-3172 -3177 3105 0
-3172 -3178 3106 0
-3172 -3179 3107 0
-3172 -3180 3108 0
-3172 -3181 3109 0
-3172 -3182 3110 0
-3173 -3176 3105 0
-3173 -3177 3106 0
-3173 -3178 3107 0
-3173 -3179 3108 0
-3173 -3180 3109 0
-3173 -3181 3110 0
-3173 -3182 3111 0
-3174 -3176 3106 0
-3174 -3177 3107 0
-3174 -3178 3108 0
-3174 -3179 3109 0
-3174 -3180 3110 0
-3174 -3181 3111 0
-3174 -3182 3112 0
-3175 -3176 3107 0
-3175 -3177 3108 0
-3175 -3178 3109 0
-3175 -3179 3110 0
-3175 -3180 3111 0
-3175 -3181 3112 0
-3175 -3182 3113 0
-3187 3176 0
-3188 3177 0
-3189 3178 0
-3183 3176 0
-3184 3177 0
-3185 3178 0
-3186 3179 0
-3183 -3187 3177 0
-3183 -3188 3178 0
-3183 -3189 3179 0
-3184 -3187 3178 0
-3184 -3188 3179 0
-3184 -3189 3180 0
-3185 -3187 3179 0
-3185 -3188 3180 0
-3185 -3189 3181 0
-3186 -3187 3180 0
-3186 -3188 3181 0
-3186 -3189 3182 0
-382 3187 0
-3190 3187 0
-3191 3188 0
-3190 -382 3188 0
-3191 -382 3189 0
-381 3190 0
-380 3190 0
-380 -381 3191 0
-3194 3183 0
-3195 3184 0
-3192 3183 0
-3193 3184 0
-3192 -3194 3184 0
-3192 -3195 3185 0
-3193 -3194 3185 0
-3193 -3195 3186 0
-379 3194 0
-378 3194 0
-378 -379 3195 0
-377 3192 0
-376 3192 0
-376 -377 3193 0
-3200 3168 0
-3201 3169 0
-3202 3170 0
-3203 3171 0
-3196 3168 0
-3197 3169 0
-3198 3170 0
-3199 3171 0
-3196 -3200 3169 0
-3196 -3201 3170 0
-3196 -3202 3171 0
-3196 -3203 3172 0
-3197 -3200 3170 0
-3197 -3201 3171 0
-3197 -3202 3172 0
-3197 -3203 3173 0
-3198 -3200 3171 0
-3198 -3201 3172 0
-3198 -3202 3173 0
-3198 -3203 3174 0
-3199 -3200 3172 0
-3199 -3201 3173 0
-3199 -3202 3174 0
-3199 -3203 3175 0
-3206 3200 0
-3207 3201 0
-3204 3200 0
-3205 3201 0
-3204 -3206 3201 0
-3204 -3207 3202 0
-3205 -3206 3202 0
-3205 -3207 3203 0
-375 3206 0
-374 3206 0
-374 -375 3207 0
-373 3204 0
-372 3204 0
-372 -373 3205 0
-3210 3196 0
-3211 3197 0
-3208 3196 0
-3209 3197 0
-3208 -3210 3197 0
-3208 -3211 3198 0
-3209 -3210 3198 0
-3209 -3211 3199 0
-371 3210 0
-370 3210 0
-370 -371 3211 0
-369 3208 0
-368 3208 0
-368 -369 3209 0
-3227 3041 0
-3228 3042 0
-3229 3043 0
-3230 3044 0
-3231 3045 0
-3232 3046 0
-3233 3047 0
-3234 3048 0
-3235 3049 0
-3236 3050 0
-3237 3051 0
-3238 3052 0
-3239 3053 0
-3240 3054 0
-3212 3041 0
-3213 3042 0
-3214 3043 0
-3215 3044 0
-3216 3045 0
-3217 3046 0
-3218 3047 0
-3219 3048 0
-3220 3049 0
-3221 3050 0
-3222 3051 0
-3223 3052 0
-3224 3053 0
-3225 3054 0
-3226 3055 0
-3212 -3227 3042 0
-3212 -3228 3043 0
-3212 -3229 3044 0
-3212 -3230 3045 0
-3212 -3231 3046 0
-3212 -3232 3047 0
-3212 -3233 3048 0
-3212 -3234 3049 0
-3212 -3235 3050 0
-3212 -3236 3051 0
-3212 -3237 3052 0
-3212 -3238 3053 0
-3212 -3239 3054 0
-3212 -3240 3055 0
-3213 -3227 3043 0
-3213 -3228 3044 0
-3213 -3229 3045 0
-3213 -3230 3046 0
-3213 -3231 3047 0
-3213 -3232 3048 0
-3213 -3233 3049 0
-3213 -3234 3050 0
-3213 -3235 3051 0
-3213 -3236 3052 0
-3213 -3237 3053 0
-3213 -3238 3054 0
-3213 -3239 3055 0
-3213 -3240 3056 0
-3214 -3227 3044 0
-3214 -3228 3045 0
-3214 -3229 3046 0
-3214 -3230 3047 0
-3214 -3231 3048 0
-3214 -3232 3049 0
-3214 -3233 3050 0
-3214 -3234 3051 0
-3214 -3235 3052 0
-3214 -3236 3053 0
-3214 -3237 3054 0
-3214 -3238 3055 0
-3214 -3239 3056 0
-3214 -3240 3057 0
-3215 -3227 3045 0
-3215 -3228 3046 0
-3215 -3229 3047 0
-3215 -3230 3048 0
-3215 -3231 3049 0
-3215 -3232 3050 0
-3215 -3233 3051 0
-3215 -3234 3052 0
-3215 -3235 3053 0
-3215 -3236 3054 0
-3215 -3237 3055 0
-3215 -3238 3056 0
-3215 -3239 3057 0
-3215 -3240 3058 0
-3216 -3227 3046 0
-3216 -3228 3047 0
-3216 -3229 3048 0
-3216 -3230 3049 0
-3216 -3231 3050 0
-3216 -3232 3051 0
-3216 -3233 3052 0
-3216 -3234 3053 0
-3216 -3235 3054 0
-3216 -3236 3055 0
-3216 -3237 3056 0
-3216 -3238 3057 0
-3216 -3239 3058 0
-3216 -3240 3059 0
-3217 -3227 3047 0
-3217 -3228 3048 0
-3217 -3229 3049 0
-3217 -3230 3050 0
-3217 -3231 3051 0
-3217 -3232 3052 0
-3217 -3233 3053 0
-3217 -3234 3054 0
-3217 -3235 3055 0
-3217 -3236 3056 0
-3217 -3237 3057 0
-3217 -3238 3058 0
-3217 -3239 3059 0
-3217 -3240 3060 0
-3218 -3227 3048 0
-3218 -3228 3049 0
-3218 -3229 3050 0
-3218 -3230 3051 0
-3218 -3231 3052 0
-3218 -3232 3053 0
-3218 -3233 3054 0
-3218 -3234 3055 0
-3218 -3235 3056 0
-3218 -3236 3057 0
-3218 -3237 3058 0
-3218 -3238 3059 0
-3218 -3239 3060 0
-3218 -3240 3061 0
-3219 -3227 3049 0
-3219 -3228 3050 0
-3219 -3229 3051 0
-3219 -3230 3052 0
-3219 -3231 3053 0
-3219 -3232 3054 0
-3219 -3233 3055 0
-3219 -3234 3056 0
-3219 -3235 3057 0
-3219 -3236 3058 0
-3219 -3237 3059 0
-3219 -3238 3060 0
-3219 -3239 3061 0
-3219 -3240 3062 0
-3220 -3227 3050 0
-3220 -3228 3051 0
-3220 -3229 3052 0
-3220 -3230 3053 0
-3220 -3231 3054 0
-3220 -3232 3055 0
-3220 -3233 3056 0
-3220 -3234 3057 0
-3220 -3235 3058 0
-3220 -3236 3059 0
-3220 -3237 3060 0
-3220 -3238 3061 0
-3220 -3239 3062 0
-3220 -3240 3063 0
-3221 -3227 3051 0
-3221 -3228 3052 0
-3221 -3229 3053 0
-3221 -3230 3054 0
-3221 -3231 3055 0
-3221 -3232 3056 0
-3221 -3233 3057 0
-3221 -3234 3058 0
-3221 -3235 3059 0
-3221 -3236 3060 0
-3221 -3237 3061 0
-3221 -3238 3062 0
-3221 -3239 3063 0
-3221 -3240 3064 0
-3222 -3227 3052 0
-3222 -3228 3053 0
-3222 -3229 3054 0
-3222 -3230 3055 0
-3222 -3231 3056 0
-3222 -3232 3057 0
-3222 -3233 3058 0
-3222 -3234 3059 0
-3222 -3235 3060 0
-3222 -3236 3061 0
-3222 -3237 3062 0
-3222 -3238 3063 0
-3222 -3239 3064 0
-3222 -3240 3065 0
-3223 -3227 3053 0
-3223 -3228 3054 0
-3223 -3229 3055 0
-3223 -3230 3056 0
-3223 -3231 3057 0
-3223 -3232 3058 0
-3223 -3233 3059 0
-3223 -3234 3060 0
-3223 -3235 3061 0
-3223 -3236 3062 0
-3223 -3237 3063 0
-3223 -3238 3064 0
-3223 -3239 3065 0
-3223 -3240 3066 0
-3224 -3227 3054 0
-3224 -3228 3055 0
-3224 -3229 3056 0
-3224 -3230 3057 0
-3224 -3231 3058 0
-3224 -3232 3059 0
-3224 -3233 3060 0
-3224 -3234 3061 0
-3224 -3235 3062 0
-3224 -3236 3063 0
-3224 -3237 3064 0
-3224 -3238 3065 0
-3224 -3239 3066 0
-3224 -3240 3067 0
-3225 -3227 3055 0
-3225 -3228 3056 0
-3225 -3229 3057 0
-3225 -3230 3058 0
-3225 -3231 3059 0
-3225 -3232 3060 0
-3225 -3233 3061 0
-3225 -3234 3062 0
-3225 -3235 3063 0
-3225 -3236 3064 0
-3225 -3237 3065 0
-3225 -3238 3066 0
-3225 -3239 3067 0
-3225 -3240 3068 0
-3226 -3227 3056 0
-3226 -3228 3057 0
-3226 -3229 3058 0
-3226 -3230 3059 0
-3226 -3231 3060 0
-3226 -3232 3061 0
-3226 -3233 3062 0
-3226 -3234 3063 0
-3226 -3235 3064 0
-3226 -3236 3065 0
-3226 -3237 3066 0
-3226 -3238 3067 0
-3226 -3239 3068 0
-3226 -3240 3069 0
-3248 3227 0
-3249 3228 0
-3250 3229 0
-3251 3230 0
-3252 3231 0
-3253 3232 0
-3254 3233 0
-3241 3227 0
-3242 3228 0
-3243 3229 0
-3244 3230 0
-3245 3231 0
-3246 3232 0
-3247 3233 0
-3241 -3248 3228 0
-3241 -3249 3229 0
-3241 -3250 3230 0
-3241 -3251 3231 0
-3241 -3252 3232 0
-3241 -3253 3233 0
-3241 -3254 3234 0
-3242 -3248 3229 0
-3242 -3249 3230 0
-3242 -3250 3231 0
-3242 -3251 3232 0
-3242 -3252 3233 0
-3242 -3253 3234 0
-3242 -3254 3235 0
-3243 -3248 3230 0
-3243 -3249 3231 0
-3243 -3250 3232 0
-3243 -3251 3233 0
-3243 -3252 3234 0
-3243 -3253 3235 0
-3243 -3254 3236 0
-3244 -3248 3231 0
-3244 -3249 3232 0
-3244 -3250 3233 0
-3244 -3251 3234 0
-3244 -3252 3235 0
-3244 -3253 3236 0
-3244 -3254 3237 0
-3245 -3248 3232 0
-3245 -3249 3233 0
-3245 -3250 3234 0
-3245 -3251 3235 0
-3245 -3252 3236 0
-3245 -3253 3237 0
-3245 -3254 3238 0
-3246 -3248 3233 0
-3246 -3249 3234 0
-3246 -3250 3235 0
-3246 -3251 3236 0
-3246 -3252 3237 0
-3246 -3253 3238 0
-3246 -3254 3239 0
-3247 -3248 3234 0
-3247 -3249 3235 0
-3247 -3250 3236 0
-3247 -3251 3237 0
-3247 -3252 3238 0
-3247 -3253 3239 0
-3247 -3254 3240 0
-3259 3248 0
-3260 3249 0
-3261 3250 0
-3255 3248 0
-3256 3249 0
-3257 3250 0
-3258 3251 0
-3255 -3259 3249 0
-3255 -3260 3250 0
-3255 -3261 3251 0
-3256 -3259 3250 0
-3256 -3260 3251 0
-3256 -3261 3252 0
-3257 -3259 3251 0
-3257 -3260 3252 0
-3257 -3261 3253 0
-3258 -3259 3252 0
-3258 -3260 3253 0
-3258 -3261 3254 0
-367 3259 0
-3262 3259 0
-3263 3260 0
-3262 -367 3260 0
-3263 -367 3261 0
-366 3262 0
-365 3262 0
-365 -366 3263 0
-3266 3255 0
-3267 3256 0
-3264 3255 0
-3265 3256 0
-3264 -3266 3256 0
-3264 -3267 3257 0
-3265 -3266 3257 0
-3265 -3267 3258 0
-364 3266 0
-363 3266 0
-363 -364 3267 0
-362 3264 0
-361 3264 0
-361 -362 3265 0
-3272 3241 0
-3273 3242 0
-3274 3243 0
-3268 3241 0
-3269 3242 0
-3270 3243 0
-3271 3244 0
-3268 -3272 3242 0
-3268 -3273 3243 0
-3268 -3274 3244 0
-3269 -3272 3243 0
-3269 -3273 3244 0
-3269 -3274 3245 0
-3270 -3272 3244 0
-3270 -3273 3245 0
-3270 -3274 3246 0
-3271 -3272 3245 0
-3271 -3273 3246 0
-3271 -3274 3247 0
-360 3272 0
-3275 3272 0
-3276 3273 0
-3275 -360 3273 0
-3276 -360 3274 0
-359 3275 0
-358 3275 0
-358 -359 3276 0
-3279 3268 0
-3280 3269 0
-3277 3268 0
-3278 3269 0
-3277 -3279 3269 0
-3277 -3280 3270 0
-3278 -3279 3270 0
-3278 -3280 3271 0
-357 3279 0
-356 3279 0
-356 -357 3280 0
-355 3277 0
-354 3277 0
-354 -355 3278 0
-3289 3212 0
-3290 3213 0
-3291 3214 0
-3292 3215 0
-3293 3216 0
-3294 3217 0
-3295 3218 0
-3281 3212 0
-3282 3213 0
-3283 3214 0
-3284 3215 0
-3285 3216 0
-3286 3217 0
-3287 3218 0
-3288 3219 0
-3281 -3289 3213 0
-3281 -3290 3214 0
-3281 -3291 3215 0
-3281 -3292 3216 0
-3281 -3293 3217 0
-3281 -3294 3218 0
-3281 -3295 3219 0
-3282 -3289 3214 0
-3282 -3290 3215 0
-3282 -3291 3216 0
-3282 -3292 3217 0
-3282 -3293 3218 0
-3282 -3294 3219 0
-3282 -3295 3220 0
-3283 -3289 3215 0
-3283 -3290 3216 0
-3283 -3291 3217 0
-3283 -3292 3218 0
-3283 -3293 3219 0
-3283 -3294 3220 0
-3283 -3295 3221 0
-3284 -3289 3216 0
-3284 -3290 3217 0
-3284 -3291 3218 0
-3284 -3292 3219 0
-3284 -3293 3220 0
-3284 -3294 3221 0
-3284 -3295 3222 0
-3285 -3289 3217 0
-3285 -3290 3218 0
-3285 -3291 3219 0
-3285 -3292 3220 0
-3285 -3293 3221 0
-3285 -3294 3222 0
-3285 -3295 3223 0
-3286 -3289 3218 0
-3286 -3290 3219 0
-3286 -3291 3220 0
-3286 -3292 3221 0
-3286 -3293 3222 0
-3286 -3294 3223 0
-3286 -3295 3224 0
-3287 -3289 3219 0
-3287 -3290 3220 0
-3287 -3291 3221 0
-3287 -3292 3222 0
-3287 -3293 3223 0
-3287 -3294 3224 0
-3287 -3295 3225 0
-3288 -3289 3220 0
-3288 -3290 3221 0
-3288 -3291 3222 0
-3288 -3292 3223 0
-3288 -3293 3224 0
-3288 -3294 3225 0
-3288 -3295 3226 0
-3300 3289 0
-3301 3290 0
-3302 3291 0
-3296 3289 0
-3297 3290 0
-3298 3291 0
-3299 3292 0
-3296 -3300 3290 0
-3296 -3301 3291 0
-3296 -3302 3292 0
-3297 -3300 3291 0
-3297 -3301 3292 0
-3297 -3302 3293 0
-3298 -3300 3292 0
-3298 -3301 3293 0
-3298 -3302 3294 0
-3299 -3300 3293 0
-3299 -3301 3294 0
-3299 -3302 3295 0
-353 3300 0
-3303 3300 0
-3304 3301 0
-3303 -353 3301 0
-3304 -353 3302 0
-352 3303 0
-351 3303 0
-351 -352 3304 0
-3307 3296 0
-3308 3297 0
-3305 3296 0
-3306 3297 0
-3305 -3307 3297 0
-3305 -3308 3298 0
-3306 -3307 3298 0
-3306 -3308 3299 0
-350 3307 0
-349 3307 0
-349 -350 3308 0
-348 3305 0
-347 3305 0
-347 -348 3306 0
-3313 3281 0
-3314 3282 0
-3315 3283 0
-3316 3284 0
-3309 3281 0
-3310 3282 0
-3311 3283 0
-3312 3284 0
-3309 -3313 3282 0
-3309 -3314 3283 0
-3309 -3315 3284 0
-3309 -3316 3285 0
-3310 -3313 3283 0
-3310 -3314 3284 0
-3310 -3315 3285 0
-3310 -3316 3286 0
-3311 -3313 3284 0
-3311 -3314 3285 0
-3311 -3315 3286 0
-3311 -3316 3287 0
-3312 -3313 3285 0
-3312 -3314 3286 0
-3312 -3315 3287 0
-3312 -3316 3288 0
-3319 3313 0
-3320 3314 0
-3317 3313 0
-3318 3314 0
-3317 -3319 3314 0
-3317 -3320 3315 0
-3318 -3319 3315 0
-3318 -3320 3316 0
-346 3319 0
-345 3319 0
-345 -346 3320 0
-344 3317 0
-343 3317 0
-343 -344 3318 0
-3323 3309 0
-3324 3310 0
-3321 3309 0
-3322 3310 0
-3321 -3323 3310 0
-3321 -3324 3311 0
-3322 -3323 3311 0
-3322 -3324 3312 0
-342 3323 0
-341 3323 0
-341 -342 3324 0
-340 3321 0
-339 3321 0
-339 -340 3322 0
-3354 2925 0
-3355 2926 0
-3356 2927 0
-3357 2928 0
-3358 2929 0
-3359 2930 0
-3360 2931 0
-3361 2932 0
-3362 2933 0
-3363 2934 0
-3364 2935 0
-3365 2936 0
-3366 2937 0
-3367 2938 0
-3368 2939 0
-3369 2940 0
-3370 2941 0
-3371 2942 0
-3372 2943 0
-3373 2944 0
-3374 2945 0
-3375 2946 0
-3376 2947 0
-3377 2948 0
-3378 2949 0
-3379 2950 0
-3380 2951 0
-3381 2952 0
-3382 2953 0
-3325 2925 0
-3326 2926 0
-3327 2927 0
-3328 2928 0
-3329 2929 0
-3330 2930 0
-3331 2931 0
-3332 2932 0
-3333 2933 0
-3334 2934 0
-3335 2935 0
-3336 2936 0
-3337 2937 0
-3338 2938 0
-3339 2939 0
-3340 2940 0
-3341 2941 0
-3342 2942 0
-3343 2943 0
-3344 2944 0
-3345 2945 0
-3346 2946 0
-3347 2947 0
-3348 2948 0
-3349 2949 0
-3350 2950 0
-3351 2951 0
-3352 2952 0
-3353 2953 0
-3325 -3354 2926 0
-3325 -3355 2927 0
-3325 -3356 2928 0
-3325 -3357 2929 0
-3325 -3358 2930 0
-3325 -3359 2931 0
-3325 -3360 2932 0
-3325 -3361 2933 0
-3325 -3362 2934 0
-3325 -3363 2935 0
-3325 -3364 2936 0
-3325 -3365 2937 0
-3325 -3366 2938 0
-3325 -3367 2939 0
-3325 -3368 2940 0
-3325 -3369 2941 0
-3325 -3370 2942 0
-3325 -3371 2943 0
-3325 -3372 2944 0
-3325 -3373 2945 0
-3325 -3374 2946 0
-3325 -3375 2947 0
-3325 -3376 2948 0
-3325 -3377 2949 0
-3325 -3378 2950 0
-3325 -3379 2951 0
-3325 -3380 2952 0
-3325 -3381 2953 0
-3325 -3382 2954 0
-3326 -3354 2927 0
-3326 -3355 2928 0
-3326 -3356 2929 0
-3326 -3357 2930 0
-3326 -3358 2931 0
-3326 -3359 2932 0
-3326 -3360 2933 0
-3326 -3361 2934 0
-3326 -3362 2935 0
-3326 -3363 2936 0
-3326 -3364 2937 0
-3326 -3365 2938 0
-3326 -3366 2939 0
-3326 -3367 2940 0
-3326 -3368 2941 0
-3326 -3369 2942 0
-3326 -3370 2943 0
-3326 -3371 2944 0
-3326 -3372 2945 0
-3326 -3373 2946 0
-3326 -3374 2947 0
-3326 -3375 2948 0
-3326 -3376 2949 0
-3326 -3377 2950 0
-3326 -3378 2951 0
-3326 -3379 2952 0
-3326 -3380 2953 0
-3326 -3381 2954 0
-3326 -3382 2955 0
-3327 -3354 2928 0
-3327 -3355 2929 0
-3327 -3356 2930 0
-3327 -3357 2931 0
-3327 -3358 2932 0
-3327 -3359 2933 0
-3327 -3360 2934 0
-3327 -3361 2935 0
-3327 -3362 2936 0
-3327 -3363 2937 0
-3327 -3364 2938 0
-3327 -3365 2939 0
-3327 -3366 2940 0
-3327 -3367 2941 0
-3327 -3368 2942 0
-3327 -3369 2943 0
-3327 -3370 2944 0
-3327 -3371 2945 0
-3327 -3372 2946 0
-3327 -3373 2947 0
-3327 -3374 2948 0
-3327 -3375 2949 0
-3327 -3376 2950 0
-3327 -3377 2951 0
-3327 -3378 2952 0
-3327 -3379 2953 0
-3327 -3380 2954 0
-3327 -3381 2955 0
-3327 -3382 2956 0
-3328 -3354 2929 0
-3328 -3355 2930 0
-3328 -3356 2931 0
-3328 -3357 2932 0
-3328 -3358 2933 0
-3328 -3359 2934 0
-3328 -3360 2935 0
-3328 -3361 2936 0
-3328 -3362 2937 0
-3328 -3363 2938 0
-3328 -3364 2939 0
-3328 -3365 2940 0
-3328 -3366 2941 0
-3328 -3367 2942 0
-3328 -3368 2943 0
-3328 -3369 2944 0
-3328 -3370 2945 0
-3328 -3371 2946 0
-3328 -3372 2947 0
-3328 -3373 2948 0
-3328 -3374 2949 0
-3328 -3375 2950 0
-3328 -3376 2951 0
-3328 -3377 2952 0
-3328 -3378 2953 0
-3328 -3379 2954 0
-3328 -3380 2955 0
-3328 -3381 2956 0
-3328 -3382 2957 0
-3329 -3354 2930 0
-3329 -3355 2931 0
-3329 -3356 2932 0
-3329 -3357 2933 0
-3329 -3358 2934 0
-3329 -3359 2935 0
-3329 -3360 2936 0
-3329 -3361 2937 0
-3329 -3362 2938 0
-3329 -3363 2939 0
-3329 -3364 2940 0
-3329 -3365 2941 0
-3329 -3366 2942 0
-3329 -3367 2943 0
-3329 -3368 2944 0
-3329 -3369 2945 0
-3329 -3370 2946 0
-3329 -3371 2947 0
-3329 -3372 2948 0
-3329 -3373 2949 0
-3329 -3374 2950 0
-3329 -3375 2951 0
-3329 -3376 2952 0
-3329 -3377 2953 0
-3329 -3378 2954 0
-3329 -3379 2955 0
-3329 -3380 2956 0
-3329 -3381 2957 0
-3329 -3382 2958 0
-3330 -3354 2931 0
-3330 -3355 2932 0
-3330 -3356 2933 0
-3330 -3357 2934 0
-3330 -3358 2935 0
-3330 -3359 2936 0
-3330 -3360 2937 0
-3330 -3361 2938 0
-3330 -3362 2939 0
-3330 -3363 2940 0
-3330 -3364 2941 0
-3330 -3365 2942 0
-3330 -3366 2943 0
-3330 -3367 2944 0
-3330 -3368 2945 0
-3330 -3369 2946 0
-3330 -3370 2947 0
-3330 -3371 2948 0
-3330 -3372 2949 0
-3330 -3373 2950 0
-3330 -3374 2951 0
-3330 -3375 2952 0
-3330 -3376 2953 0
-3330 -3377 2954 0
-3330 -3378 2955 0
-3330 -3379 2956 0
-3330 -3380 2957 0
-3330 -3381 2958 0
-3330 -3382 2959 0
-3331 -3354 2932 0
-3331 -3355 2933 0
-3331 -3356 2934 0
-3331 -3357 2935 0
-3331 -3358 2936 0
-3331 -3359 2937 0
-3331 -3360 2938 0
-3331 -3361 2939 0
-3331 -3362 2940 0
-3331 -3363 2941 0
-3331 -3364 2942 0
-3331 -3365 2943 0
-3331 -3366 2944 0
-3331 -3367 2945 0
-3331 -3368 2946 0
-3331 -3369 2947 0
-3331 -3370 2948 0
-3331 -3371 2949 0
-3331 -3372 2950 0
-3331 -3373 2951 0
-3331 -3374 2952 0
-3331 -3375 2953 0
-3331 -3376 2954 0
-3331 -3377 2955 0
-3331 -3378 2956 0
-3331 -3379 2957 0
-3331 -3380 2958 0
-3331 -3381 2959 0
-3331 -3382 2960 0
-3332 -3354 2933 0
-3332 -3355 2934 0
-3332 -3356 2935 0
-3332 -3357 2936 0
-3332 -3358 2937 0
-3332 -3359 2938 0
-3332 -3360 2939 0
-3332 -3361 2940 0
-3332 -3362 2941 0
-3332 -3363 2942 0
-3332 -3364 2943 0
-3332 -3365 2944 0
-3332 -3366 2945 0
-3332 -3367 2946 0
-3332 -3368 2947 0
-3332 -3369 2948 0
-3332 -3370 2949 0
-3332 -3371 2950 0
-3332 -3372 2951 0
-3332 -3373 2952 0
-3332 -3374 2953 0
-3332 -3375 2954 0
-3332 -3376 2955 0
-3332 -3377 2956 0
-3332 -3378 2957 0
-3332 -3379 2958 0
-3332 -3380 2959 0
-3332 -3381 2960 0
-3332 -3382 2961 0
-3333 -3354 2934 0
-3333 -3355 2935 0
-3333 -3356 2936 0
-3333 -3357 2937 0
-3333 -3358 2938 0
-3333 -3359 2939 0
-3333 -3360 2940 0
-3333 -3361 2941 0
-3333 -3362 2942 0
-3333 -3363 2943 0
-3333 -3364 2944 0
-3333 -3365 2945 0
-3333 -3366 2946 0
-3333 -3367 2947 0
-3333 -3368 2948 0
-3333 -3369 2949 0
-3333 -3370 2950 0
-3333 -3371 2951 0
-3333 -3372 2952 0
-3333 -3373 2953 0
-3333 -3374 2954 0
-3333 -3375 2955 0
-3333 -3376 2956 0
-3333 -3377 2957 0
-3333 -3378 2958 0
-3333 -3379 2959 0
-3333 -3380 2960 0
-3333 -3381 2961 0
-3333 -3382 2962 0
-3334 -3354 2935 0
-3334 -3355 2936 0
-3334 -3356 2937 0
-3334 -3357 2938 0
-3334 -3358 2939 0
-3334 -3359 2940 0
-3334 -3360 2941 0
-3334 -3361 2942 0
-3334 -3362 2943 0
-3334 -3363 2944 0
-3334 -3364 2945 0
-3334 -3365 2946 0
-3334 -3366 2947 0
-3334 -3367 2948 0
-3334 -3368 2949 0
-3334 -3369 2950 0
-3334 -3370 2951 0
-3334 -3371 2952 0
-3334 -3372 2953 0
-3334 -3373 2954 0
-3334 -3374 2955 0
-3334 -3375 2956 0
-3334 -3376 2957 0
-3334 -3377 2958 0
-3334 -3378 2959 0
-3334 -3379 2960 0
-3334 -3380 2961 0
-3334 -3381 2962 0
-3334 -3382 2963 0
-3335 -3354 2936 0
-3335 -3355 2937 0
-3335 -3356 2938 0
-3335 -3357 2939 0
-3335 -3358 2940 0
-3335 -3359 2941 0
-3335 -3360 2942 0
-3335 -3361 2943 0
-3335 -3362 2944 0
-3335 -3363 2945 0
-3335 -3364 2946 0
-3335 -3365 2947 0
-3335 -3366 2948 0
-3335 -3367 2949 0
-3335 -3368 2950 0
-3335 -3369 2951 0
-3335 -3370 2952 0
-3335 -3371 2953 0
-3335 -3372 2954 0
-3335 -3373 2955 0
-3335 -3374 2956 0
-3335 -3375 2957 0
-3335 -3376 2958 0
-3335 -3377 2959 0
-3335 -3378 2960 0
-3335 -3379 2961 0
-3335 -3380 2962 0
-3335 -3381 2963 0
-3335 -3382 2964 0
-3336 -3354 2937 0
-3336 -3355 2938 0
-3336 -3356 2939 0
-3336 -3357 2940 0
-3336 -3358 2941 0
-3336 -3359 2942 0
-3336 -3360 2943 0
-3336 -3361 2944 0
-3336 -3362 2945 0
-3336 -3363 2946 0
-3336 -3364 2947 0
-3336 -3365 2948 0
-3336 -3366 2949 0
-3336 -3367 2950 0
-3336 -3368 2951 0
-3336 -3369 2952 0
-3336 -3370 2953 0
-3336 -3371 2954 0
-3336 -3372 2955 0
-3336 -3373 2956 0
-3336 -3374 2957 0
-3336 -3375 2958 0
-3336 -3376 2959 0
-3336 -3377 2960 0
-3336 -3378 2961 0
-3336 -3379 2962 0
-3336 -3380 2963 0
-3336 -3381 2964 0
-3336 -3382 2965 0
-3337 -3354 2938 0
-3337 -3355 2939 0
-3337 -3356 2940 0
-3337 -3357 2941 0
-3337 -3358 2942 0
-3337 -3359 2943 0
-3337 -3360 2944 0
-3337 -3361 2945 0
-3337 -3362 2946 0
-3337 -3363 2947 0
-3337 -3364 2948 0
-3337 -3365 2949 0
-3337 -3366 2950 0
-3337 -3367 2951 0
-3337 -3368 2952 0
-3337 -3369 2953 0
-3337 -3370 2954 0
-3337 -3371 2955 0
-3337 -3372 2956 0
-3337 -3373 2957 0
-3337 -3374 2958 0
-3337 -3375 2959 0
-3337 -3376 2960 0
-3337 -3377 2961 0
-3337 -3378 2962 0
-3337 -3379 2963 0
-3337 -3380 2964 0
-3337 -3381 2965 0
-3337 -3382 2966 0
-3338 -3354 2939 0
-3338 -3355 2940 0
-3338 -3356 2941 0
-3338 -3357 2942 0
-3338 -3358 2943 0
-3338 -3359 2944 0
-3338 -3360 2945 0
-3338 -3361 2946 0
-3338 -3362 2947 0
-3338 -3363 2948 0
-3338 -3364 2949 0
-3338 -3365 2950 0
-3338 -3366 2951 0
-3338 -3367 2952 0
-3338 -3368 2953 0
-3338 -3369 2954 0
-3338 -3370 2955 0
-3338 -3371 2956 0
-3338 -3372 2957 0
-3338 -3373 2958 0
-3338 -3374 2959 0
-3338 -3375 2960 0
-3338 -3376 2961 0
-3338 -3377 2962 0
-3338 -3378 2963 0
-3338 -3379 2964 0
-3338 -3380 2965 0
-3338 -3381 2966 0
-3338 -3382 2967 0
-3339 -3354 2940 0
-3339 -3355 2941 0
-3339 -3356 2942 0
-3339 -3357 2943 0
-3339 -3358 2944 0
-3339 -3359 2945 0
-3339 -3360 2946 0
-3339 -3361 2947 0
-3339 -3362 2948 0
-3339 -3363 2949 0
-3339 -3364 2950 0
-3339 -3365 2951 0
-3339 -3366 2952 0
-3339 -3367 2953 0
-3339 -3368 2954 0
-3339 -3369 2955 0
-3339 -3370 2956 0
-3339 -3371 2957 0
-3339 -3372 2958 0
-3339 -3373 2959 0
-3339 -3374 2960 0
-3339 -3375 2961 0
-3339 -3376 2962 0
-3339 -3377 2963 0
-3339 -3378 2964 0
-3339 -3379 2965 0
-3339 -3380 2966 0
-3339 -3381 2967 0
-3339 -3382 2968 0
-3340 -3354 2941 0
-3340 -3355 2942 0
-3340 -3356 2943 0
-3340 -3357 2944 0
-3340 -3358 2945 0
-3340 -3359 2946 0
-3340 -3360 2947 0
-3340 -3361 2948 0
-3340 -3362 2949 0
-3340 -3363 2950 0
-3340 -3364 2951 0
-3340 -3365 2952 0
-3340 -3366 2953 0
-3340 -3367 2954 0
-3340 -3368 2955 0
-3340 -3369 2956 0
-3340 -3370 2957 0
-3340 -3371 2958 0
-3340 -3372 2959 0
-3340 -3373 2960 0
-3340 -3374 2961 0
-3340 -3375 2962 0
-3340 -3376 2963 0
-3340 -3377 2964 0
-3340 -3378 2965 0
-3340 -3379 2966 0
-3340 -3380 2967 0
-3340 -3381 2968 0
-3340 -3382 2969 0
-3341 -3354 2942 0
-3341 -3355 2943 0
-3341 -3356 2944 0
-3341 -3357 2945 0
-3341 -3358 2946 0
-3341 -3359 2947 0
-3341 -3360 2948 0
-3341 -3361 2949 0
-3341 -3362 2950 0
-3341 -3363 2951 0
-3341 -3364 2952 0
-3341 -3365 2953 0
-3341 -3366 2954 0
-3341 -3367 2955 0
-3341 -3368 2956 0
-3341 -3369 2957 0
-3341 -3370 2958 0
-3341 -3371 2959 0
-3341 -3372 2960 0
-3341 -3373 2961 0
-3341 -3374 2962 0
-3341 -3375 2963 0
-3341 -3376 2964 0
-3341 -3377 2965 0
-3341 -3378 2966 0
-3341 -3379 2967 0
-3341 -3380 2968 0
-3341 -3381 2969 0
-3341 -3382 2970 0
-3342 -3354 2943 0
-3342 -3355 2944 0
-3342 -3356 2945 0
-3342 -3357 2946 0
-3342 -3358 2947 0
-3342 -3359 2948 0
-3342 -3360 2949 0
-3342 -3361 2950 0
-3342 -3362 2951 0
-3342 -3363 2952 0
-3342 -3364 2953 0
-3342 -3365 2954 0
-3342 -3366 2955 0
-3342 -3367 2956 0
-3342 -3368 2957 0
-3342 -3369 2958 0
-3342 -3370 2959 0
-3342 -3371 2960 0
-3342 -3372 2961 0
-3342 -3373 2962 0
-3342 -3374 2963 0
-3342 -3375 2964 0
-3342 -3376 2965 0
-3342 -3377 2966 0
-3342 -3378 2967 0
-3342 -3379 2968 0
-3342 -3380 2969 0
-3342 -3381 2970 0
-3342 -3382 2971 0
-3343 -3354 2944 0
-3343 -3355 2945 0
-3343 -3356 2946 0
-3343 -3357 2947 0
-3343 -3358 2948 0
-3343 -3359 2949 0
-3343 -3360 2950 0
-3343 -3361 2951 0
-3343 -3362 2952 0
-3343 -3363 2953 0
-3343 -3364 2954 0
-3343 -3365 2955 0
-3343 -3366 2956 0
-3343 -3367 2957 0
-3343 -3368 2958 0
-3343 -3369 2959 0
-3343 -3370 2960 0
-3343 -3371 2961 0
-3343 -3372 2962 0
-3343 -3373 2963 0
-3343 -3374 2964 0
-3343 -3375 2965 0
-3343 -3376 2966 0
-3343 -3377 2967 0
-3343 -3378 2968 0
-3343 -3379 2969 0
-3343 -3380 2970 0
-3343 -3381 2971 0
-3343 -3382 2972 0
-3344 -3354 2945 0
-3344 -3355 2946 0
-3344 -3356 2947 0
-3344 -3357 2948 0
-3344 -3358 2949 0
-3344 -3359 2950 0
-3344 -3360 2951 0
-3344 -3361 2952 0
-3344 -3362 2953 0
-3344 -3363 2954 0
-3344 -3364 2955 0
-3344 -3365 2956 0
-3344 -3366 2957 0
-3344 -3367 2958 0
-3344 -3368 2959 0
-3344 -3369 2960 0
-3344 -3370 2961 0
-3344 -3371 2962 0
-3344 -3372 2963 0
-3344 -3373 2964 0
-3344 -3374 2965 0
-3344 -3375 2966 0
-3344 -3376 2967 0
-3344 -3377 2968 0
-3344 -3378 2969 0
-3344 -3379 2970 0
-3344 -3380 2971 0
-3344 -3381 2972 0
-3344 -3382 2973 0
-3345 -3354 2946 0
-3345 -3355 2947 0
-3345 -3356 2948 0
-3345 -3357 2949 0
-3345 -3358 2950 0
-3345 -3359 2951 0
-3345 -3360 2952 0
-3345 -3361 2953 0
-3345 -3362 2954 0
-3345 -3363 2955 0
-3345 -3364 2956 0
-3345 -3365 2957 0
-3345 -3366 2958 0
-3345 -3367 2959 0
-3345 -3368 2960 0
-3345 -3369 2961 0
-3345 -3370 2962 0
-3345 -3371 2963 0
-3345 -3372 2964 0
-3345 -3373 2965 0
-3345 -3374 2966 0
-3345 -3375 2967 0
-3345 -3376 2968 0
-3345 -3377 2969 0
-3345 -3378 2970 0
-3345 -3379 2971 0
-3345 -3380 2972 0
-3345 -3381 2973 0
-3345 -3382 2974 0
-3346 -3354 2947 0
-3346 -3355 2948 0
-3346 -3356 2949 0
-3346 -3357 2950 0
-3346 -3358 2951 0
-3346 -3359 2952 0
-3346 -3360 2953 0
-3346 -3361 2954 0
-3346 -3362 2955 0
-3346 -3363 2956 0
-3346 -3364 2957 0
-3346 -3365 2958 0
-3346 -3366 2959 0
-3346 -3367 2960 0
-3346 -3368 2961 0
-3346 -3369 2962 0
-3346 -3370 2963 0
-3346 -3371 2964 0
-3346 -3372 2965 0
-3346 -3373 2966 0
-3346 -3374 2967 0
-3346 -3375 2968 0
-3346 -3376 2969 0
-3346 -3377 2970 0
-3346 -3378 2971 0
-3346 -3379 2972 0
-3346 -3380 2973 0
-3346 -3381 2974 0
-3346 -3382 2975 0
-3347 -3354 2948 0
-3347 -3355 2949 0
-3347 -3356 2950 0
-3347 -3357 2951 0
-3347 -3358 2952 0
-3347 -3359 2953 0
-3347 -3360 2954 0
-3347 -3361 2955 0
-3347 -3362 2956 0
-3347 -3363 2957 0
-3347 -3364 2958 0
-3347 -3365 2959 0
-3347 -3366 2960 0
-3347 -3367 2961 0
-3347 -3368 2962 0
-3347 -3369 2963 0
-3347 -3370 2964 0
-3347 -3371 2965 0
-3347 -3372 2966 0
-3347 -3373 2967 0
-3347 -3374 2968 0
-3347 -3375 2969 0
-3347 -3376 2970 0
-3347 -3377 2971 0
-3347 -3378 2972 0
-3347 -3379 2973 0
-3347 -3380 2974 0
-3347 -3381 2975 0
-3347 -3382 2976 0
-3348 -3354 2949 0
-3348 -3355 2950 0
-3348 -3356 2951 0
-3348 -3357 2952 0
-3348 -3358 2953 0
-3348 -3359 2954 0
-3348 -3360 2955 0
-3348 -3361 2956 0
-3348 -3362 2957 0
-3348 -3363 2958 0
-3348 -3364 2959 0
-3348 -3365 2960 0
-3348 -3366 2961 0
-3348 -3367 2962 0
-3348 -3368 2963 0
-3348 -3369 2964 0
-3348 -3370 2965 0
-3348 -3371 2966 0
-3348 -3372 2967 0
-3348 -3373 2968 0
-3348 -3374 2969 0
-3348 -3375 2970 0
-3348 -3376 2971 0
-3348 -3377 2972 0
-3348 -3378 2973 0
-3348 -3379 2974 0
-3348 -3380 2975 0
-3348 -3381 2976 0
-3348 -3382 2977 0
-3349 -3354 2950 0
-3349 -3355 2951 0
-3349 -3356 2952 0
-3349 -3357 2953 0
-3349 -3358 2954 0
-3349 -3359 2955 0
-3349 -3360 2956 0
-3349 -3361 2957 0
-3349 -3362 2958 0
-3349 -3363 2959 0
-3349 -3364 2960 0
-3349 -3365 2961 0
-3349 -3366 2962 0
-3349 -3367 2963 0
-3349 -3368 2964 0
-3349 -3369 2965 0
-3349 -3370 2966 0
-3349 -3371 2967 0
-3349 -3372 2968 0
-3349 -3373 2969 0
-3349 -3374 2970 0
-3349 -3375 2971 0
-3349 -3376 2972 0
-3349 -3377 2973 0
-3349 -3378 2974 0
-3349 -3379 2975 0
-3349 -3380 2976 0
-3349 -3381 2977 0
-3349 -3382 2978 0
-3350 -3354 2951 0
-3350 -3355 2952 0
-3350 -3356 2953 0
-3350 -3357 2954 0
-3350 -3358 2955 0
-3350 -3359 2956 0
-3350 -3360 2957 0
-3350 -3361 2958 0
-3350 -3362 2959 0
-3350 -3363 2960 0
-3350 -3364 2961 0
-3350 -3365 2962 0
-3350 -3366 2963 0
-3350 -3367 2964 0
-3350 -3368 2965 0
-3350 -3369 2966 0
-3350 -3370 2967 0
-3350 -3371 2968 0
-3350 -3372 2969 0
-3350 -3373 2970 0
-3350 -3374 2971 0
-3350 -3375 2972 0
-3350 -3376 2973 0
-3350 -3377 2974 0
-3350 -3378 2975 0
-3350 -3379 2976 0
-3350 -3380 2977 0
-3350 -3381 2978 0
-3350 -3382 2979 0
-3351 -3354 2952 0
-3351 -3355 2953 0
-3351 -3356 2954 0
-3351 -3357 2955 0
-3351 -3358 2956 0
-3351 -3359 2957 0
-3351 -3360 2958 0
-3351 -3361 2959 0
-3351 -3362 2960 0
-3351 -3363 2961 0
-3351 -3364 2962 0
-3351 -3365 2963 0
-3351 -3366 2964 0
-3351 -3367 2965 0
-3351 -3368 2966 0
-3351 -3369 2967 0
-3351 -3370 2968 0
-3351 -3371 2969 0
-3351 -3372 2970 0
-3351 -3373 2971 0
-3351 -3374 2972 0
-3351 -3375 2973 0
-3351 -3376 2974 0
-3351 -3377 2975 0
-3351 -3378 2976 0
-3351 -3379 2977 0
-3351 -3380 2978 0
-3351 -3381 2979 0
-3351 -3382 2980 0
-3352 -3354 2953 0
-3352 -3355 2954 0
-3352 -3356 2955 0
-3352 -3357 2956 0
-3352 -3358 2957 0
-3352 -3359 2958 0
-3352 -3360 2959 0
-3352 -3361 2960 0
-3352 -3362 2961 0
-3352 -3363 2962 0
-3352 -3364 2963 0
-3352 -3365 2964 0
-3352 -3366 2965 0
-3352 -3367 2966 0
-3352 -3368 2967 0
-3352 -3369 2968 0
-3352 -3370 2969 0
-3352 -3371 2970 0
-3352 -3372 2971 0
-3352 -3373 2972 0
-3352 -3374 2973 0
-3352 -3375 2974 0
-3352 -3376 2975 0
-3352 -3377 2976 0
-3352 -3378 2977 0
-3352 -3379 2978 0
-3352 -3380 2979 0
-3352 -3381 2980 0
-3352 -3382 2981 0
-3353 -3354 2954 0
-3353 -3355 2955 0
-3353 -3356 2956 0
-3353 -3357 2957 0
-3353 -3358 2958 0
-3353 -3359 2959 0
-3353 -3360 2960 0
-3353 -3361 2961 0
-3353 -3362 2962 0
-3353 -3363 2963 0
-3353 -3364 2964 0
-3353 -3365 2965 0
-3353 -3366 2966 0
-3353 -3367 2967 0
-3353 -3368 2968 0
-3353 -3369 2969 0
-3353 -3370 2970 0
-3353 -3371 2971 0
-3353 -3372 2972 0
-3353 -3373 2973 0
-3353 -3374 2974 0
-3353 -3375 2975 0
-3353 -3376 2976 0
-3353 -3377 2977 0
-3353 -3378 2978 0
-3353 -3379 2979 0
-3353 -3380 2980 0
-3353 -3381 2981 0
-3353 -3382 2982 0
-3398 3354 0
-3399 3355 0
-3400 3356 0
-3401 3357 0
-3402 3358 0
-3403 3359 0
-3404 3360 0
-3405 3361 0
-3406 3362 0
-3407 3363 0
-3408 3364 0
-3409 3365 0
-3410 3366 0
-3411 3367 0
-3383 3354 0
-3384 3355 0
-3385 3356 0
-3386 3357 0
-3387 3358 0
-3388 3359 0
-3389 3360 0
-3390 3361 0
-3391 3362 0
-3392 3363 0
-3393 3364 0
-3394 3365 0
-3395 3366 0
-3396 3367 0
-3397 3368 0
-3383 -3398 3355 0
-3383 -3399 3356 0
-3383 -3400 3357 0
-3383 -3401 3358 0
-3383 -3402 3359 0
-3383 -3403 3360 0
-3383 -3404 3361 0
-3383 -3405 3362 0
-3383 -3406 3363 0
-3383 -3407 3364 0
-3383 -3408 3365 0
-3383 -3409 3366 0
-3383 -3410 3367 0
-3383 -3411 3368 0
-3384 -3398 3356 0
-3384 -3399 3357 0
-3384 -3400 3358 0
-3384 -3401 3359 0
-3384 -3402 3360 0
-3384 -3403 3361 0
-3384 -3404 3362 0
-3384 -3405 3363 0
-3384 -3406 3364 0
-3384 -3407 3365 0
-3384 -3408 3366 0
-3384 -3409 3367 0
-3384 -3410 3368 0
-3384 -3411 3369 0
-3385 -3398 3357 0
-3385 -3399 3358 0
-3385 -3400 3359 0
-3385 -3401 3360 0
-3385 -3402 3361 0
-3385 -3403 3362 0
-3385 -3404 3363 0
-3385 -3405 3364 0
-3385 -3406 3365 0
-3385 -3407 3366 0
-3385 -3408 3367 0
-3385 -3409 3368 0
-3385 -3410 3369 0
-3385 -3411 3370 0
-3386 -3398 3358 0
-3386 -3399 3359 0
-3386 -3400 3360 0
-3386 -3401 3361 0
-3386 -3402 3362 0
-3386 -3403 3363 0
-3386 -3404 3364 0
-3386 -3405 3365 0
-3386 -3406 3366 0
-3386 -3407 3367 0
-3386 -3408 3368 0
-3386 -3409 3369 0
-3386 -3410 3370 0
-3386 -3411 3371 0
-3387 -3398 3359 0
-3387 -3399 3360 0
-3387 -3400 3361 0
-3387 -3401 3362 0
-3387 -3402 3363 0
-3387 -3403 3364 0
-3387 -3404 3365 0
-3387 -3405 3366 0
-3387 -3406 3367 0
-3387 -3407 3368 0
-3387 -3408 3369 0
-3387 -3409 3370 0
-3387 -3410 3371 0
-3387 -3411 3372 0
-3388 -3398 3360 0
-3388 -3399 3361 0
-3388 -3400 3362 0
-3388 -3401 3363 0
-3388 -3402 3364 0
-3388 -3403 3365 0
-3388 -3404 3366 0
-3388 -3405 3367 0
-3388 -3406 3368 0
-3388 -3407 3369 0
-3388 -3408 3370 0
-3388 -3409 3371 0
-3388 -3410 3372 0
-3388 -3411 3373 0
-3389 -3398 3361 0
-3389 -3399 3362 0
-3389 -3400 3363 0
-3389 -3401 3364 0
-3389 -3402 3365 0
-3389 -3403 3366 0
-3389 -3404 3367 0
-3389 -3405 3368 0
-3389 -3406 3369 0
-3389 -3407 3370 0
-3389 -3408 3371 0
-3389 -3409 3372 0
-3389 -3410 3373 0
-3389 -3411 3374 0
-3390 -3398 3362 0
-3390 -3399 3363 0
-3390 -3400 3364 0
-3390 -3401 3365 0
-3390 -3402 3366 0
-3390 -3403 3367 0
-3390 -3404 3368 0
-3390 -3405 3369 0
-3390 -3406 3370 0
-3390 -3407 3371 0
-3390 -3408 3372 0
-3390 -3409 3373 0
-3390 -3410 3374 0
-3390 -3411 3375 0
-3391 -3398 3363 0
-3391 -3399 3364 0
-3391 -3400 3365 0
-3391 -3401 3366 0
-3391 -3402 3367 0
-3391 -3403 3368 0
-3391 -3404 3369 0
-3391 -3405 3370 0
-3391 -3406 3371 0
-3391 -3407 3372 0
-3391 -3408 3373 0
-3391 -3409 3374 0
-3391 -3410 3375 0
-3391 -3411 3376 0
-3392 -3398 3364 0
-3392 -3399 3365 0
-3392 -3400 3366 0
-3392 -3401 3367 0
-3392 -3402 3368 0
-3392 -3403 3369 0
-3392 -3404 3370 0
-3392 -3405 3371 0
-3392 -3406 3372 0
-3392 -3407 3373 0
-3392 -3408 3374 0
-3392 -3409 3375 0
-3392 -3410 3376 0
-3392 -3411 3377 0
-3393 -3398 3365 0
-3393 -3399 3366 0
-3393 -3400 3367 0
-3393 -3401 3368 0
-3393 -3402 3369 0
-3393 -3403 3370 0
-3393 -3404 3371 0
-3393 -3405 3372 0
-3393 -3406 3373 0
-3393 -3407 3374 0
-3393 -3408 3375 0
-3393 -3409 3376 0
-3393 -3410 3377 0
-3393 -3411 3378 0
-3394 -3398 3366 0
-3394 -3399 3367 0
-3394 -3400 3368 0
-3394 -3401 3369 0
-3394 -3402 3370 0
-3394 -3403 3371 0
-3394 -3404 3372 0
-3394 -3405 3373 0
-3394 -3406 3374 0
-3394 -3407 3375 0
-3394 -3408 3376 0
-3394 -3409 3377 0
-3394 -3410 3378 0
-3394 -3411 3379 0
-3395 -3398 3367 0
-3395 -3399 3368 0
-3395 -3400 3369 0
-3395 -3401 3370 0
-3395 -3402 3371 0
-3395 -3403 3372 0
-3395 -3404 3373 0
-3395 -3405 3374 0
-3395 -3406 3375 0
-3395 -3407 3376 0
-3395 -3408 3377 0
-3395 -3409 3378 0
-3395 -3410 3379 0
-3395 -3411 3380 0
-3396 -3398 3368 0
-3396 -3399 3369 0
-3396 -3400 3370 0
-3396 -3401 3371 0
-3396 -3402 3372 0
-3396 -3403 3373 0
-3396 -3404 3374 0
-3396 -3405 3375 0
-3396 -3406 3376 0
-3396 -3407 3377 0
-3396 -3408 3378 0
-3396 -3409 3379 0
-3396 -3410 3380 0
-3396 -3411 3381 0
-3397 -3398 3369 0
-3397 -3399 3370 0
-3397 -3400 3371 0
-3397 -3401 3372 0
-3397 -3402 3373 0
-3397 -3403 3374 0
-3397 -3404 3375 0
-3397 -3405 3376 0
-3397 -3406 3377 0
-3397 -3407 3378 0
-3397 -3408 3379 0
-3397 -3409 3380 0
-3397 -3410 3381 0
-3397 -3411 3382 0
-3419 3398 0
-3420 3399 0
-3421 3400 0
-3422 3401 0
-3423 3402 0
-3424 3403 0
-3425 3404 0
-3412 3398 0
-3413 3399 0
-3414 3400 0
-3415 3401 0
-3416 3402 0
-3417 3403 0
-3418 3404 0
-3412 -3419 3399 0
-3412 -3420 3400 0
-3412 -3421 3401 0
-3412 -3422 3402 0
-3412 -3423 3403 0
-3412 -3424 3404 0
-3412 -3425 3405 0
-3413 -3419 3400 0
-3413 -3420 3401 0
-3413 -3421 3402 0
-3413 -3422 3403 0
-3413 -3423 3404 0
-3413 -3424 3405 0
-3413 -3425 3406 0
-3414 -3419 3401 0
-3414 -3420 3402 0
-3414 -3421 3403 0
-3414 -3422 3404 0
-3414 -3423 3405 0
-3414 -3424 3406 0
-3414 -3425 3407 0
-3415 -3419 3402 0
-3415 -3420 3403 0
-3415 -3421 3404 0
-3415 -3422 3405 0
-3415 -3423 3406 0
-3415 -3424 3407 0
-3415 -3425 3408 0
-3416 -3419 3403 0
-3416 -3420 3404 0
-3416 -3421 3405 0
-3416 -3422 3406 0
-3416 -3423 3407 0
-3416 -3424 3408 0
-3416 -3425 3409 0
-3417 -3419 3404 0
-3417 -3420 3405 0
-3417 -3421 3406 0
-3417 -3422 3407 0
-3417 -3423 3408 0
-3417 -3424 3409 0
-3417 -3425 3410 0
-3418 -3419 3405 0
-3418 -3420 3406 0
-3418 -3421 3407 0
-3418 -3422 3408 0
-3418 -3423 3409 0
-3418 -3424 3410 0
-3418 -3425 3411 0
-3430 3419 0
-3431 3420 0
-3432 3421 0
-3426 3419 0
-3427 3420 0
-3428 3421 0
-3429 3422 0
-3426 -3430 3420 0
-3426 -3431 3421 0
-3426 -3432 3422 0
-3427 -3430 3421 0
-3427 -3431 3422 0
-3427 -3432 3423 0
-3428 -3430 3422 0
-3428 -3431 3423 0
-3428 -3432 3424 0
-3429 -3430 3423 0
-3429 -3431 3424 0
-3429 -3432 3425 0
-338 3430 0
-3433 3430 0
-3434 3431 0
-3433 -338 3431 0
-3434 -338 3432 0
-337 3433 0
-336 3433 0
-336 -337 3434 0
-3437 3426 0
-3438 3427 0
-3435 3426 0
-3436 3427 0
-3435 -3437 3427 0
-3435 -3438 3428 0
-3436 -3437 3428 0
-3436 -3438 3429 0
-335 3437 0
-334 3437 0
-334 -335 3438 0
-333 3435 0
-332 3435 0
-332 -333 3436 0
-3443 3412 0
-3444 3413 0
-3445 3414 0
-3439 3412 0
-3440 3413 0
-3441 3414 0
-3442 3415 0
-3439 -3443 3413 0
-3439 -3444 3414 0
-3439 -3445 3415 0
-3440 -3443 3414 0
-3440 -3444 3415 0
-3440 -3445 3416 0
-3441 -3443 3415 0
-3441 -3444 3416 0
-3441 -3445 3417 0
-3442 -3443 3416 0
-3442 -3444 3417 0
-3442 -3445 3418 0
-331 3443 0
-3446 3443 0
-3447 3444 0
-3446 -331 3444 0
-3447 -331 3445 0
-330 3446 0
-329 3446 0
-329 -330 3447 0
-3450 3439 0
-3451 3440 0
-3448 3439 0
-3449 3440 0
-3448 -3450 3440 0
-3448 -3451 3441 0
-3449 -3450 3441 0
-3449 -3451 3442 0
-328 3450 0
-327 3450 0
-327 -328 3451 0
-326 3448 0
-325 3448 0
-325 -326 3449 0
-3460 3383 0
-3461 3384 0
-3462 3385 0
-3463 3386 0
-3464 3387 0
-3465 3388 0
-3466 3389 0
-3452 3383 0
-3453 3384 0
-3454 3385 0
-3455 3386 0
-3456 3387 0
-3457 3388 0
-3458 3389 0
-3459 3390 0
-3452 -3460 3384 0
-3452 -3461 3385 0
-3452 -3462 3386 0
-3452 -3463 3387 0
-3452 -3464 3388 0
-3452 -3465 3389 0
-3452 -3466 3390 0
-3453 -3460 3385 0
-3453 -3461 3386 0
-3453 -3462 3387 0
-3453 -3463 3388 0
-3453 -3464 3389 0
-3453 -3465 3390 0
-3453 -3466 3391 0
-3454 -3460 3386 0
-3454 -3461 3387 0
-3454 -3462 3388 0
-3454 -3463 3389 0
-3454 -3464 3390 0
-3454 -3465 3391 0
-3454 -3466 3392 0
-3455 -3460 3387 0
-3455 -3461 3388 0
-3455 -3462 3389 0
-3455 -3463 3390 0
-3455 -3464 3391 0
-3455 -3465 3392 0
-3455 -3466 3393 0
-3456 -3460 3388 0
-3456 -3461 3389 0
-3456 -3462 3390 0
-3456 -3463 3391 0
-3456 -3464 3392 0
-3456 -3465 3393 0
-3456 -3466 3394 0
-3457 -3460 3389 0
-3457 -3461 3390 0
-3457 -3462 3391 0
-3457 -3463 3392 0
-3457 -3464 3393 0
-3457 -3465 3394 0
-3457 -3466 3395 0
-3458 -3460 3390 0
-3458 -3461 3391 0
-3458 -3462 3392 0
-3458 -3463 3393 0
-3458 -3464 3394 0
-3458 -3465 3395 0
-3458 -3466 3396 0
-3459 -3460 3391 0
-3459 -3461 3392 0
-3459 -3462 3393 0
-3459 -3463 3394 0
-3459 -3464 3395 0
-3459 -3465 3396 0
-3459 -3466 3397 0
-3471 3460 0
-3472 3461 0
-3473 3462 0
-3467 3460 0
-3468 3461 0
-3469 3462 0
-3470 3463 0
-3467 -3471 3461 0
-3467 -3472 3462 0
-3467 -3473 3463 0
-3468 -3471 3462 0
-3468 -3472 3463 0
-3468 -3473 3464 0
-3469 -3471 3463 0
-3469 -3472 3464 0
-3469 -3473 3465 0
-3470 -3471 3464 0
-3470 -3472 3465 0
-3470 -3473 3466 0
-324 3471 0
-3474 3471 0
-3475 3472 0
-3474 -324 3472 0
-3475 -324 3473 0
-323 3474 0
-322 3474 0
-322 -323 3475 0
-3478 3467 0
-3479 3468 0
-3476 3467 0
-3477 3468 0
-3476 -3478 3468 0
-3476 -3479 3469 0
-3477 -3478 3469 0
-3477 -3479 3470 0
-321 3478 0
-320 3478 0
-320 -321 3479 0
-319 3476 0
-318 3476 0
-318 -319 3477 0
-3484 3452 0
-3485 3453 0
-3486 3454 0
-3487 3455 0
-3480 3452 0
-3481 3453 0
-3482 3454 0
-3483 3455 0
-3480 -3484 3453 0
-3480 -3485 3454 0
-3480 -3486 3455 0
-3480 -3487 3456 0
-3481 -3484 3454 0
-3481 -3485 3455 0
-3481 -3486 3456 0
-3481 -3487 3457 0
-3482 -3484 3455 0
-3482 -3485 3456 0
-3482 -3486 3457 0
-3482 -3487 3458 0
-3483 -3484 3456 0
-3483 -3485 3457 0
-3483 -3486 3458 0
-3483 -3487 3459 0
-3490 3484 0
-3491 3485 0
-3488 3484 0
-3489 3485 0
-3488 -3490 3485 0
-3488 -3491 3486 0
-3489 -3490 3486 0
-3489 -3491 3487 0
-317 3490 0
-316 3490 0
-316 -317 3491 0
-315 3488 0
-314 3488 0
-314 -315 3489 0
-3494 3480 0
-3495 3481 0
-3492 3480 0
-3493 3481 0
-3492 -3494 3481 0
-3492 -3495 3482 0
-3493 -3494 3482 0
-3493 -3495 3483 0
-313 3494 0
-312 3494 0
-312 -313 3495 0
-311 3492 0
-310 3492 0
-310 -311 3493 0
-3511 3325 0
-3512 3326 0
-3513 3327 0
-3514 3328 0
-3515 3329 0
-3516 3330 0
-3517 3331 0
-3518 3332 0
-3519 3333 0
-3520 3334 0
-3521 3335 0
-3522 3336 0
-3523 3337 0
-3524 3338 0
-3496 3325 0
-3497 3326 0
-3498 3327 0
-3499 3328 0
-3500 3329 0
-3501 3330 0
-3502 3331 0
-3503 3332 0
-3504 3333 0
-3505 3334 0
-3506 3335 0
-3507 3336 0
-3508 3337 0
-3509 3338 0
-3510 3339 0
-3496 -3511 3326 0
-3496 -3512 3327 0
-3496 -3513 3328 0
-3496 -3514 3329 0
-3496 -3515 3330 0
-3496 -3516 3331 0
-3496 -3517 3332 0
-3496 -3518 3333 0
-3496 -3519 3334 0
-3496 -3520 3335 0
-3496 -3521 3336 0
-3496 -3522 3337 0
-3496 -3523 3338 0
-3496 -3524 3339 0
-3497 -3511 3327 0
-3497 -3512 3328 0
-3497 -3513 3329 0
-3497 -3514 3330 0
-3497 -3515 3331 0
-3497 -3516 3332 0
-3497 -3517 3333 0
-3497 -3518 3334 0
-3497 -3519 3335 0
-3497 -3520 3336 0
-3497 -3521 3337 0
-3497 -3522 3338 0
-3497 -3523 3339 0
-3497 -3524 3340 0
-3498 -3511 3328 0
-3498 -3512 3329 0
-3498 -3513 3330 0
-3498 -3514 3331 0
-3498 -3515 3332 0
-3498 -3516 3333 0
-3498 -3517 3334 0
-3498 -3518 3335 0
-3498 -3519 3336 0
-3498 -3520 3337 0
-3498 -3521 3338 0
-3498 -3522 3339 0
-3498 -3523 3340 0
-3498 -3524 3341 0
-3499 -3511 3329 0
-3499 -3512 3330 0
-3499 -3513 3331 0
-3499 -3514 3332 0
-3499 -3515 3333 0
-3499 -3516 3334 0
-3499 -3517 3335 0
-3499 -3518 3336 0
-3499 -3519 3337 0
-3499 -3520 3338 0
-3499 -3521 3339 0
-3499 -3522 3340 0
-3499 -3523 3341 0
-3499 -3524 3342 0
-3500 -3511 3330 0
-3500 -3512 3331 0
-3500 -3513 3332 0
-3500 -3514 3333 0
-3500 -3515 3334 0
-3500 -3516 3335 0
-3500 -3517 3336 0
-3500 -3518 3337 0
-3500 -3519 3338 0
-3500 -3520 3339 0
-3500 -3521 3340 0
-3500 -3522 3341 0
-3500 -3523 3342 0
-3500 -3524 3343 0
-3501 -3511 3331 0
-3501 -3512 3332 0
-3501 -3513 3333 0
-3501 -3514 3334 0
-3501 -3515 3335 0
-3501 -3516 3336 0
-3501 -3517 3337 0
-3501 -3518 3338 0
-3501 -3519 3339 0
-3501 -3520 3340 0
-3501 -3521 3341 0
-3501 -3522 3342 0
-3501 -3523 3343 0
-3501 -3524 3344 0
-3502 -3511 3332 0
-3502 -3512 3333 0
-3502 -3513 3334 0
-3502 -3514 3335 0
-3502 -3515 3336 0
-3502 -3516 3337 0
-3502 -3517 3338 0
-3502 -3518 3339 0
-3502 -3519 3340 0
-3502 -3520 3341 0
-3502 -3521 3342 0
-3502 -3522 3343 0
-3502 -3523 3344 0
-3502 -3524 3345 0
-3503 -3511 3333 0
-3503 -3512 3334 0
-3503 -3513 3335 0
-3503 -3514 3336 0
-3503 -3515 3337 0
-3503 -3516 3338 0
-3503 -3517 3339 0
-3503 -3518 3340 0
-3503 -3519 3341 0
-3503 -3520 3342 0
-3503 -3521 3343 0
-3503 -3522 3344 0
-3503 -3523 3345 0
-3503 -3524 3346 0
-3504 -3511 3334 0
-3504 -3512 3335 0
-3504 -3513 3336 0
-3504 -3514 3337 0
-3504 -3515 3338 0
-3504 -3516 3339 0
-3504 -3517 3340 0
-3504 -3518 3341 0
-3504 -3519 3342 0
-3504 -3520 3343 0
-3504 -3521 3344 0
-3504 -3522 3345 0
-3504 -3523 3346 0
-3504 -3524 3347 0
-3505 -3511 3335 0
-3505 -3512 3336 0
-3505 -3513 3337 0
-3505 -3514 3338 0
-3505 -3515 3339 0
-3505 -3516 3340 0
-3505 -3517 3341 0
-3505 -3518 3342 0
-3505 -3519 3343 0
-3505 -3520 3344 0
-3505 -3521 3345 0
-3505 -3522 3346 0
-3505 -3523 3347 0
-3505 -3524 3348 0
-3506 -3511 3336 0
-3506 -3512 3337 0
-3506 -3513 3338 0
-3506 -3514 3339 0
-3506 -3515 3340 0
-3506 -3516 3341 0
-3506 -3517 3342 0
-3506 -3518 3343 0
-3506 -3519 3344 0
-3506 -3520 3345 0
-3506 -3521 3346 0
-3506 -3522 3347 0
-3506 -3523 3348 0
-3506 -3524 3349 0
-3507 -3511 3337 0
-3507 -3512 3338 0
-3507 -3513 3339 0
-3507 -3514 3340 0
-3507 -3515 3341 0
-3507 -3516 3342 0
-3507 -3517 3343 0
-3507 -3518 3344 0
-3507 -3519 3345 0
-3507 -3520 3346 0
-3507 -3521 3347 0
-3507 -3522 3348 0
-3507 -3523 3349 0
-3507 -3524 3350 0
-3508 -3511 3338 0
-3508 -3512 3339 0
-3508 -3513 3340 0
-3508 -3514 3341 0
-3508 -3515 3342 0
-3508 -3516 3343 0
-3508 -3517 3344 0
-3508 -3518 3345 0
-3508 -3519 3346 0
-3508 -3520 3347 0
-3508 -3521 3348 0
-3508 -3522 3349 0
-3508 -3523 3350 0
-3508 -3524 3351 0
-3509 -3511 3339 0
-3509 -3512 3340 0
-3509 -3513 3341 0
-3509 -3514 3342 0
-3509 -3515 3343 0
-3509 -3516 3344 0
-3509 -3517 3345 0
-3509 -3518 3346 0
-3509 -3519 3347 0
-3509 -3520 3348 0
-3509 -3521 3349 0
-3509 -3522 3350 0
-3509 -3523 3351 0
-3509 -3524 3352 0
-3510 -3511 3340 0
-3510 -3512 3341 0
-3510 -3513 3342 0
-3510 -3514 3343 0
-3510 -3515 3344 0
-3510 -3516 3345 0
-3510 -3517 3346 0
-3510 -3518 3347 0
-3510 -3519 3348 0
-3510 -3520 3349 0
-3510 -3521 3350 0
-3510 -3522 3351 0
-3510 -3523 3352 0
-3510 -3524 3353 0
-3532 3511 0
-3533 3512 0
-3534 3513 0
-3535 3514 0
-3536 3515 0
-3537 3516 0
-3538 3517 0
-3525 3511 0
-3526 3512 0
-3527 3513 0
-3528 3514 0
-3529 3515 0
-3530 3516 0
-3531 3517 0
-3525 -3532 3512 0
-3525 -3533 3513 0
-3525 -3534 3514 0
-3525 -3535 3515 0
-3525 -3536 3516 0
-3525 -3537 3517 0
-3525 -3538 3518 0
-3526 -3532 3513 0
-3526 -3533 3514 0
-3526 -3534 3515 0
-3526 -3535 3516 0
-3526 -3536 3517 0
-3526 -3537 3518 0
-3526 -3538 3519 0
-3527 -3532 3514 0
-3527 -3533 3515 0
-3527 -3534 3516 0
-3527 -3535 3517 0
-3527 -3536 3518 0
-3527 -3537 3519 0
-3527 -3538 3520 0
-3528 -3532 3515 0
-3528 -3533 3516 0
-3528 -3534 3517 0
-3528 -3535 3518 0
-3528 -3536 3519 0
-3528 -3537 3520 0
-3528 -3538 3521 0
-3529 -3532 3516 0
-3529 -3533 3517 0
-3529 -3534 3518 0
-3529 -3535 3519 0
-3529 -3536 3520 0
-3529 -3537 3521 0
-3529 -3538 3522 0
-3530 -3532 3517 0
-3530 -3533 3518 0
-3530 -3534 3519 0
-3530 -3535 3520 0
-3530 -3536 3521 0
-3530 -3537 3522 0
-3530 -3538 3523 0
-3531 -3532 3518 0
-3531 -3533 3519 0
-3531 -3534 3520 0
-3531 -3535 3521 0
-3531 -3536 3522 0
-3531 -3537 3523 0
-3531 -3538 3524 0
-3543 3532 0
-3544 3533 0
-3545 3534 0
-3539 3532 0
-3540 3533 0
-3541 3534 0
-3542 3535 0
-3539 -3543 3533 0
-3539 -3544 3534 0
-3539 -3545 3535 0
-3540 -3543 3534 0
-3540 -3544 3535 0
-3540 -3545 3536 0
-3541 -3543 3535 0
-3541 -3544 3536 0
-3541 -3545 3537 0
-3542 -3543 3536 0
-3542 -3544 3537 0
-3542 -3545 3538 0
-309 3543 0
-3546 3543 0
-3547 3544 0
-3546 -309 3544 0
-3547 -309 3545 0
-308 3546 0
-307 3546 0
-307 -308 3547 0
-3550 3539 0
-3551 3540 0
-3548 3539 0
-3549 3540 0
-3548 -3550 3540 0
-3548 -3551 3541 0
-3549 -3550 3541 0
-3549 -3551 3542 0
-306 3550 0
-305 3550 0
-305 -306 3551 0
-304 3548 0
-303 3548 0
-303 -304 3549 0
-3556 3525 0
-3557 3526 0
-3558 3527 0
-3552 3525 0
-3553 3526 0
-3554 3527 0
-3555 3528 0
-3552 -3556 3526 0
-3552 -3557 3527 0
-3552 -3558 3528 0
-3553 -3556 3527 0
-3553 -3557 3528 0
-3553 -3558 3529 0
-3554 -3556 3528 0
-3554 -3557 3529 0
-3554 -3558 3530 0
-3555 -3556 3529 0
-3555 -3557 3530 0
-3555 -3558 3531 0
-302 3556 0
-3559 3556 0
-3560 3557 0
-3559 -302 3557 0
-3560 -302 3558 0
-301 3559 0
-300 3559 0
-300 -301 3560 0
-3563 3552 0
-3564 3553 0
-3561 3552 0
-3562 3553 0
-3561 -3563 3553 0
-3561 -3564 3554 0
-3562 -3563 3554 0
-3562 -3564 3555 0
-299 3563 0
-298 3563 0
-298 -299 3564 0
-297 3561 0
-296 3561 0
-296 -297 3562 0
-3573 3496 0
-3574 3497 0
-3575 3498 0
-3576 3499 0
-3577 3500 0
-3578 3501 0
-3579 3502 0
-3565 3496 0
-3566 3497 0
-3567 3498 0
-3568 3499 0
-3569 3500 0
-3570 3501 0
-3571 3502 0
-3572 3503 0
-3565 -3573 3497 0
-3565 -3574 3498 0
-3565 -3575 3499 0
-3565 -3576 3500 0
-3565 -3577 3501 0
-3565 -3578 3502 0
-3565 -3579 3503 0
-3566 -3573 3498 0
-3566 -3574 3499 0
-3566 -3575 3500 0
-3566 -3576 3501 0
-3566 -3577 3502 0
-3566 -3578 3503 0
-3566 -3579 3504 0
-3567 -3573 3499 0
-3567 -3574 3500 0
-3567 -3575 3501 0
-3567 -3576 3502 0
-3567 -3577 3503 0
-3567 -3578 3504 0
-3567 -3579 3505 0
-3568 -3573 3500 0
-3568 -3574 3501 0
-3568 -3575 3502 0
-3568 -3576 3503 0
-3568 -3577 3504 0
-3568 -3578 3505 0
-3568 -3579 3506 0
-3569 -3573 3501 0
-3569 -3574 3502 0
-3569 -3575 3503 0
-3569 -3576 3504 0
-3569 -3577 3505 0
-3569 -3578 3506 0
-3569 -3579 3507 0
-3570 -3573 3502 0
-3570 -3574 3503 0
-3570 -3575 3504 0
-3570 -3576 3505 0
-3570 -3577 3506 0
-3570 -3578 3507 0
-3570 -3579 3508 0
-3571 -3573 3503 0
-3571 -3574 3504 0
-3571 -3575 3505 0
-3571 -3576 3506 0
-3571 -3577 3507 0
-3571 -3578 3508 0
-3571 -3579 3509 0
-3572 -3573 3504 0
-3572 -3574 3505 0
-3572 -3575 3506 0
-3572 -3576 3507 0
-3572 -3577 3508 0
-3572 -3578 3509 0
-3572 -3579 3510 0
-3584 3573 0
-3585 3574 0
-3586 3575 0
-3580 3573 0
-3581 3574 0
-3582 3575 0
-3583 3576 0
-3580 -3584 3574 0
-3580 -3585 3575 0
-3580 -3586 3576 0
-3581 -3584 3575 0
-3581 -3585 3576 0
-3581 -3586 3577 0
-3582 -3584 3576 0
-3582 -3585 3577 0
-3582 -3586 3578 0
-3583 -3584 3577 0
-3583 -3585 3578 0
-3583 -3586 3579 0
-295 3584 0
-3587 3584 0
-3588 3585 0
-3587 -295 3585 0
-3588 -295 3586 0
-294 3587 0
-293 3587 0
-293 -294 3588 0
-3591 3580 0
-3592 3581 0
-3589 3580 0
-3590 3581 0
-3589 -3591 3581 0
-3589 -3592 3582 0
-3590 -3591 3582 0
-3590 -3592 3583 0
-292 3591 0
-291 3591 0
-291 -292 3592 0
-290 3589 0
-289 3589 0
-289 -290 3590 0
-3597 3565 0
-3598 3566 0
-3599 3567 0
-3600 3568 0
-3593 3565 0
-3594 3566 0
-3595 3567 0
-3596 3568 0
-3593 -3597 3566 0
-3593 -3598 3567 0
-3593 -3599 3568 0
-3593 -3600 3569 0
-3594 -3597 3567 0
-3594 -3598 3568 0
-3594 -3599 3569 0
-3594 -3600 3570 0
-3595 -3597 3568 0
-3595 -3598 3569 0
-3595 -3599 3570 0
-3595 -3600 3571 0
-3596 -3597 3569 0
-3596 -3598 3570 0
-3596 -3599 3571 0
-3596 -3600 3572 0
-3603 3597 0
-3604 3598 0
-3601 3597 0
-3602 3598 0
-3601 -3603 3598 0
-3601 -3604 3599 0
-3602 -3603 3599 0
-3602 -3604 3600 0
1776 3603 0
1618 3603 0
1618 1776 3604 0
1460 3601 0
1302 3601 0
1302 1460 3602 0
-3607 3593 0
-3608 3594 0
-3605 3593 0
-3606 3594 0
-3605 -3607 3594 0
-3605 -3608 3595 0
-3606 -3607 3595 0
-3606 -3608 3596 0
1144 3607 0
986 3607 0
986 1144 3608 0
828 3605 0
670 3605 0
670 828 3606 0
-1792 0
