p cnf 6591 18010
-1 -2 -3 0
-1 -2 -4 0
-1 -3 -4 0
-2 -3 -4 0
2 3 4 0
1 3 4 0
1 2 4 0
1 2 3 0
-5 -6 -7 0
-5 -6 -8 0
-5 -7 -8 0
-6 -7 -8 0
6 7 8 0
5 7 8 0
5 6 8 0
5 6 7 0
-9 -10 -11 0
-9 -10 -12 0
-9 -11 -12 0
-10 -11 -12 0
10 11 12 0
9 11 12 0
9 10 12 0
9 10 11 0
-13 -14 -15 0
-13 -14 -16 0
-13 -15 -16 0
-14 -15 -16 0
14 15 16 0
13 15 16 0
13 14 16 0
13 14 15 0
-17 -18 -19 0
-17 -18 -20 0
-17 -19 -20 0
-18 -19 -20 0
18 19 20 0
17 19 20 0
17 18 20 0
17 18 19 0
-21 -22 -23 0
-21 -22 -24 0
-21 -23 -24 0
-22 -23 -24 0
22 23 24 0
21 23 24 0
21 22 24 0
21 22 23 0
-25 -26 -27 0
-25 -26 -28 0
-25 -27 -28 0
-26 -27 -28 0
26 27 28 0
25 27 28 0
25 26 28 0
25 26 27 0
-29 -30 -31 0
-29 -30 -32 0
-29 -31 -32 0
-30 -31 -32 0
30 31 32 0
29 31 32 0
29 30 32 0
29 30 31 0
-33 -34 -35 0
-33 -34 -36 0
-33 -35 -36 0
-34 -35 -36 0
34 35 36 0
33 35 36 0
33 34 36 0
33 34 35 0
-37 -38 -39 0
-37 -38 -40 0
-37 -39 -40 0
-38 -39 -40 0
38 39 40 0
37 39 40 0
37 38 40 0
37 38 39 0
-10 -33 -41 0
-10 -33 -42 0
-10 -33 -43 0
-10 -33 -44 0
-10 -41 -42 0
-10 -41 -43 0
-10 -41 -44 0
-10 -42 -43 0
-10 -42 -44 0
-10 -43 -44 0
-33 -41 -42 0
-33 -41 -43 0
-33 -41 -44 0
-33 -42 -43 0
-33 -42 -44 0
-33 -43 -44 0
-41 -42 -43 0
-41 -42 -44 0
-41 -43 -44 0
-42 -43 -44 0
33 41 42 43 44 0
10 41 42 43 44 0
10 33 42 43 44 0
10 33 41 43 44 0
10 33 41 42 44 0
10 33 41 42 43 0
-14 -37 -45 0
-14 -37 -46 0
-14 -37 -47 0
-14 -37 -48 0
-14 -45 -46 0
-14 -45 -47 0
-14 -45 -48 0
-14 -46 -47 0
-14 -46 -48 0
-14 -47 -48 0
-37 -45 -46 0
-37 -45 -47 0
-37 -45 -48 0
-37 -46 -47 0
-37 -46 -48 0
-37 -47 -48 0
-45 -46 -47 0
-45 -46 -48 0
-45 -47 -48 0
-46 -47 -48 0
37 45 46 47 48 0
14 45 46 47 48 0
14 37 46 47 48 0
14 37 45 47 48 0
14 37 45 46 48 0
14 37 45 46 47 0
-1 -18 -49 0
-1 -18 -50 0
-1 -18 -51 0
-1 -18 -52 0
-1 -49 -50 0
-1 -49 -51 0
-1 -49 -52 0
-1 -50 -51 0
-1 -50 -52 0
-1 -51 -52 0
-18 -49 -50 0
-18 -49 -51 0
-18 -49 -52 0
-18 -50 -51 0
-18 -50 -52 0
-18 -51 -52 0
-49 -50 -51 0
-49 -50 -52 0
-49 -51 -52 0
-50 -51 -52 0
18 49 50 51 52 0
1 49 50 51 52 0
1 18 50 51 52 0
1 18 49 51 52 0
1 18 49 50 52 0
1 18 49 50 51 0
-5 -22 -53 0
-5 -22 -54 0
-5 -22 -55 0
-5 -22 -56 0
-5 -53 -54 0
-5 -53 -55 0
-5 -53 -56 0
-5 -54 -55 0
-5 -54 -56 0
-5 -55 -56 0
-22 -53 -54 0
-22 -53 -55 0
-22 -53 -56 0
-22 -54 -55 0
-22 -54 -56 0
-22 -55 -56 0
-53 -54 -55 0
-53 -54 -56 0
-53 -55 -56 0
-54 -55 -56 0
22 53 54 55 56 0
5 53 54 55 56 0
5 22 54 55 56 0
5 22 53 55 56 0
5 22 53 54 56 0
5 22 53 54 55 0
-9 -26 -57 0
-9 -26 -58 0
-9 -26 -59 0
-9 -26 -60 0
-9 -57 -58 0
-9 -57 -59 0
-9 -57 -60 0
-9 -58 -59 0
-9 -58 -60 0
-9 -59 -60 0
-26 -57 -58 0
-26 -57 -59 0
-26 -57 -60 0
-26 -58 -59 0
-26 -58 -60 0
-26 -59 -60 0
-57 -58 -59 0
-57 -58 -60 0
-57 -59 -60 0
-58 -59 -60 0
26 57 58 59 60 0
9 57 58 59 60 0
9 26 58 59 60 0
9 26 57 59 60 0
9 26 57 58 60 0
9 26 57 58 59 0
-13 -30 -61 0
-13 -30 -62 0
-13 -30 -63 0
-13 -30 -64 0
-13 -61 -62 0
-13 -61 -63 0
-13 -61 -64 0
-13 -62 -63 0
-13 -62 -64 0
-13 -63 -64 0
-30 -61 -62 0
-30 -61 -63 0
-30 -61 -64 0
-30 -62 -63 0
-30 -62 -64 0
-30 -63 -64 0
-61 -62 -63 0
-61 -62 -64 0
-61 -63 -64 0
-62 -63 -64 0
30 61 62 63 64 0
13 61 62 63 64 0
13 30 62 63 64 0
13 30 61 63 64 0
13 30 61 62 64 0
13 30 61 62 63 0
-17 -34 -65 0
-17 -34 -66 0
-17 -34 -67 0
-17 -34 -68 0
-17 -65 -66 0
-17 -65 -67 0
-17 -65 -68 0
-17 -66 -67 0
-17 -66 -68 0
-17 -67 -68 0
-34 -65 -66 0
-34 -65 -67 0
-34 -65 -68 0
-34 -66 -67 0
-34 -66 -68 0
-34 -67 -68 0
-65 -66 -67 0
-65 -66 -68 0
-65 -67 -68 0
-66 -67 -68 0
34 65 66 67 68 0
17 65 66 67 68 0
17 34 66 67 68 0
17 34 65 67 68 0
17 34 65 66 68 0
17 34 65 66 67 0
-21 -38 -69 0
-21 -38 -70 0
-21 -38 -71 0
-21 -38 -72 0
-21 -69 -70 0
-21 -69 -71 0
-21 -69 -72 0
-21 -70 -71 0
-21 -70 -72 0
-21 -71 -72 0
-38 -69 -70 0
-38 -69 -71 0
-38 -69 -72 0
-38 -70 -71 0
-38 -70 -72 0
-38 -71 -72 0
-69 -70 -71 0
-69 -70 -72 0
-69 -71 -72 0
-70 -71 -72 0
38 69 70 71 72 0
21 69 70 71 72 0
21 38 70 71 72 0
21 38 69 71 72 0
21 38 69 70 72 0
21 38 69 70 71 0
-2 -25 -73 0
-2 -25 -74 0
-2 -25 -75 0
-2 -25 -76 0
-2 -73 -74 0
-2 -73 -75 0
-2 -73 -76 0
-2 -74 -75 0
-2 -74 -76 0
-2 -75 -76 0
-25 -73 -74 0
-25 -73 -75 0
-25 -73 -76 0
-25 -74 -75 0
-25 -74 -76 0
-25 -75 -76 0
-73 -74 -75 0
-73 -74 -76 0
-73 -75 -76 0
-74 -75 -76 0
25 73 74 75 76 0
2 73 74 75 76 0
2 25 74 75 76 0
2 25 73 75 76 0
2 25 73 74 76 0
2 25 73 74 75 0
-6 -29 -77 0
-6 -29 -78 0
-6 -29 -79 0
-6 -29 -80 0
-6 -77 -78 0
-6 -77 -79 0
-6 -77 -80 0
-6 -78 -79 0
-6 -78 -80 0
-6 -79 -80 0
-29 -77 -78 0
-29 -77 -79 0
-29 -77 -80 0
-29 -78 -79 0
-29 -78 -80 0
-29 -79 -80 0
-77 -78 -79 0
-77 -78 -80 0
-77 -79 -80 0
-78 -79 -80 0
29 77 78 79 80 0
6 77 78 79 80 0
6 29 78 79 80 0
6 29 77 79 80 0
6 29 77 78 80 0
6 29 77 78 79 0
-8 -39 -50 0
-8 -39 -73 0
-8 -39 -81 0
-8 -39 -82 0
-8 -39 -83 0
-8 -39 -84 0
-8 -50 -73 0
-8 -50 -81 0
-8 -50 -82 0
-8 -50 -83 0
-8 -50 -84 0
-8 -73 -81 0
-8 -73 -82 0
-8 -73 -83 0
-8 -73 -84 0
-8 -81 -82 0
-8 -81 -83 0
-8 -81 -84 0
-8 -82 -83 0
-8 -82 -84 0
-8 -83 -84 0
-39 -50 -73 0
-39 -50 -81 0
-39 -50 -82 0
-39 -50 -83 0
-39 -50 -84 0
-39 -73 -81 0
-39 -73 -82 0
-39 -73 -83 0
-39 -73 -84 0
-39 -81 -82 0
-39 -81 -83 0
-39 -81 -84 0
-39 -82 -83 0
-39 -82 -84 0
-39 -83 -84 0
-50 -73 -81 0
-50 -73 -82 0
-50 -73 -83 0
-50 -73 -84 0
-50 -81 -82 0
-50 -81 -83 0
-50 -81 -84 0
-50 -82 -83 0
-50 -82 -84 0
-50 -83 -84 0
-73 -81 -82 0
-73 -81 -83 0
-73 -81 -84 0
-73 -82 -83 0
-73 -82 -84 0
-73 -83 -84 0
-81 -82 -83 0
-81 -82 -84 0
-81 -83 -84 0
-82 -83 -84 0
39 50 73 81 82 83 84 0
8 50 73 81 82 83 84 0
8 39 73 81 82 83 84 0
8 39 50 81 82 83 84 0
8 39 50 73 82 83 84 0
8 39 50 73 81 83 84 0
8 39 50 73 81 82 84 0
8 39 50 73 81 82 83 0
-3 -12 -54 0
-3 -12 -77 0
-3 -12 -85 0
-3 -12 -86 0
-3 -12 -87 0
-3 -12 -88 0
-3 -54 -77 0
-3 -54 -85 0
-3 -54 -86 0
-3 -54 -87 0
-3 -54 -88 0
-3 -77 -85 0
-3 -77 -86 0
-3 -77 -87 0
-3 -77 -88 0
-3 -85 -86 0
-3 -85 -87 0
-3 -85 -88 0
-3 -86 -87 0
-3 -86 -88 0
-3 -87 -88 0
-12 -54 -77 0
-12 -54 -85 0
-12 -54 -86 0
-12 -54 -87 0
-12 -54 -88 0
-12 -77 -85 0
-12 -77 -86 0
-12 -77 -87 0
-12 -77 -88 0
-12 -85 -86 0
-12 -85 -87 0
-12 -85 -88 0
-12 -86 -87 0
-12 -86 -88 0
-12 -87 -88 0
-54 -77 -85 0
-54 -77 -86 0
-54 -77 -87 0
-54 -77 -88 0
-54 -85 -86 0
-54 -85 -87 0
-54 -85 -88 0
-54 -86 -87 0
-54 -86 -88 0
-54 -87 -88 0
-77 -85 -86 0
-77 -85 -87 0
-77 -85 -88 0
-77 -86 -87 0
-77 -86 -88 0
-77 -87 -88 0
-85 -86 -87 0
-85 -86 -88 0
-85 -87 -88 0
-86 -87 -88 0
12 54 77 85 86 87 88 0
3 54 77 85 86 87 88 0
3 12 77 85 86 87 88 0
3 12 54 85 86 87 88 0
3 12 54 77 86 87 88 0
3 12 54 77 85 87 88 0
3 12 54 77 85 86 88 0
3 12 54 77 85 86 87 0
-7 -16 -41 0
-7 -16 -58 0
-7 -16 -89 0
-7 -16 -90 0
-7 -16 -91 0
-7 -16 -92 0
-7 -41 -58 0
-7 -41 -89 0
-7 -41 -90 0
-7 -41 -91 0
-7 -41 -92 0
-7 -58 -89 0
-7 -58 -90 0
-7 -58 -91 0
-7 -58 -92 0
-7 -89 -90 0
-7 -89 -91 0
-7 -89 -92 0
-7 -90 -91 0
-7 -90 -92 0
-7 -91 -92 0
-16 -41 -58 0
-16 -41 -89 0
-16 -41 -90 0
-16 -41 -91 0
-16 -41 -92 0
-16 -58 -89 0
-16 -58 -90 0
-16 -58 -91 0
-16 -58 -92 0
-16 -89 -90 0
-16 -89 -91 0
-16 -89 -92 0
-16 -90 -91 0
-16 -90 -92 0
-16 -91 -92 0
-41 -58 -89 0
-41 -58 -90 0
-41 -58 -91 0
-41 -58 -92 0
-41 -89 -90 0
-41 -89 -91 0
-41 -89 -92 0
-41 -90 -91 0
-41 -90 -92 0
-41 -91 -92 0
-58 -89 -90 0
-58 -89 -91 0
-58 -89 -92 0
-58 -90 -91 0
-58 -90 -92 0
-58 -91 -92 0
-89 -90 -91 0
-89 -90 -92 0
-89 -91 -92 0
-90 -91 -92 0
16 41 58 89 90 91 92 0
7 41 58 89 90 91 92 0
7 16 58 89 90 91 92 0
7 16 41 89 90 91 92 0
7 16 41 58 90 91 92 0
7 16 41 58 89 91 92 0
7 16 41 58 89 90 92 0
7 16 41 58 89 90 91 0
-11 -20 -45 0
-11 -20 -62 0
-11 -20 -93 0
-11 -20 -94 0
-11 -20 -95 0
-11 -20 -96 0
-11 -45 -62 0
-11 -45 -93 0
-11 -45 -94 0
-11 -45 -95 0
-11 -45 -96 0
-11 -62 -93 0
-11 -62 -94 0
-11 -62 -95 0
-11 -62 -96 0
-11 -93 -94 0
-11 -93 -95 0
-11 -93 -96 0
-11 -94 -95 0
-11 -94 -96 0
-11 -95 -96 0
-20 -45 -62 0
-20 -45 -93 0
-20 -45 -94 0
-20 -45 -95 0
-20 -45 -96 0
-20 -62 -93 0
-20 -62 -94 0
-20 -62 -95 0
-20 -62 -96 0
-20 -93 -94 0
-20 -93 -95 0
-20 -93 -96 0
-20 -94 -95 0
-20 -94 -96 0
-20 -95 -96 0
-45 -62 -93 0
-45 -62 -94 0
-45 -62 -95 0
-45 -62 -96 0
-45 -93 -94 0
-45 -93 -95 0
-45 -93 -96 0
-45 -94 -95 0
-45 -94 -96 0
-45 -95 -96 0
-62 -93 -94 0
-62 -93 -95 0
-62 -93 -96 0
-62 -94 -95 0
-62 -94 -96 0
-62 -95 -96 0
-93 -94 -95 0
-93 -94 -96 0
-93 -95 -96 0
-94 -95 -96 0
20 45 62 93 94 95 96 0
11 45 62 93 94 95 96 0
11 20 62 93 94 95 96 0
11 20 45 93 94 95 96 0
11 20 45 62 94 95 96 0
11 20 45 62 93 95 96 0
11 20 45 62 93 94 96 0
11 20 45 62 93 94 95 0
-15 -24 -49 0
-15 -24 -66 0
-15 -24 -97 0
-15 -24 -98 0
-15 -24 -99 0
-15 -24 -100 0
-15 -49 -66 0
-15 -49 -97 0
-15 -49 -98 0
-15 -49 -99 0
-15 -49 -100 0
-15 -66 -97 0
-15 -66 -98 0
-15 -66 -99 0
-15 -66 -100 0
-15 -97 -98 0
-15 -97 -99 0
-15 -97 -100 0
-15 -98 -99 0
-15 -98 -100 0
-15 -99 -100 0
-24 -49 -66 0
-24 -49 -97 0
-24 -49 -98 0
-24 -49 -99 0
-24 -49 -100 0
-24 -66 -97 0
-24 -66 -98 0
-24 -66 -99 0
-24 -66 -100 0
-24 -97 -98 0
-24 -97 -99 0
-24 -97 -100 0
-24 -98 -99 0
-24 -98 -100 0
-24 -99 -100 0
-49 -66 -97 0
-49 -66 -98 0
-49 -66 -99 0
-49 -66 -100 0
-49 -97 -98 0
-49 -97 -99 0
-49 -97 -100 0
-49 -98 -99 0
-49 -98 -100 0
-49 -99 -100 0
-66 -97 -98 0
-66 -97 -99 0
-66 -97 -100 0
-66 -98 -99 0
-66 -98 -100 0
-66 -99 -100 0
-97 -98 -99 0
-97 -98 -100 0
-97 -99 -100 0
-98 -99 -100 0
24 49 66 97 98 99 100 0
15 49 66 97 98 99 100 0
15 24 66 97 98 99 100 0
15 24 49 97 98 99 100 0
15 24 49 66 98 99 100 0
15 24 49 66 97 99 100 0
15 24 49 66 97 98 100 0
15 24 49 66 97 98 99 0
-19 -28 -53 0
-19 -28 -70 0
-19 -28 -101 0
-19 -28 -102 0
-19 -28 -103 0
-19 -28 -104 0
-19 -53 -70 0
-19 -53 -101 0
-19 -53 -102 0
-19 -53 -103 0
-19 -53 -104 0
-19 -70 -101 0
-19 -70 -102 0
-19 -70 -103 0
-19 -70 -104 0
-19 -101 -102 0
-19 -101 -103 0
-19 -101 -104 0
-19 -102 -103 0
-19 -102 -104 0
-19 -103 -104 0
-28 -53 -70 0
-28 -53 -101 0
-28 -53 -102 0
-28 -53 -103 0
-28 -53 -104 0
-28 -70 -101 0
-28 -70 -102 0
-28 -70 -103 0
-28 -70 -104 0
-28 -101 -102 0
-28 -101 -103 0
-28 -101 -104 0
-28 -102 -103 0
-28 -102 -104 0
-28 -103 -104 0
-53 -70 -101 0
-53 -70 -102 0
-53 -70 -103 0
-53 -70 -104 0
-53 -101 -102 0
-53 -101 -103 0
-53 -101 -104 0
-53 -102 -103 0
-53 -102 -104 0
-53 -103 -104 0
-70 -101 -102 0
-70 -101 -103 0
-70 -101 -104 0
-70 -102 -103 0
-70 -102 -104 0
-70 -103 -104 0
-101 -102 -103 0
-101 -102 -104 0
-101 -103 -104 0
-102 -103 -104 0
28 53 70 101 102 103 104 0
19 53 70 101 102 103 104 0
19 28 70 101 102 103 104 0
19 28 53 101 102 103 104 0
19 28 53 70 102 103 104 0
19 28 53 70 101 103 104 0
19 28 53 70 101 102 104 0
19 28 53 70 101 102 103 0
-23 -32 -57 0
-23 -32 -74 0
-23 -32 -105 0
-23 -32 -106 0
-23 -32 -107 0
-23 -32 -108 0
-23 -57 -74 0
-23 -57 -105 0
-23 -57 -106 0
-23 -57 -107 0
-23 -57 -108 0
-23 -74 -105 0
-23 -74 -106 0
-23 -74 -107 0
-23 -74 -108 0
-23 -105 -106 0
-23 -105 -107 0
-23 -105 -108 0
-23 -106 -107 0
-23 -106 -108 0
-23 -107 -108 0
-32 -57 -74 0
-32 -57 -105 0
-32 -57 -106 0
-32 -57 -107 0
-32 -57 -108 0
-32 -74 -105 0
-32 -74 -106 0
-32 -74 -107 0
-32 -74 -108 0
-32 -105 -106 0
-32 -105 -107 0
-32 -105 -108 0
-32 -106 -107 0
-32 -106 -108 0
-32 -107 -108 0
-57 -74 -105 0
-57 -74 -106 0
-57 -74 -107 0
-57 -74 -108 0
-57 -105 -106 0
-57 -105 -107 0
-57 -105 -108 0
-57 -106 -107 0
-57 -106 -108 0
-57 -107 -108 0
-74 -105 -106 0
-74 -105 -107 0
-74 -105 -108 0
-74 -106 -107 0
-74 -106 -108 0
-74 -107 -108 0
-105 -106 -107 0
-105 -106 -108 0
-105 -107 -108 0
-106 -107 -108 0
32 57 74 105 106 107 108 0
23 57 74 105 106 107 108 0
23 32 74 105 106 107 108 0
23 32 57 105 106 107 108 0
23 32 57 74 106 107 108 0
23 32 57 74 105 107 108 0
23 32 57 74 105 106 108 0
23 32 57 74 105 106 107 0
-27 -36 -61 0
-27 -36 -78 0
-27 -36 -109 0
-27 -36 -110 0
-27 -36 -111 0
-27 -36 -112 0
-27 -61 -78 0
-27 -61 -109 0
-27 -61 -110 0
-27 -61 -111 0
-27 -61 -112 0
-27 -78 -109 0
-27 -78 -110 0
-27 -78 -111 0
-27 -78 -112 0
-27 -109 -110 0
-27 -109 -111 0
-27 -109 -112 0
-27 -110 -111 0
-27 -110 -112 0
-27 -111 -112 0
-36 -61 -78 0
-36 -61 -109 0
-36 -61 -110 0
-36 -61 -111 0
-36 -61 -112 0
-36 -78 -109 0
-36 -78 -110 0
-36 -78 -111 0
-36 -78 -112 0
-36 -109 -110 0
-36 -109 -111 0
-36 -109 -112 0
-36 -110 -111 0
-36 -110 -112 0
-36 -111 -112 0
-61 -78 -109 0
-61 -78 -110 0
-61 -78 -111 0
-61 -78 -112 0
-61 -109 -110 0
-61 -109 -111 0
-61 -109 -112 0
-61 -110 -111 0
-61 -110 -112 0
-61 -111 -112 0
-78 -109 -110 0
-78 -109 -111 0
-78 -109 -112 0
-78 -110 -111 0
-78 -110 -112 0
-78 -111 -112 0
-109 -110 -111 0
-109 -110 -112 0
-109 -111 -112 0
-110 -111 -112 0
36 61 78 109 110 111 112 0
27 61 78 109 110 111 112 0
27 36 78 109 110 111 112 0
27 36 61 109 110 111 112 0
27 36 61 78 110 111 112 0
27 36 61 78 109 111 112 0
27 36 61 78 109 110 112 0
27 36 61 78 109 110 111 0
-31 -40 -42 0
-31 -40 -65 0
-31 -40 -113 0
-31 -40 -114 0
-31 -40 -115 0
-31 -40 -116 0
-31 -42 -65 0
-31 -42 -113 0
-31 -42 -114 0
-31 -42 -115 0
-31 -42 -116 0
-31 -65 -113 0
-31 -65 -114 0
-31 -65 -115 0
-31 -65 -116 0
-31 -113 -114 0
-31 -113 -115 0
-31 -113 -116 0
-31 -114 -115 0
-31 -114 -116 0
-31 -115 -116 0
-40 -42 -65 0
-40 -42 -113 0
-40 -42 -114 0
-40 -42 -115 0
-40 -42 -116 0
-40 -65 -113 0
-40 -65 -114 0
-40 -65 -115 0
-40 -65 -116 0
-40 -113 -114 0
-40 -113 -115 0
-40 -113 -116 0
-40 -114 -115 0
-40 -114 -116 0
-40 -115 -116 0
-42 -65 -113 0
-42 -65 -114 0
-42 -65 -115 0
-42 -65 -116 0
-42 -113 -114 0
-42 -113 -115 0
-42 -113 -116 0
-42 -114 -115 0
-42 -114 -116 0
-42 -115 -116 0
-65 -113 -114 0
-65 -113 -115 0
-65 -113 -116 0
-65 -114 -115 0
-65 -114 -116 0
-65 -115 -116 0
-113 -114 -115 0
-113 -114 -116 0
-113 -115 -116 0
-114 -115 -116 0
40 42 65 113 114 115 116 0
31 42 65 113 114 115 116 0
31 40 65 113 114 115 116 0
31 40 42 113 114 115 116 0
31 40 42 65 114 115 116 0
31 40 42 65 113 115 116 0
31 40 42 65 113 114 116 0
31 40 42 65 113 114 115 0
-4 -35 -46 0
-4 -35 -69 0
-4 -35 -117 0
-4 -35 -118 0
-4 -35 -119 0
-4 -35 -120 0
-4 -46 -69 0
-4 -46 -117 0
-4 -46 -118 0
-4 -46 -119 0
-4 -46 -120 0
-4 -69 -117 0
-4 -69 -118 0
-4 -69 -119 0
-4 -69 -120 0
-4 -117 -118 0
-4 -117 -119 0
-4 -117 -120 0
-4 -118 -119 0
-4 -118 -120 0
-4 -119 -120 0
-35 -46 -69 0
-35 -46 -117 0
-35 -46 -118 0
-35 -46 -119 0
-35 -46 -120 0
-35 -69 -117 0
-35 -69 -118 0
-35 -69 -119 0
-35 -69 -120 0
-35 -117 -118 0
-35 -117 -119 0
-35 -117 -120 0
-35 -118 -119 0
-35 -118 -120 0
-35 -119 -120 0
-46 -69 -117 0
-46 -69 -118 0
-46 -69 -119 0
-46 -69 -120 0
-46 -117 -118 0
-46 -117 -119 0
-46 -117 -120 0
-46 -118 -119 0
-46 -118 -120 0
-46 -119 -120 0
-69 -117 -118 0
-69 -117 -119 0
-69 -117 -120 0
-69 -118 -119 0
-69 -118 -120 0
-69 -119 -120 0
-117 -118 -119 0
-117 -118 -120 0
-117 -119 -120 0
-118 -119 -120 0
35 46 69 117 118 119 120 0
4 46 69 117 118 119 120 0
4 35 69 117 118 119 120 0
4 35 46 117 118 119 120 0
4 35 46 69 118 119 120 0
4 35 46 69 117 119 120 0
4 35 46 69 117 118 120 0
4 35 46 69 117 118 119 0
-48 -79 -90 0
-48 -79 -113 0
-48 -79 -121 0
-48 -79 -122 0
-48 -79 -123 0
-48 -79 -124 0
-48 -90 -113 0
-48 -90 -121 0
-48 -90 -122 0
-48 -90 -123 0
-48 -90 -124 0
-48 -113 -121 0
-48 -113 -122 0
-48 -113 -123 0
-48 -113 -124 0
-48 -121 -122 0
-48 -121 -123 0
-48 -121 -124 0
-48 -122 -123 0
-48 -122 -124 0
-48 -123 -124 0
-79 -90 -113 0
-79 -90 -121 0
-79 -90 -122 0
-79 -90 -123 0
-79 -90 -124 0
-79 -113 -121 0
-79 -113 -122 0
-79 -113 -123 0
-79 -113 -124 0
-79 -121 -122 0
-79 -121 -123 0
-79 -121 -124 0
-79 -122 -123 0
-79 -122 -124 0
-79 -123 -124 0
-90 -113 -121 0
-90 -113 -122 0
-90 -113 -123 0
-90 -113 -124 0
-90 -121 -122 0
-90 -121 -123 0
-90 -121 -124 0
-90 -122 -123 0
-90 -122 -124 0
-90 -123 -124 0
-113 -121 -122 0
-113 -121 -123 0
-113 -121 -124 0
-113 -122 -123 0
-113 -122 -124 0
-113 -123 -124 0
-121 -122 -123 0
-121 -122 -124 0
-121 -123 -124 0
-122 -123 -124 0
79 90 113 121 122 123 124 0
48 90 113 121 122 123 124 0
48 79 113 121 122 123 124 0
48 79 90 121 122 123 124 0
48 79 90 113 122 123 124 0
48 79 90 113 121 123 124 0
48 79 90 113 121 122 124 0
48 79 90 113 121 122 123 0
-43 -52 -94 0
-43 -52 -117 0
-43 -52 -125 0
-43 -52 -126 0
-43 -52 -127 0
-43 -52 -128 0
-43 -94 -117 0
-43 -94 -125 0
-43 -94 -126 0
-43 -94 -127 0
-43 -94 -128 0
-43 -117 -125 0
-43 -117 -126 0
-43 -117 -127 0
-43 -117 -128 0
-43 -125 -126 0
-43 -125 -127 0
-43 -125 -128 0
-43 -126 -127 0
-43 -126 -128 0
-43 -127 -128 0
-52 -94 -117 0
-52 -94 -125 0
-52 -94 -126 0
-52 -94 -127 0
-52 -94 -128 0
-52 -117 -125 0
-52 -117 -126 0
-52 -117 -127 0
-52 -117 -128 0
-52 -125 -126 0
-52 -125 -127 0
-52 -125 -128 0
-52 -126 -127 0
-52 -126 -128 0
-52 -127 -128 0
-94 -117 -125 0
-94 -117 -126 0
-94 -117 -127 0
-94 -117 -128 0
-94 -125 -126 0
-94 -125 -127 0
-94 -125 -128 0
-94 -126 -127 0
-94 -126 -128 0
-94 -127 -128 0
-117 -125 -126 0
-117 -125 -127 0
-117 -125 -128 0
-117 -126 -127 0
-117 -126 -128 0
-117 -127 -128 0
-125 -126 -127 0
-125 -126 -128 0
-125 -127 -128 0
-126 -127 -128 0
52 94 117 125 126 127 128 0
43 94 117 125 126 127 128 0
43 52 117 125 126 127 128 0
43 52 94 125 126 127 128 0
43 52 94 117 126 127 128 0
43 52 94 117 125 127 128 0
43 52 94 117 125 126 128 0
43 52 94 117 125 126 127 0
-47 -56 -81 0
-47 -56 -98 0
-47 -56 -129 0
-47 -56 -130 0
-47 -56 -131 0
-47 -56 -132 0
-47 -81 -98 0
-47 -81 -129 0
-47 -81 -130 0
-47 -81 -131 0
-47 -81 -132 0
-47 -98 -129 0
-47 -98 -130 0
-47 -98 -131 0
-47 -98 -132 0
-47 -129 -130 0
-47 -129 -131 0
-47 -129 -132 0
-47 -130 -131 0
-47 -130 -132 0
-47 -131 -132 0
-56 -81 -98 0
-56 -81 -129 0
-56 -81 -130 0
-56 -81 -131 0
-56 -81 -132 0
-56 -98 -129 0
-56 -98 -130 0
-56 -98 -131 0
-56 -98 -132 0
-56 -129 -130 0
-56 -129 -131 0
-56 -129 -132 0
-56 -130 -131 0
-56 -130 -132 0
-56 -131 -132 0
-81 -98 -129 0
-81 -98 -130 0
-81 -98 -131 0
-81 -98 -132 0
-81 -129 -130 0
-81 -129 -131 0
-81 -129 -132 0
-81 -130 -131 0
-81 -130 -132 0
-81 -131 -132 0
-98 -129 -130 0
-98 -129 -131 0
-98 -129 -132 0
-98 -130 -131 0
-98 -130 -132 0
-98 -131 -132 0
-129 -130 -131 0
-129 -130 -132 0
-129 -131 -132 0
-130 -131 -132 0
56 81 98 129 130 131 132 0
47 81 98 129 130 131 132 0
47 56 98 129 130 131 132 0
47 56 81 129 130 131 132 0
47 56 81 98 130 131 132 0
47 56 81 98 129 131 132 0
47 56 81 98 129 130 132 0
47 56 81 98 129 130 131 0
-51 -60 -85 0
-51 -60 -102 0
-51 -60 -133 0
-51 -60 -134 0
-51 -60 -135 0
-51 -60 -136 0
-51 -85 -102 0
-51 -85 -133 0
-51 -85 -134 0
-51 -85 -135 0
-51 -85 -136 0
-51 -102 -133 0
-51 -102 -134 0
-51 -102 -135 0
-51 -102 -136 0
-51 -133 -134 0
-51 -133 -135 0
-51 -133 -136 0
-51 -134 -135 0
-51 -134 -136 0
-51 -135 -136 0
-60 -85 -102 0
-60 -85 -133 0
-60 -85 -134 0
-60 -85 -135 0
-60 -85 -136 0
-60 -102 -133 0
-60 -102 -134 0
-60 -102 -135 0
-60 -102 -136 0
-60 -133 -134 0
-60 -133 -135 0
-60 -133 -136 0
-60 -134 -135 0
-60 -134 -136 0
-60 -135 -136 0
-85 -102 -133 0
-85 -102 -134 0
-85 -102 -135 0
-85 -102 -136 0
-85 -133 -134 0
-85 -133 -135 0
-85 -133 -136 0
-85 -134 -135 0
-85 -134 -136 0
-85 -135 -136 0
-102 -133 -134 0
-102 -133 -135 0
-102 -133 -136 0
-102 -134 -135 0
-102 -134 -136 0
-102 -135 -136 0
-133 -134 -135 0
-133 -134 -136 0
-133 -135 -136 0
-134 -135 -136 0
60 85 102 133 134 135 136 0
51 85 102 133 134 135 136 0
51 60 102 133 134 135 136 0
51 60 85 133 134 135 136 0
51 60 85 102 134 135 136 0
51 60 85 102 133 135 136 0
51 60 85 102 133 134 136 0
51 60 85 102 133 134 135 0
-55 -64 -89 0
-55 -64 -106 0
-55 -64 -137 0
-55 -64 -138 0
-55 -64 -139 0
-55 -64 -140 0
-55 -89 -106 0
-55 -89 -137 0
-55 -89 -138 0
-55 -89 -139 0
-55 -89 -140 0
-55 -106 -137 0
-55 -106 -138 0
-55 -106 -139 0
-55 -106 -140 0
-55 -137 -138 0
-55 -137 -139 0
-55 -137 -140 0
-55 -138 -139 0
-55 -138 -140 0
-55 -139 -140 0
-64 -89 -106 0
-64 -89 -137 0
-64 -89 -138 0
-64 -89 -139 0
-64 -89 -140 0
-64 -106 -137 0
-64 -106 -138 0
-64 -106 -139 0
-64 -106 -140 0
-64 -137 -138 0
-64 -137 -139 0
-64 -137 -140 0
-64 -138 -139 0
-64 -138 -140 0
-64 -139 -140 0
-89 -106 -137 0
-89 -106 -138 0
-89 -106 -139 0
-89 -106 -140 0
-89 -137 -138 0
-89 -137 -139 0
-89 -137 -140 0
-89 -138 -139 0
-89 -138 -140 0
-89 -139 -140 0
-106 -137 -138 0
-106 -137 -139 0
-106 -137 -140 0
-106 -138 -139 0
-106 -138 -140 0
-106 -139 -140 0
-137 -138 -139 0
-137 -138 -140 0
-137 -139 -140 0
-138 -139 -140 0
64 89 106 137 138 139 140 0
55 89 106 137 138 139 140 0
55 64 106 137 138 139 140 0
55 64 89 137 138 139 140 0
55 64 89 106 138 139 140 0
55 64 89 106 137 139 140 0
55 64 89 106 137 138 140 0
55 64 89 106 137 138 139 0
-59 -68 -93 0
-59 -68 -110 0
-59 -68 -141 0
-59 -68 -142 0
-59 -68 -143 0
-59 -68 -144 0
-59 -93 -110 0
-59 -93 -141 0
-59 -93 -142 0
-59 -93 -143 0
-59 -93 -144 0
-59 -110 -141 0
-59 -110 -142 0
-59 -110 -143 0
-59 -110 -144 0
-59 -141 -142 0
-59 -141 -143 0
-59 -141 -144 0
-59 -142 -143 0
-59 -142 -144 0
-59 -143 -144 0
-68 -93 -110 0
-68 -93 -141 0
-68 -93 -142 0
-68 -93 -143 0
-68 -93 -144 0
-68 -110 -141 0
-68 -110 -142 0
-68 -110 -143 0
-68 -110 -144 0
-68 -141 -142 0
-68 -141 -143 0
-68 -141 -144 0
-68 -142 -143 0
-68 -142 -144 0
-68 -143 -144 0
-93 -110 -141 0
-93 -110 -142 0
-93 -110 -143 0
-93 -110 -144 0
-93 -141 -142 0
-93 -141 -143 0
-93 -141 -144 0
-93 -142 -143 0
-93 -142 -144 0
-93 -143 -144 0
-110 -141 -142 0
-110 -141 -143 0
-110 -141 -144 0
-110 -142 -143 0
-110 -142 -144 0
-110 -143 -144 0
-141 -142 -143 0
-141 -142 -144 0
-141 -143 -144 0
-142 -143 -144 0
68 93 110 141 142 143 144 0
59 93 110 141 142 143 144 0
59 68 110 141 142 143 144 0
59 68 93 141 142 143 144 0
59 68 93 110 142 143 144 0
59 68 93 110 141 143 144 0
59 68 93 110 141 142 144 0
59 68 93 110 141 142 143 0
-63 -72 -97 0
-63 -72 -114 0
-63 -72 -145 0
-63 -72 -146 0
-63 -72 -147 0
-63 -72 -148 0
-63 -97 -114 0
-63 -97 -145 0
-63 -97 -146 0
-63 -97 -147 0
-63 -97 -148 0
-63 -114 -145 0
-63 -114 -146 0
-63 -114 -147 0
-63 -114 -148 0
-63 -145 -146 0
-63 -145 -147 0
-63 -145 -148 0
-63 -146 -147 0
-63 -146 -148 0
-63 -147 -148 0
-72 -97 -114 0
-72 -97 -145 0
-72 -97 -146 0
-72 -97 -147 0
-72 -97 -148 0
-72 -114 -145 0
-72 -114 -146 0
-72 -114 -147 0
-72 -114 -148 0
-72 -145 -146 0
-72 -145 -147 0
-72 -145 -148 0
-72 -146 -147 0
-72 -146 -148 0
-72 -147 -148 0
-97 -114 -145 0
-97 -114 -146 0
-97 -114 -147 0
-97 -114 -148 0
-97 -145 -146 0
-97 -145 -147 0
-97 -145 -148 0
-97 -146 -147 0
-97 -146 -148 0
-97 -147 -148 0
-114 -145 -146 0
-114 -145 -147 0
-114 -145 -148 0
-114 -146 -147 0
-114 -146 -148 0
-114 -147 -148 0
-145 -146 -147 0
-145 -146 -148 0
-145 -147 -148 0
-146 -147 -148 0
72 97 114 145 146 147 148 0
63 97 114 145 146 147 148 0
63 72 114 145 146 147 148 0
63 72 97 145 146 147 148 0
63 72 97 114 146 147 148 0
63 72 97 114 145 147 148 0
63 72 97 114 145 146 148 0
63 72 97 114 145 146 147 0
-67 -76 -101 0
-67 -76 -118 0
-67 -76 -149 0
-67 -76 -150 0
-67 -76 -151 0
-67 -76 -152 0
-67 -101 -118 0
-67 -101 -149 0
-67 -101 -150 0
-67 -101 -151 0
-67 -101 -152 0
-67 -118 -149 0
-67 -118 -150 0
-67 -118 -151 0
-67 -118 -152 0
-67 -149 -150 0
-67 -149 -151 0
-67 -149 -152 0
-67 -150 -151 0
-67 -150 -152 0
-67 -151 -152 0
-76 -101 -118 0
-76 -101 -149 0
-76 -101 -150 0
-76 -101 -151 0
-76 -101 -152 0
-76 -118 -149 0
-76 -118 -150 0
-76 -118 -151 0
-76 -118 -152 0
-76 -149 -150 0
-76 -149 -151 0
-76 -149 -152 0
-76 -150 -151 0
-76 -150 -152 0
-76 -151 -152 0
-101 -118 -149 0
-101 -118 -150 0
-101 -118 -151 0
-101 -118 -152 0
-101 -149 -150 0
-101 -149 -151 0
-101 -149 -152 0
-101 -150 -151 0
-101 -150 -152 0
-101 -151 -152 0
-118 -149 -150 0
-118 -149 -151 0
-118 -149 -152 0
-118 -150 -151 0
-118 -150 -152 0
-118 -151 -152 0
-149 -150 -151 0
-149 -150 -152 0
-149 -151 -152 0
-150 -151 -152 0
76 101 118 149 150 151 152 0
67 101 118 149 150 151 152 0
67 76 118 149 150 151 152 0
67 76 101 149 150 151 152 0
67 76 101 118 150 151 152 0
67 76 101 118 149 151 152 0
67 76 101 118 149 150 152 0
67 76 101 118 149 150 151 0
-71 -80 -82 0
-71 -80 -105 0
-71 -80 -153 0
-71 -80 -154 0
-71 -80 -155 0
-71 -80 -156 0
-71 -82 -105 0
-71 -82 -153 0
-71 -82 -154 0
-71 -82 -155 0
-71 -82 -156 0
-71 -105 -153 0
-71 -105 -154 0
-71 -105 -155 0
-71 -105 -156 0
-71 -153 -154 0
-71 -153 -155 0
-71 -153 -156 0
-71 -154 -155 0
-71 -154 -156 0
-71 -155 -156 0
-80 -82 -105 0
-80 -82 -153 0
-80 -82 -154 0
-80 -82 -155 0
-80 -82 -156 0
-80 -105 -153 0
-80 -105 -154 0
-80 -105 -155 0
-80 -105 -156 0
-80 -153 -154 0
-80 -153 -155 0
-80 -153 -156 0
-80 -154 -155 0
-80 -154 -156 0
-80 -155 -156 0
-82 -105 -153 0
-82 -105 -154 0
-82 -105 -155 0
-82 -105 -156 0
-82 -153 -154 0
-82 -153 -155 0
-82 -153 -156 0
-82 -154 -155 0
-82 -154 -156 0
-82 -155 -156 0
-105 -153 -154 0
-105 -153 -155 0
-105 -153 -156 0
-105 -154 -155 0
-105 -154 -156 0
-105 -155 -156 0
-153 -154 -155 0
-153 -154 -156 0
-153 -155 -156 0
-154 -155 -156 0
80 82 105 153 154 155 156 0
71 82 105 153 154 155 156 0
71 80 105 153 154 155 156 0
71 80 82 153 154 155 156 0
71 80 82 105 154 155 156 0
71 80 82 105 153 155 156 0
71 80 82 105 153 154 156 0
71 80 82 105 153 154 155 0
-44 -75 -86 0
-44 -75 -109 0
-44 -75 -157 0
-44 -75 -158 0
-44 -75 -159 0
-44 -75 -160 0
-44 -86 -109 0
-44 -86 -157 0
-44 -86 -158 0
-44 -86 -159 0
-44 -86 -160 0
-44 -109 -157 0
-44 -109 -158 0
-44 -109 -159 0
-44 -109 -160 0
-44 -157 -158 0
-44 -157 -159 0
-44 -157 -160 0
-44 -158 -159 0
-44 -158 -160 0
-44 -159 -160 0
-75 -86 -109 0
-75 -86 -157 0
-75 -86 -158 0
-75 -86 -159 0
-75 -86 -160 0
-75 -109 -157 0
-75 -109 -158 0
-75 -109 -159 0
-75 -109 -160 0
-75 -157 -158 0
-75 -157 -159 0
-75 -157 -160 0
-75 -158 -159 0
-75 -158 -160 0
-75 -159 -160 0
-86 -109 -157 0
-86 -109 -158 0
-86 -109 -159 0
-86 -109 -160 0
-86 -157 -158 0
-86 -157 -159 0
-86 -157 -160 0
-86 -158 -159 0
-86 -158 -160 0
-86 -159 -160 0
-109 -157 -158 0
-109 -157 -159 0
-109 -157 -160 0
-109 -158 -159 0
-109 -158 -160 0
-109 -159 -160 0
-157 -158 -159 0
-157 -158 -160 0
-157 -159 -160 0
-158 -159 -160 0
75 86 109 157 158 159 160 0
44 86 109 157 158 159 160 0
44 75 109 157 158 159 160 0
44 75 86 157 158 159 160 0
44 75 86 109 158 159 160 0
44 75 86 109 157 159 160 0
44 75 86 109 157 158 160 0
44 75 86 109 157 158 159 0
-88 -119 -130 0
-88 -119 -153 0
-88 -119 -161 0
-88 -119 -162 0
-88 -119 -163 0
-88 -119 -164 0
-88 -130 -153 0
-88 -130 -161 0
-88 -130 -162 0
-88 -130 -163 0
-88 -130 -164 0
-88 -153 -161 0
-88 -153 -162 0
-88 -153 -163 0
-88 -153 -164 0
-88 -161 -162 0
-88 -161 -163 0
-88 -161 -164 0
-88 -162 -163 0
-88 -162 -164 0
-88 -163 -164 0
-119 -130 -153 0
-119 -130 -161 0
-119 -130 -162 0
-119 -130 -163 0
-119 -130 -164 0
-119 -153 -161 0
-119 -153 -162 0
-119 -153 -163 0
-119 -153 -164 0
-119 -161 -162 0
-119 -161 -163 0
-119 -161 -164 0
-119 -162 -163 0
-119 -162 -164 0
-119 -163 -164 0
-130 -153 -161 0
-130 -153 -162 0
-130 -153 -163 0
-130 -153 -164 0
-130 -161 -162 0
-130 -161 -163 0
-130 -161 -164 0
-130 -162 -163 0
-130 -162 -164 0
-130 -163 -164 0
-153 -161 -162 0
-153 -161 -163 0
-153 -161 -164 0
-153 -162 -163 0
-153 -162 -164 0
-153 -163 -164 0
-161 -162 -163 0
-161 -162 -164 0
-161 -163 -164 0
-162 -163 -164 0
119 130 153 161 162 163 164 0
88 130 153 161 162 163 164 0
88 119 153 161 162 163 164 0
88 119 130 161 162 163 164 0
88 119 130 153 162 163 164 0
88 119 130 153 161 163 164 0
88 119 130 153 161 162 164 0
88 119 130 153 161 162 163 0
-83 -92 -134 0
-83 -92 -157 0
-83 -92 -165 0
-83 -92 -166 0
-83 -92 -167 0
-83 -92 -168 0
-83 -134 -157 0
-83 -134 -165 0
-83 -134 -166 0
-83 -134 -167 0
-83 -134 -168 0
-83 -157 -165 0
-83 -157 -166 0
-83 -157 -167 0
-83 -157 -168 0
-83 -165 -166 0
-83 -165 -167 0
-83 -165 -168 0
-83 -166 -167 0
-83 -166 -168 0
-83 -167 -168 0
-92 -134 -157 0
-92 -134 -165 0
-92 -134 -166 0
-92 -134 -167 0
-92 -134 -168 0
-92 -157 -165 0
-92 -157 -166 0
-92 -157 -167 0
-92 -157 -168 0
-92 -165 -166 0
-92 -165 -167 0
-92 -165 -168 0
-92 -166 -167 0
-92 -166 -168 0
-92 -167 -168 0
-134 -157 -165 0
-134 -157 -166 0
-134 -157 -167 0
-134 -157 -168 0
-134 -165 -166 0
-134 -165 -167 0
-134 -165 -168 0
-134 -166 -167 0
-134 -166 -168 0
-134 -167 -168 0
-157 -165 -166 0
-157 -165 -167 0
-157 -165 -168 0
-157 -166 -167 0
-157 -166 -168 0
-157 -167 -168 0
-165 -166 -167 0
-165 -166 -168 0
-165 -167 -168 0
-166 -167 -168 0
92 134 157 165 166 167 168 0
83 134 157 165 166 167 168 0
83 92 157 165 166 167 168 0
83 92 134 165 166 167 168 0
83 92 134 157 166 167 168 0
83 92 134 157 165 167 168 0
83 92 134 157 165 166 168 0
83 92 134 157 165 166 167 0
-87 -96 -121 0
-87 -96 -138 0
-87 -96 -169 0
-87 -96 -170 0
-87 -96 -171 0
-87 -96 -172 0
-87 -121 -138 0
-87 -121 -169 0
-87 -121 -170 0
-87 -121 -171 0
-87 -121 -172 0
-87 -138 -169 0
-87 -138 -170 0
-87 -138 -171 0
-87 -138 -172 0
-87 -169 -170 0
-87 -169 -171 0
-87 -169 -172 0
-87 -170 -171 0
-87 -170 -172 0
-87 -171 -172 0
-96 -121 -138 0
-96 -121 -169 0
-96 -121 -170 0
-96 -121 -171 0
-96 -121 -172 0
-96 -138 -169 0
-96 -138 -170 0
-96 -138 -171 0
-96 -138 -172 0
-96 -169 -170 0
-96 -169 -171 0
-96 -169 -172 0
-96 -170 -171 0
-96 -170 -172 0
-96 -171 -172 0
-121 -138 -169 0
-121 -138 -170 0
-121 -138 -171 0
-121 -138 -172 0
-121 -169 -170 0
-121 -169 -171 0
-121 -169 -172 0
-121 -170 -171 0
-121 -170 -172 0
-121 -171 -172 0
-138 -169 -170 0
-138 -169 -171 0
-138 -169 -172 0
-138 -170 -171 0
-138 -170 -172 0
-138 -171 -172 0
-169 -170 -171 0
-169 -170 -172 0
-169 -171 -172 0
-170 -171 -172 0
96 121 138 169 170 171 172 0
87 121 138 169 170 171 172 0
87 96 138 169 170 171 172 0
87 96 121 169 170 171 172 0
87 96 121 138 170 171 172 0
87 96 121 138 169 171 172 0
87 96 121 138 169 170 172 0
87 96 121 138 169 170 171 0
-91 -100 -125 0
-91 -100 -142 0
-91 -100 -173 0
-91 -100 -174 0
-91 -100 -175 0
-91 -100 -176 0
-91 -125 -142 0
-91 -125 -173 0
-91 -125 -174 0
-91 -125 -175 0
-91 -125 -176 0
-91 -142 -173 0
-91 -142 -174 0
-91 -142 -175 0
-91 -142 -176 0
-91 -173 -174 0
-91 -173 -175 0
-91 -173 -176 0
-91 -174 -175 0
-91 -174 -176 0
-91 -175 -176 0
-100 -125 -142 0
-100 -125 -173 0
-100 -125 -174 0
-100 -125 -175 0
-100 -125 -176 0
-100 -142 -173 0
-100 -142 -174 0
-100 -142 -175 0
-100 -142 -176 0
-100 -173 -174 0
-100 -173 -175 0
-100 -173 -176 0
-100 -174 -175 0
-100 -174 -176 0
-100 -175 -176 0
-125 -142 -173 0
-125 -142 -174 0
-125 -142 -175 0
-125 -142 -176 0
-125 -173 -174 0
-125 -173 -175 0
-125 -173 -176 0
-125 -174 -175 0
-125 -174 -176 0
-125 -175 -176 0
-142 -173 -174 0
-142 -173 -175 0
-142 -173 -176 0
-142 -174 -175 0
-142 -174 -176 0
-142 -175 -176 0
-173 -174 -175 0
-173 -174 -176 0
-173 -175 -176 0
-174 -175 -176 0
100 125 142 173 174 175 176 0
91 125 142 173 174 175 176 0
91 100 142 173 174 175 176 0
91 100 125 173 174 175 176 0
91 100 125 142 174 175 176 0
91 100 125 142 173 175 176 0
91 100 125 142 173 174 176 0
91 100 125 142 173 174 175 0
-95 -104 -129 0
-95 -104 -146 0
-95 -104 -177 0
-95 -104 -178 0
-95 -104 -179 0
-95 -104 -180 0
-95 -129 -146 0
-95 -129 -177 0
-95 -129 -178 0
-95 -129 -179 0
-95 -129 -180 0
-95 -146 -177 0
-95 -146 -178 0
-95 -146 -179 0
-95 -146 -180 0
-95 -177 -178 0
-95 -177 -179 0
-95 -177 -180 0
-95 -178 -179 0
-95 -178 -180 0
-95 -179 -180 0
-104 -129 -146 0
-104 -129 -177 0
-104 -129 -178 0
-104 -129 -179 0
-104 -129 -180 0
-104 -146 -177 0
-104 -146 -178 0
-104 -146 -179 0
-104 -146 -180 0
-104 -177 -178 0
-104 -177 -179 0
-104 -177 -180 0
-104 -178 -179 0
-104 -178 -180 0
-104 -179 -180 0
-129 -146 -177 0
-129 -146 -178 0
-129 -146 -179 0
-129 -146 -180 0
-129 -177 -178 0
-129 -177 -179 0
-129 -177 -180 0
-129 -178 -179 0
-129 -178 -180 0
-129 -179 -180 0
-146 -177 -178 0
-146 -177 -179 0
-146 -177 -180 0
-146 -178 -179 0
-146 -178 -180 0
-146 -179 -180 0
-177 -178 -179 0
-177 -178 -180 0
-177 -179 -180 0
-178 -179 -180 0
104 129 146 177 178 179 180 0
95 129 146 177 178 179 180 0
95 104 146 177 178 179 180 0
95 104 129 177 178 179 180 0
95 104 129 146 178 179 180 0
95 104 129 146 177 179 180 0
95 104 129 146 177 178 180 0
95 104 129 146 177 178 179 0
-99 -108 -133 0
-99 -108 -150 0
-99 -108 -181 0
-99 -108 -182 0
-99 -108 -183 0
-99 -108 -184 0
-99 -133 -150 0
-99 -133 -181 0
-99 -133 -182 0
-99 -133 -183 0
-99 -133 -184 0
-99 -150 -181 0
-99 -150 -182 0
-99 -150 -183 0
-99 -150 -184 0
-99 -181 -182 0
-99 -181 -183 0
-99 -181 -184 0
-99 -182 -183 0
-99 -182 -184 0
-99 -183 -184 0
-108 -133 -150 0
-108 -133 -181 0
-108 -133 -182 0
-108 -133 -183 0
-108 -133 -184 0
-108 -150 -181 0
-108 -150 -182 0
-108 -150 -183 0
-108 -150 -184 0
-108 -181 -182 0
-108 -181 -183 0
-108 -181 -184 0
-108 -182 -183 0
-108 -182 -184 0
-108 -183 -184 0
-133 -150 -181 0
-133 -150 -182 0
-133 -150 -183 0
-133 -150 -184 0
-133 -181 -182 0
-133 -181 -183 0
-133 -181 -184 0
-133 -182 -183 0
-133 -182 -184 0
-133 -183 -184 0
-150 -181 -182 0
-150 -181 -183 0
-150 -181 -184 0
-150 -182 -183 0
-150 -182 -184 0
-150 -183 -184 0
-181 -182 -183 0
-181 -182 -184 0
-181 -183 -184 0
-182 -183 -184 0
108 133 150 181 182 183 184 0
99 133 150 181 182 183 184 0
99 108 150 181 182 183 184 0
99 108 133 181 182 183 184 0
99 108 133 150 182 183 184 0
99 108 133 150 181 183 184 0
99 108 133 150 181 182 184 0
99 108 133 150 181 182 183 0
-103 -112 -137 0
-103 -112 -154 0
-103 -112 -185 0
-103 -112 -186 0
-103 -112 -187 0
-103 -112 -188 0
-103 -137 -154 0
-103 -137 -185 0
-103 -137 -186 0
-103 -137 -187 0
-103 -137 -188 0
-103 -154 -185 0
-103 -154 -186 0
-103 -154 -187 0
-103 -154 -188 0
-103 -185 -186 0
-103 -185 -187 0
-103 -185 -188 0
-103 -186 -187 0
-103 -186 -188 0
-103 -187 -188 0
-112 -137 -154 0
-112 -137 -185 0
-112 -137 -186 0
-112 -137 -187 0
-112 -137 -188 0
-112 -154 -185 0
-112 -154 -186 0
-112 -154 -187 0
-112 -154 -188 0
-112 -185 -186 0
-112 -185 -187 0
-112 -185 -188 0
-112 -186 -187 0
-112 -186 -188 0
-112 -187 -188 0
-137 -154 -185 0
-137 -154 -186 0
-137 -154 -187 0
-137 -154 -188 0
-137 -185 -186 0
-137 -185 -187 0
-137 -185 -188 0
-137 -186 -187 0
-137 -186 -188 0
-137 -187 -188 0
-154 -185 -186 0
-154 -185 -187 0
-154 -185 -188 0
-154 -186 -187 0
-154 -186 -188 0
-154 -187 -188 0
-185 -186 -187 0
-185 -186 -188 0
-185 -187 -188 0
-186 -187 -188 0
112 137 154 185 186 187 188 0
103 137 154 185 186 187 188 0
103 112 154 185 186 187 188 0
103 112 137 185 186 187 188 0
103 112 137 154 186 187 188 0
103 112 137 154 185 187 188 0
103 112 137 154 185 186 188 0
103 112 137 154 185 186 187 0
-107 -116 -141 0
-107 -116 -158 0
-107 -116 -189 0
-107 -116 -190 0
-107 -116 -191 0
-107 -116 -192 0
-107 -141 -158 0
-107 -141 -189 0
-107 -141 -190 0
-107 -141 -191 0
-107 -141 -192 0
-107 -158 -189 0
-107 -158 -190 0
-107 -158 -191 0
-107 -158 -192 0
-107 -189 -190 0
-107 -189 -191 0
-107 -189 -192 0
-107 -190 -191 0
-107 -190 -192 0
-107 -191 -192 0
-116 -141 -158 0
-116 -141 -189 0
-116 -141 -190 0
-116 -141 -191 0
-116 -141 -192 0
-116 -158 -189 0
-116 -158 -190 0
-116 -158 -191 0
-116 -158 -192 0
-116 -189 -190 0
-116 -189 -191 0
-116 -189 -192 0
-116 -190 -191 0
-116 -190 -192 0
-116 -191 -192 0
-141 -158 -189 0
-141 -158 -190 0
-141 -158 -191 0
-141 -158 -192 0
-141 -189 -190 0
-141 -189 -191 0
-141 -189 -192 0
-141 -190 -191 0
-141 -190 -192 0
-141 -191 -192 0
-158 -189 -190 0
-158 -189 -191 0
-158 -189 -192 0
-158 -190 -191 0
-158 -190 -192 0
-158 -191 -192 0
-189 -190 -191 0
-189 -190 -192 0
-189 -191 -192 0
-190 -191 -192 0
116 141 158 189 190 191 192 0
107 141 158 189 190 191 192 0
107 116 158 189 190 191 192 0
107 116 141 189 190 191 192 0
107 116 141 158 190 191 192 0
107 116 141 158 189 191 192 0
107 116 141 158 189 190 192 0
107 116 141 158 189 190 191 0
-111 -120 -122 0
-111 -120 -145 0
-111 -120 -193 0
-111 -120 -194 0
-111 -120 -195 0
-111 -120 -196 0
-111 -122 -145 0
-111 -122 -193 0
-111 -122 -194 0
-111 -122 -195 0
-111 -122 -196 0
-111 -145 -193 0
-111 -145 -194 0
-111 -145 -195 0
-111 -145 -196 0
-111 -193 -194 0
-111 -193 -195 0
-111 -193 -196 0
-111 -194 -195 0
-111 -194 -196 0
-111 -195 -196 0
-120 -122 -145 0
-120 -122 -193 0
-120 -122 -194 0
-120 -122 -195 0
-120 -122 -196 0
-120 -145 -193 0
-120 -145 -194 0
-120 -145 -195 0
-120 -145 -196 0
-120 -193 -194 0
-120 -193 -195 0
-120 -193 -196 0
-120 -194 -195 0
-120 -194 -196 0
-120 -195 -196 0
-122 -145 -193 0
-122 -145 -194 0
-122 -145 -195 0
-122 -145 -196 0
-122 -193 -194 0
-122 -193 -195 0
-122 -193 -196 0
-122 -194 -195 0
-122 -194 -196 0
-122 -195 -196 0
-145 -193 -194 0
-145 -193 -195 0
-145 -193 -196 0
-145 -194 -195 0
-145 -194 -196 0
-145 -195 -196 0
-193 -194 -195 0
-193 -194 -196 0
-193 -195 -196 0
-194 -195 -196 0
120 122 145 193 194 195 196 0
111 122 145 193 194 195 196 0
111 120 145 193 194 195 196 0
111 120 122 193 194 195 196 0
111 120 122 145 194 195 196 0
111 120 122 145 193 195 196 0
111 120 122 145 193 194 196 0
111 120 122 145 193 194 195 0
-84 -115 -126 0
-84 -115 -149 0
-84 -115 -197 0
-84 -115 -198 0
-84 -115 -199 0
-84 -115 -200 0
-84 -126 -149 0
-84 -126 -197 0
-84 -126 -198 0
-84 -126 -199 0
-84 -126 -200 0
-84 -149 -197 0
-84 -149 -198 0
-84 -149 -199 0
-84 -149 -200 0
-84 -197 -198 0
-84 -197 -199 0
-84 -197 -200 0
-84 -198 -199 0
-84 -198 -200 0
-84 -199 -200 0
-115 -126 -149 0
-115 -126 -197 0
-115 -126 -198 0
-115 -126 -199 0
-115 -126 -200 0
-115 -149 -197 0
-115 -149 -198 0
-115 -149 -199 0
-115 -149 -200 0
-115 -197 -198 0
-115 -197 -199 0
-115 -197 -200 0
-115 -198 -199 0
-115 -198 -200 0
-115 -199 -200 0
-126 -149 -197 0
-126 -149 -198 0
-126 -149 -199 0
-126 -149 -200 0
-126 -197 -198 0
-126 -197 -199 0
-126 -197 -200 0
-126 -198 -199 0
-126 -198 -200 0
-126 -199 -200 0
-149 -197 -198 0
-149 -197 -199 0
-149 -197 -200 0
-149 -198 -199 0
-149 -198 -200 0
-149 -199 -200 0
-197 -198 -199 0
-197 -198 -200 0
-197 -199 -200 0
-198 -199 -200 0
115 126 149 197 198 199 200 0
84 126 149 197 198 199 200 0
84 115 149 197 198 199 200 0
84 115 126 197 198 199 200 0
84 115 126 149 198 199 200 0
84 115 126 149 197 199 200 0
84 115 126 149 197 198 200 0
84 115 126 149 197 198 199 0
-128 -159 -170 0
-128 -159 -193 0
-128 -159 -201 0
-128 -159 -202 0
-128 -159 -203 0
-128 -159 -204 0
-128 -170 -193 0
-128 -170 -201 0
-128 -170 -202 0
-128 -170 -203 0
-128 -170 -204 0
-128 -193 -201 0
-128 -193 -202 0
-128 -193 -203 0
-128 -193 -204 0
-128 -201 -202 0
-128 -201 -203 0
-128 -201 -204 0
-128 -202 -203 0
-128 -202 -204 0
-128 -203 -204 0
-159 -170 -193 0
-159 -170 -201 0
-159 -170 -202 0
-159 -170 -203 0
-159 -170 -204 0
-159 -193 -201 0
-159 -193 -202 0
-159 -193 -203 0
-159 -193 -204 0
-159 -201 -202 0
-159 -201 -203 0
-159 -201 -204 0
-159 -202 -203 0
-159 -202 -204 0
-159 -203 -204 0
-170 -193 -201 0
-170 -193 -202 0
-170 -193 -203 0
-170 -193 -204 0
-170 -201 -202 0
-170 -201 -203 0
-170 -201 -204 0
-170 -202 -203 0
-170 -202 -204 0
-170 -203 -204 0
-193 -201 -202 0
-193 -201 -203 0
-193 -201 -204 0
-193 -202 -203 0
-193 -202 -204 0
-193 -203 -204 0
-201 -202 -203 0
-201 -202 -204 0
-201 -203 -204 0
-202 -203 -204 0
159 170 193 201 202 203 204 0
128 170 193 201 202 203 204 0
128 159 193 201 202 203 204 0
128 159 170 201 202 203 204 0
128 159 170 193 202 203 204 0
128 159 170 193 201 203 204 0
128 159 170 193 201 202 204 0
128 159 170 193 201 202 203 0
-123 -132 -174 0
-123 -132 -197 0
-123 -132 -205 0
-123 -132 -206 0
-123 -132 -207 0
-123 -132 -208 0
-123 -174 -197 0
-123 -174 -205 0
-123 -174 -206 0
-123 -174 -207 0
-123 -174 -208 0
-123 -197 -205 0
-123 -197 -206 0
-123 -197 -207 0
-123 -197 -208 0
-123 -205 -206 0
-123 -205 -207 0
-123 -205 -208 0
-123 -206 -207 0
-123 -206 -208 0
-123 -207 -208 0
-132 -174 -197 0
-132 -174 -205 0
-132 -174 -206 0
-132 -174 -207 0
-132 -174 -208 0
-132 -197 -205 0
-132 -197 -206 0
-132 -197 -207 0
-132 -197 -208 0
-132 -205 -206 0
-132 -205 -207 0
-132 -205 -208 0
-132 -206 -207 0
-132 -206 -208 0
-132 -207 -208 0
-174 -197 -205 0
-174 -197 -206 0
-174 -197 -207 0
-174 -197 -208 0
-174 -205 -206 0
-174 -205 -207 0
-174 -205 -208 0
-174 -206 -207 0
-174 -206 -208 0
-174 -207 -208 0
-197 -205 -206 0
-197 -205 -207 0
-197 -205 -208 0
-197 -206 -207 0
-197 -206 -208 0
-197 -207 -208 0
-205 -206 -207 0
-205 -206 -208 0
-205 -207 -208 0
-206 -207 -208 0
132 174 197 205 206 207 208 0
123 174 197 205 206 207 208 0
123 132 197 205 206 207 208 0
123 132 174 205 206 207 208 0
123 132 174 197 206 207 208 0
123 132 174 197 205 207 208 0
123 132 174 197 205 206 208 0
123 132 174 197 205 206 207 0
-127 -136 -161 0
-127 -136 -178 0
-127 -136 -209 0
-127 -136 -210 0
-127 -136 -211 0
-127 -136 -212 0
-127 -161 -178 0
-127 -161 -209 0
-127 -161 -210 0
-127 -161 -211 0
-127 -161 -212 0
-127 -178 -209 0
-127 -178 -210 0
-127 -178 -211 0
-127 -178 -212 0
-127 -209 -210 0
-127 -209 -211 0
-127 -209 -212 0
-127 -210 -211 0
-127 -210 -212 0
-127 -211 -212 0
-136 -161 -178 0
-136 -161 -209 0
-136 -161 -210 0
-136 -161 -211 0
-136 -161 -212 0
-136 -178 -209 0
-136 -178 -210 0
-136 -178 -211 0
-136 -178 -212 0
-136 -209 -210 0
-136 -209 -211 0
-136 -209 -212 0
-136 -210 -211 0
-136 -210 -212 0
-136 -211 -212 0
-161 -178 -209 0
-161 -178 -210 0
-161 -178 -211 0
-161 -178 -212 0
-161 -209 -210 0
-161 -209 -211 0
-161 -209 -212 0
-161 -210 -211 0
-161 -210 -212 0
-161 -211 -212 0
-178 -209 -210 0
-178 -209 -211 0
-178 -209 -212 0
-178 -210 -211 0
-178 -210 -212 0
-178 -211 -212 0
-209 -210 -211 0
-209 -210 -212 0
-209 -211 -212 0
-210 -211 -212 0
136 161 178 209 210 211 212 0
127 161 178 209 210 211 212 0
127 136 178 209 210 211 212 0
127 136 161 209 210 211 212 0
127 136 161 178 210 211 212 0
127 136 161 178 209 211 212 0
127 136 161 178 209 210 212 0
127 136 161 178 209 210 211 0
-131 -140 -165 0
-131 -140 -182 0
-131 -140 -213 0
-131 -140 -214 0
-131 -140 -215 0
-131 -140 -216 0
-131 -165 -182 0
-131 -165 -213 0
-131 -165 -214 0
-131 -165 -215 0
-131 -165 -216 0
-131 -182 -213 0
-131 -182 -214 0
-131 -182 -215 0
-131 -182 -216 0
-131 -213 -214 0
-131 -213 -215 0
-131 -213 -216 0
-131 -214 -215 0
-131 -214 -216 0
-131 -215 -216 0
-140 -165 -182 0
-140 -165 -213 0
-140 -165 -214 0
-140 -165 -215 0
-140 -165 -216 0
-140 -182 -213 0
-140 -182 -214 0
-140 -182 -215 0
-140 -182 -216 0
-140 -213 -214 0
-140 -213 -215 0
-140 -213 -216 0
-140 -214 -215 0
-140 -214 -216 0
-140 -215 -216 0
-165 -182 -213 0
-165 -182 -214 0
-165 -182 -215 0
-165 -182 -216 0
-165 -213 -214 0
-165 -213 -215 0
-165 -213 -216 0
-165 -214 -215 0
-165 -214 -216 0
-165 -215 -216 0
-182 -213 -214 0
-182 -213 -215 0
-182 -213 -216 0
-182 -214 -215 0
-182 -214 -216 0
-182 -215 -216 0
-213 -214 -215 0
-213 -214 -216 0
-213 -215 -216 0
-214 -215 -216 0
140 165 182 213 214 215 216 0
131 165 182 213 214 215 216 0
131 140 182 213 214 215 216 0
131 140 165 213 214 215 216 0
131 140 165 182 214 215 216 0
131 140 165 182 213 215 216 0
131 140 165 182 213 214 216 0
131 140 165 182 213 214 215 0
-135 -144 -169 0
-135 -144 -186 0
-135 -144 -217 0
-135 -144 -218 0
-135 -144 -219 0
-135 -144 -220 0
-135 -169 -186 0
-135 -169 -217 0
-135 -169 -218 0
-135 -169 -219 0
-135 -169 -220 0
-135 -186 -217 0
-135 -186 -218 0
-135 -186 -219 0
-135 -186 -220 0
-135 -217 -218 0
-135 -217 -219 0
-135 -217 -220 0
-135 -218 -219 0
-135 -218 -220 0
-135 -219 -220 0
-144 -169 -186 0
-144 -169 -217 0
-144 -169 -218 0
-144 -169 -219 0
-144 -169 -220 0
-144 -186 -217 0
-144 -186 -218 0
-144 -186 -219 0
-144 -186 -220 0
-144 -217 -218 0
-144 -217 -219 0
-144 -217 -220 0
-144 -218 -219 0
-144 -218 -220 0
-144 -219 -220 0
-169 -186 -217 0
-169 -186 -218 0
-169 -186 -219 0
-169 -186 -220 0
-169 -217 -218 0
-169 -217 -219 0
-169 -217 -220 0
-169 -218 -219 0
-169 -218 -220 0
-169 -219 -220 0
-186 -217 -218 0
-186 -217 -219 0
-186 -217 -220 0
-186 -218 -219 0
-186 -218 -220 0
-186 -219 -220 0
-217 -218 -219 0
-217 -218 -220 0
-217 -219 -220 0
-218 -219 -220 0
144 169 186 217 218 219 220 0
135 169 186 217 218 219 220 0
135 144 186 217 218 219 220 0
135 144 169 217 218 219 220 0
135 144 169 186 218 219 220 0
135 144 169 186 217 219 220 0
135 144 169 186 217 218 220 0
135 144 169 186 217 218 219 0
-139 -148 -173 0
-139 -148 -190 0
-139 -148 -221 0
-139 -148 -222 0
-139 -148 -223 0
-139 -148 -224 0
-139 -173 -190 0
-139 -173 -221 0
-139 -173 -222 0
-139 -173 -223 0
-139 -173 -224 0
-139 -190 -221 0
-139 -190 -222 0
-139 -190 -223 0
-139 -190 -224 0
-139 -221 -222 0
-139 -221 -223 0
-139 -221 -224 0
-139 -222 -223 0
-139 -222 -224 0
-139 -223 -224 0
-148 -173 -190 0
-148 -173 -221 0
-148 -173 -222 0
-148 -173 -223 0
-148 -173 -224 0
-148 -190 -221 0
-148 -190 -222 0
-148 -190 -223 0
-148 -190 -224 0
-148 -221 -222 0
-148 -221 -223 0
-148 -221 -224 0
-148 -222 -223 0
-148 -222 -224 0
-148 -223 -224 0
-173 -190 -221 0
-173 -190 -222 0
-173 -190 -223 0
-173 -190 -224 0
-173 -221 -222 0
-173 -221 -223 0
-173 -221 -224 0
-173 -222 -223 0
-173 -222 -224 0
-173 -223 -224 0
-190 -221 -222 0
-190 -221 -223 0
-190 -221 -224 0
-190 -222 -223 0
-190 -222 -224 0
-190 -223 -224 0
-221 -222 -223 0
-221 -222 -224 0
-221 -223 -224 0
-222 -223 -224 0
148 173 190 221 222 223 224 0
139 173 190 221 222 223 224 0
139 148 190 221 222 223 224 0
139 148 173 221 222 223 224 0
139 148 173 190 222 223 224 0
139 148 173 190 221 223 224 0
139 148 173 190 221 222 224 0
139 148 173 190 221 222 223 0
-143 -152 -177 0
-143 -152 -194 0
-143 -152 -225 0
-143 -152 -226 0
-143 -152 -227 0
-143 -152 -228 0
-143 -177 -194 0
-143 -177 -225 0
-143 -177 -226 0
-143 -177 -227 0
-143 -177 -228 0
-143 -194 -225 0
-143 -194 -226 0
-143 -194 -227 0
-143 -194 -228 0
-143 -225 -226 0
-143 -225 -227 0
-143 -225 -228 0
-143 -226 -227 0
-143 -226 -228 0
-143 -227 -228 0
-152 -177 -194 0
-152 -177 -225 0
-152 -177 -226 0
-152 -177 -227 0
-152 -177 -228 0
-152 -194 -225 0
-152 -194 -226 0
-152 -194 -227 0
-152 -194 -228 0
-152 -225 -226 0
-152 -225 -227 0
-152 -225 -228 0
-152 -226 -227 0
-152 -226 -228 0
-152 -227 -228 0
-177 -194 -225 0
-177 -194 -226 0
-177 -194 -227 0
-177 -194 -228 0
-177 -225 -226 0
-177 -225 -227 0
-177 -225 -228 0
-177 -226 -227 0
-177 -226 -228 0
-177 -227 -228 0
-194 -225 -226 0
-194 -225 -227 0
-194 -225 -228 0
-194 -226 -227 0
-194 -226 -228 0
-194 -227 -228 0
-225 -226 -227 0
-225 -226 -228 0
-225 -227 -228 0
-226 -227 -228 0
152 177 194 225 226 227 228 0
143 177 194 225 226 227 228 0
143 152 194 225 226 227 228 0
143 152 177 225 226 227 228 0
143 152 177 194 226 227 228 0
143 152 177 194 225 227 228 0
143 152 177 194 225 226 228 0
143 152 177 194 225 226 227 0
-147 -156 -181 0
-147 -156 -198 0
-147 -156 -229 0
-147 -156 -230 0
-147 -156 -231 0
-147 -156 -232 0
-147 -181 -198 0
-147 -181 -229 0
-147 -181 -230 0
-147 -181 -231 0
-147 -181 -232 0
-147 -198 -229 0
-147 -198 -230 0
-147 -198 -231 0
-147 -198 -232 0
-147 -229 -230 0
-147 -229 -231 0
-147 -229 -232 0
-147 -230 -231 0
-147 -230 -232 0
-147 -231 -232 0
-156 -181 -198 0
-156 -181 -229 0
-156 -181 -230 0
-156 -181 -231 0
-156 -181 -232 0
-156 -198 -229 0
-156 -198 -230 0
-156 -198 -231 0
-156 -198 -232 0
-156 -229 -230 0
-156 -229 -231 0
-156 -229 -232 0
-156 -230 -231 0
-156 -230 -232 0
-156 -231 -232 0
-181 -198 -229 0
-181 -198 -230 0
-181 -198 -231 0
-181 -198 -232 0
-181 -229 -230 0
-181 -229 -231 0
-181 -229 -232 0
-181 -230 -231 0
-181 -230 -232 0
-181 -231 -232 0
-198 -229 -230 0
-198 -229 -231 0
-198 -229 -232 0
-198 -230 -231 0
-198 -230 -232 0
-198 -231 -232 0
-229 -230 -231 0
-229 -230 -232 0
-229 -231 -232 0
-230 -231 -232 0
156 181 198 229 230 231 232 0
147 181 198 229 230 231 232 0
147 156 198 229 230 231 232 0
147 156 181 229 230 231 232 0
147 156 181 198 230 231 232 0
147 156 181 198 229 231 232 0
147 156 181 198 229 230 232 0
147 156 181 198 229 230 231 0
-151 -160 -162 0
-151 -160 -185 0
-151 -160 -233 0
-151 -160 -234 0
-151 -160 -235 0
-151 -160 -236 0
-151 -162 -185 0
-151 -162 -233 0
-151 -162 -234 0
-151 -162 -235 0
-151 -162 -236 0
-151 -185 -233 0
-151 -185 -234 0
-151 -185 -235 0
-151 -185 -236 0
-151 -233 -234 0
-151 -233 -235 0
-151 -233 -236 0
-151 -234 -235 0
-151 -234 -236 0
-151 -235 -236 0
-160 -162 -185 0
-160 -162 -233 0
-160 -162 -234 0
-160 -162 -235 0
-160 -162 -236 0
-160 -185 -233 0
-160 -185 -234 0
-160 -185 -235 0
-160 -185 -236 0
-160 -233 -234 0
-160 -233 -235 0
-160 -233 -236 0
-160 -234 -235 0
-160 -234 -236 0
-160 -235 -236 0
-162 -185 -233 0
-162 -185 -234 0
-162 -185 -235 0
-162 -185 -236 0
-162 -233 -234 0
-162 -233 -235 0
-162 -233 -236 0
-162 -234 -235 0
-162 -234 -236 0
-162 -235 -236 0
-185 -233 -234 0
-185 -233 -235 0
-185 -233 -236 0
-185 -234 -235 0
-185 -234 -236 0
-185 -235 -236 0
-233 -234 -235 0
-233 -234 -236 0
-233 -235 -236 0
-234 -235 -236 0
160 162 185 233 234 235 236 0
151 162 185 233 234 235 236 0
151 160 185 233 234 235 236 0
151 160 162 233 234 235 236 0
151 160 162 185 234 235 236 0
151 160 162 185 233 235 236 0
151 160 162 185 233 234 236 0
151 160 162 185 233 234 235 0
-124 -155 -166 0
-124 -155 -189 0
-124 -155 -237 0
-124 -155 -238 0
-124 -155 -239 0
-124 -155 -240 0
-124 -166 -189 0
-124 -166 -237 0
-124 -166 -238 0
-124 -166 -239 0
-124 -166 -240 0
-124 -189 -237 0
-124 -189 -238 0
-124 -189 -239 0
-124 -189 -240 0
-124 -237 -238 0
-124 -237 -239 0
-124 -237 -240 0
-124 -238 -239 0
-124 -238 -240 0
-124 -239 -240 0
-155 -166 -189 0
-155 -166 -237 0
-155 -166 -238 0
-155 -166 -239 0
-155 -166 -240 0
-155 -189 -237 0
-155 -189 -238 0
-155 -189 -239 0
-155 -189 -240 0
-155 -237 -238 0
-155 -237 -239 0
-155 -237 -240 0
-155 -238 -239 0
-155 -238 -240 0
-155 -239 -240 0
-166 -189 -237 0
-166 -189 -238 0
-166 -189 -239 0
-166 -189 -240 0
-166 -237 -238 0
-166 -237 -239 0
-166 -237 -240 0
-166 -238 -239 0
-166 -238 -240 0
-166 -239 -240 0
-189 -237 -238 0
-189 -237 -239 0
-189 -237 -240 0
-189 -238 -239 0
-189 -238 -240 0
-189 -239 -240 0
-237 -238 -239 0
-237 -238 -240 0
-237 -239 -240 0
-238 -239 -240 0
155 166 189 237 238 239 240 0
124 166 189 237 238 239 240 0
124 155 189 237 238 239 240 0
124 155 166 237 238 239 240 0
124 155 166 189 238 239 240 0
124 155 166 189 237 239 240 0
124 155 166 189 237 238 240 0
124 155 166 189 237 238 239 0
-168 -199 -210 0
-168 -199 -233 0
-168 -199 -241 0
-168 -199 -242 0
-168 -199 -243 0
-168 -199 -244 0
-168 -210 -233 0
-168 -210 -241 0
-168 -210 -242 0
-168 -210 -243 0
-168 -210 -244 0
-168 -233 -241 0
-168 -233 -242 0
-168 -233 -243 0
-168 -233 -244 0
-168 -241 -242 0
-168 -241 -243 0
-168 -241 -244 0
-168 -242 -243 0
-168 -242 -244 0
-168 -243 -244 0
-199 -210 -233 0
-199 -210 -241 0
-199 -210 -242 0
-199 -210 -243 0
-199 -210 -244 0
-199 -233 -241 0
-199 -233 -242 0
-199 -233 -243 0
-199 -233 -244 0
-199 -241 -242 0
-199 -241 -243 0
-199 -241 -244 0
-199 -242 -243 0
-199 -242 -244 0
-199 -243 -244 0
-210 -233 -241 0
-210 -233 -242 0
-210 -233 -243 0
-210 -233 -244 0
-210 -241 -242 0
-210 -241 -243 0
-210 -241 -244 0
-210 -242 -243 0
-210 -242 -244 0
-210 -243 -244 0
-233 -241 -242 0
-233 -241 -243 0
-233 -241 -244 0
-233 -242 -243 0
-233 -242 -244 0
-233 -243 -244 0
-241 -242 -243 0
-241 -242 -244 0
-241 -243 -244 0
-242 -243 -244 0
199 210 233 241 242 243 244 0
168 210 233 241 242 243 244 0
168 199 233 241 242 243 244 0
168 199 210 241 242 243 244 0
168 199 210 233 242 243 244 0
168 199 210 233 241 243 244 0
168 199 210 233 241 242 244 0
168 199 210 233 241 242 243 0
-163 -172 -214 0
-163 -172 -237 0
-163 -172 -245 0
-163 -172 -246 0
-163 -172 -247 0
-163 -172 -248 0
-163 -214 -237 0
-163 -214 -245 0
-163 -214 -246 0
-163 -214 -247 0
-163 -214 -248 0
-163 -237 -245 0
-163 -237 -246 0
-163 -237 -247 0
-163 -237 -248 0
-163 -245 -246 0
-163 -245 -247 0
-163 -245 -248 0
-163 -246 -247 0
-163 -246 -248 0
-163 -247 -248 0
-172 -214 -237 0
-172 -214 -245 0
-172 -214 -246 0
-172 -214 -247 0
-172 -214 -248 0
-172 -237 -245 0
-172 -237 -246 0
-172 -237 -247 0
-172 -237 -248 0
-172 -245 -246 0
-172 -245 -247 0
-172 -245 -248 0
-172 -246 -247 0
-172 -246 -248 0
-172 -247 -248 0
-214 -237 -245 0
-214 -237 -246 0
-214 -237 -247 0
-214 -237 -248 0
-214 -245 -246 0
-214 -245 -247 0
-214 -245 -248 0
-214 -246 -247 0
-214 -246 -248 0
-214 -247 -248 0
-237 -245 -246 0
-237 -245 -247 0
-237 -245 -248 0
-237 -246 -247 0
-237 -246 -248 0
-237 -247 -248 0
-245 -246 -247 0
-245 -246 -248 0
-245 -247 -248 0
-246 -247 -248 0
172 214 237 245 246 247 248 0
163 214 237 245 246 247 248 0
163 172 237 245 246 247 248 0
163 172 214 245 246 247 248 0
163 172 214 237 246 247 248 0
163 172 214 237 245 247 248 0
163 172 214 237 245 246 248 0
163 172 214 237 245 246 247 0
-167 -176 -201 0
-167 -176 -218 0
-167 -176 -249 0
-167 -176 -250 0
-167 -176 -251 0
-167 -176 -252 0
-167 -201 -218 0
-167 -201 -249 0
-167 -201 -250 0
-167 -201 -251 0
-167 -201 -252 0
-167 -218 -249 0
-167 -218 -250 0
-167 -218 -251 0
-167 -218 -252 0
-167 -249 -250 0
-167 -249 -251 0
-167 -249 -252 0
-167 -250 -251 0
-167 -250 -252 0
-167 -251 -252 0
-176 -201 -218 0
-176 -201 -249 0
-176 -201 -250 0
-176 -201 -251 0
-176 -201 -252 0
-176 -218 -249 0
-176 -218 -250 0
-176 -218 -251 0
-176 -218 -252 0
-176 -249 -250 0
-176 -249 -251 0
-176 -249 -252 0
-176 -250 -251 0
-176 -250 -252 0
-176 -251 -252 0
-201 -218 -249 0
-201 -218 -250 0
-201 -218 -251 0
-201 -218 -252 0
-201 -249 -250 0
-201 -249 -251 0
-201 -249 -252 0
-201 -250 -251 0
-201 -250 -252 0
-201 -251 -252 0
-218 -249 -250 0
-218 -249 -251 0
-218 -249 -252 0
-218 -250 -251 0
-218 -250 -252 0
-218 -251 -252 0
-249 -250 -251 0
-249 -250 -252 0
-249 -251 -252 0
-250 -251 -252 0
176 201 218 249 250 251 252 0
167 201 218 249 250 251 252 0
167 176 218 249 250 251 252 0
167 176 201 249 250 251 252 0
167 176 201 218 250 251 252 0
167 176 201 218 249 251 252 0
167 176 201 218 249 250 252 0
167 176 201 218 249 250 251 0
-171 -180 -205 0
-171 -180 -222 0
-171 -180 -253 0
-171 -180 -254 0
-171 -180 -255 0
-171 -180 -256 0
-171 -205 -222 0
-171 -205 -253 0
-171 -205 -254 0
-171 -205 -255 0
-171 -205 -256 0
-171 -222 -253 0
-171 -222 -254 0
-171 -222 -255 0
-171 -222 -256 0
-171 -253 -254 0
-171 -253 -255 0
-171 -253 -256 0
-171 -254 -255 0
-171 -254 -256 0
-171 -255 -256 0
-180 -205 -222 0
-180 -205 -253 0
-180 -205 -254 0
-180 -205 -255 0
-180 -205 -256 0
-180 -222 -253 0
-180 -222 -254 0
-180 -222 -255 0
-180 -222 -256 0
-180 -253 -254 0
-180 -253 -255 0
-180 -253 -256 0
-180 -254 -255 0
-180 -254 -256 0
-180 -255 -256 0
-205 -222 -253 0
-205 -222 -254 0
-205 -222 -255 0
-205 -222 -256 0
-205 -253 -254 0
-205 -253 -255 0
-205 -253 -256 0
-205 -254 -255 0
-205 -254 -256 0
-205 -255 -256 0
-222 -253 -254 0
-222 -253 -255 0
-222 -253 -256 0
-222 -254 -255 0
-222 -254 -256 0
-222 -255 -256 0
-253 -254 -255 0
-253 -254 -256 0
-253 -255 -256 0
-254 -255 -256 0
180 205 222 253 254 255 256 0
171 205 222 253 254 255 256 0
171 180 222 253 254 255 256 0
171 180 205 253 254 255 256 0
171 180 205 222 254 255 256 0
171 180 205 222 253 255 256 0
171 180 205 222 253 254 256 0
171 180 205 222 253 254 255 0
-175 -184 -209 0
-175 -184 -226 0
-175 -184 -257 0
-175 -184 -258 0
-175 -184 -259 0
-175 -184 -260 0
-175 -209 -226 0
-175 -209 -257 0
-175 -209 -258 0
-175 -209 -259 0
-175 -209 -260 0
-175 -226 -257 0
-175 -226 -258 0
-175 -226 -259 0
-175 -226 -260 0
-175 -257 -258 0
-175 -257 -259 0
-175 -257 -260 0
-175 -258 -259 0
-175 -258 -260 0
-175 -259 -260 0
-184 -209 -226 0
-184 -209 -257 0
-184 -209 -258 0
-184 -209 -259 0
-184 -209 -260 0
-184 -226 -257 0
-184 -226 -258 0
-184 -226 -259 0
-184 -226 -260 0
-184 -257 -258 0
-184 -257 -259 0
-184 -257 -260 0
-184 -258 -259 0
-184 -258 -260 0
-184 -259 -260 0
-209 -226 -257 0
-209 -226 -258 0
-209 -226 -259 0
-209 -226 -260 0
-209 -257 -258 0
-209 -257 -259 0
-209 -257 -260 0
-209 -258 -259 0
-209 -258 -260 0
-209 -259 -260 0
-226 -257 -258 0
-226 -257 -259 0
-226 -257 -260 0
-226 -258 -259 0
-226 -258 -260 0
-226 -259 -260 0
-257 -258 -259 0
-257 -258 -260 0
-257 -259 -260 0
-258 -259 -260 0
184 209 226 257 258 259 260 0
175 209 226 257 258 259 260 0
175 184 226 257 258 259 260 0
175 184 209 257 258 259 260 0
175 184 209 226 258 259 260 0
175 184 209 226 257 259 260 0
175 184 209 226 257 258 260 0
175 184 209 226 257 258 259 0
-179 -188 -213 0
-179 -188 -230 0
-179 -188 -261 0
-179 -188 -262 0
-179 -188 -263 0
-179 -188 -264 0
-179 -213 -230 0
-179 -213 -261 0
-179 -213 -262 0
-179 -213 -263 0
-179 -213 -264 0
-179 -230 -261 0
-179 -230 -262 0
-179 -230 -263 0
-179 -230 -264 0
-179 -261 -262 0
-179 -261 -263 0
-179 -261 -264 0
-179 -262 -263 0
-179 -262 -264 0
-179 -263 -264 0
-188 -213 -230 0
-188 -213 -261 0
-188 -213 -262 0
-188 -213 -263 0
-188 -213 -264 0
-188 -230 -261 0
-188 -230 -262 0
-188 -230 -263 0
-188 -230 -264 0
-188 -261 -262 0
-188 -261 -263 0
-188 -261 -264 0
-188 -262 -263 0
-188 -262 -264 0
-188 -263 -264 0
-213 -230 -261 0
-213 -230 -262 0
-213 -230 -263 0
-213 -230 -264 0
-213 -261 -262 0
-213 -261 -263 0
-213 -261 -264 0
-213 -262 -263 0
-213 -262 -264 0
-213 -263 -264 0
-230 -261 -262 0
-230 -261 -263 0
-230 -261 -264 0
-230 -262 -263 0
-230 -262 -264 0
-230 -263 -264 0
-261 -262 -263 0
-261 -262 -264 0
-261 -263 -264 0
-262 -263 -264 0
188 213 230 261 262 263 264 0
179 213 230 261 262 263 264 0
179 188 230 261 262 263 264 0
179 188 213 261 262 263 264 0
179 188 213 230 262 263 264 0
179 188 213 230 261 263 264 0
179 188 213 230 261 262 264 0
179 188 213 230 261 262 263 0
-183 -192 -217 0
-183 -192 -234 0
-183 -192 -265 0
-183 -192 -266 0
-183 -192 -267 0
-183 -192 -268 0
-183 -217 -234 0
-183 -217 -265 0
-183 -217 -266 0
-183 -217 -267 0
-183 -217 -268 0
-183 -234 -265 0
-183 -234 -266 0
-183 -234 -267 0
-183 -234 -268 0
-183 -265 -266 0
-183 -265 -267 0
-183 -265 -268 0
-183 -266 -267 0
-183 -266 -268 0
-183 -267 -268 0
-192 -217 -234 0
-192 -217 -265 0
-192 -217 -266 0
-192 -217 -267 0
-192 -217 -268 0
-192 -234 -265 0
-192 -234 -266 0
-192 -234 -267 0
-192 -234 -268 0
-192 -265 -266 0
-192 -265 -267 0
-192 -265 -268 0
-192 -266 -267 0
-192 -266 -268 0
-192 -267 -268 0
-217 -234 -265 0
-217 -234 -266 0
-217 -234 -267 0
-217 -234 -268 0
-217 -265 -266 0
-217 -265 -267 0
-217 -265 -268 0
-217 -266 -267 0
-217 -266 -268 0
-217 -267 -268 0
-234 -265 -266 0
-234 -265 -267 0
-234 -265 -268 0
-234 -266 -267 0
-234 -266 -268 0
-234 -267 -268 0
-265 -266 -267 0
-265 -266 -268 0
-265 -267 -268 0
-266 -267 -268 0
192 217 234 265 266 267 268 0
183 217 234 265 266 267 268 0
183 192 234 265 266 267 268 0
183 192 217 265 266 267 268 0
183 192 217 234 266 267 268 0
183 192 217 234 265 267 268 0
183 192 217 234 265 266 268 0
183 192 217 234 265 266 267 0
-187 -196 -221 0
-187 -196 -238 0
-187 -196 -269 0
-187 -196 -270 0
-187 -196 -271 0
-187 -196 -272 0
-187 -221 -238 0
-187 -221 -269 0
-187 -221 -270 0
-187 -221 -271 0
-187 -221 -272 0
-187 -238 -269 0
-187 -238 -270 0
-187 -238 -271 0
-187 -238 -272 0
-187 -269 -270 0
-187 -269 -271 0
-187 -269 -272 0
-187 -270 -271 0
-187 -270 -272 0
-187 -271 -272 0
-196 -221 -238 0
-196 -221 -269 0
-196 -221 -270 0
-196 -221 -271 0
-196 -221 -272 0
-196 -238 -269 0
-196 -238 -270 0
-196 -238 -271 0
-196 -238 -272 0
-196 -269 -270 0
-196 -269 -271 0
-196 -269 -272 0
-196 -270 -271 0
-196 -270 -272 0
-196 -271 -272 0
-221 -238 -269 0
-221 -238 -270 0
-221 -238 -271 0
-221 -238 -272 0
-221 -269 -270 0
-221 -269 -271 0
-221 -269 -272 0
-221 -270 -271 0
-221 -270 -272 0
-221 -271 -272 0
-238 -269 -270 0
-238 -269 -271 0
-238 -269 -272 0
-238 -270 -271 0
-238 -270 -272 0
-238 -271 -272 0
-269 -270 -271 0
-269 -270 -272 0
-269 -271 -272 0
-270 -271 -272 0
196 221 238 269 270 271 272 0
187 221 238 269 270 271 272 0
187 196 238 269 270 271 272 0
187 196 221 269 270 271 272 0
187 196 221 238 270 271 272 0
187 196 221 238 269 271 272 0
187 196 221 238 269 270 272 0
187 196 221 238 269 270 271 0
-191 -200 -202 0
-191 -200 -225 0
-191 -200 -273 0
-191 -200 -274 0
-191 -200 -275 0
-191 -200 -276 0
-191 -202 -225 0
-191 -202 -273 0
-191 -202 -274 0
-191 -202 -275 0
-191 -202 -276 0
-191 -225 -273 0
-191 -225 -274 0
-191 -225 -275 0
-191 -225 -276 0
-191 -273 -274 0
-191 -273 -275 0
-191 -273 -276 0
-191 -274 -275 0
-191 -274 -276 0
-191 -275 -276 0
-200 -202 -225 0
-200 -202 -273 0
-200 -202 -274 0
-200 -202 -275 0
-200 -202 -276 0
-200 -225 -273 0
-200 -225 -274 0
-200 -225 -275 0
-200 -225 -276 0
-200 -273 -274 0
-200 -273 -275 0
-200 -273 -276 0
-200 -274 -275 0
-200 -274 -276 0
-200 -275 -276 0
-202 -225 -273 0
-202 -225 -274 0
-202 -225 -275 0
-202 -225 -276 0
-202 -273 -274 0
-202 -273 -275 0
-202 -273 -276 0
-202 -274 -275 0
-202 -274 -276 0
-202 -275 -276 0
-225 -273 -274 0
-225 -273 -275 0
-225 -273 -276 0
-225 -274 -275 0
-225 -274 -276 0
-225 -275 -276 0
-273 -274 -275 0
-273 -274 -276 0
-273 -275 -276 0
-274 -275 -276 0
200 202 225 273 274 275 276 0
191 202 225 273 274 275 276 0
191 200 225 273 274 275 276 0
191 200 202 273 274 275 276 0
191 200 202 225 274 275 276 0
191 200 202 225 273 275 276 0
191 200 202 225 273 274 276 0
191 200 202 225 273 274 275 0
-164 -195 -206 0
-164 -195 -229 0
-164 -195 -277 0
-164 -195 -278 0
-164 -195 -279 0
-164 -195 -280 0
-164 -206 -229 0
-164 -206 -277 0
-164 -206 -278 0
-164 -206 -279 0
-164 -206 -280 0
-164 -229 -277 0
-164 -229 -278 0
-164 -229 -279 0
-164 -229 -280 0
-164 -277 -278 0
-164 -277 -279 0
-164 -277 -280 0
-164 -278 -279 0
-164 -278 -280 0
-164 -279 -280 0
-195 -206 -229 0
-195 -206 -277 0
-195 -206 -278 0
-195 -206 -279 0
-195 -206 -280 0
-195 -229 -277 0
-195 -229 -278 0
-195 -229 -279 0
-195 -229 -280 0
-195 -277 -278 0
-195 -277 -279 0
-195 -277 -280 0
-195 -278 -279 0
-195 -278 -280 0
-195 -279 -280 0
-206 -229 -277 0
-206 -229 -278 0
-206 -229 -279 0
-206 -229 -280 0
-206 -277 -278 0
-206 -277 -279 0
-206 -277 -280 0
-206 -278 -279 0
-206 -278 -280 0
-206 -279 -280 0
-229 -277 -278 0
-229 -277 -279 0
-229 -277 -280 0
-229 -278 -279 0
-229 -278 -280 0
-229 -279 -280 0
-277 -278 -279 0
-277 -278 -280 0
-277 -279 -280 0
-278 -279 -280 0
195 206 229 277 278 279 280 0
164 206 229 277 278 279 280 0
164 195 229 277 278 279 280 0
164 195 206 277 278 279 280 0
164 195 206 229 278 279 280 0
164 195 206 229 277 279 280 0
164 195 206 229 277 278 280 0
164 195 206 229 277 278 279 0
-208 -239 -250 0
-208 -239 -273 0
-208 -250 -273 0
-239 -250 -273 0
-203 -212 -254 0
-203 -212 -277 0
-203 -254 -277 0
-212 -254 -277 0
-207 -216 -241 0
-207 -216 -258 0
-207 -241 -258 0
-216 -241 -258 0
-211 -220 -245 0
-211 -220 -262 0
-211 -245 -262 0
-220 -245 -262 0
-215 -224 -249 0
-215 -224 -266 0
-215 -249 -266 0
-224 -249 -266 0
-219 -228 -253 0
-219 -228 -270 0
-219 -253 -270 0
-228 -253 -270 0
-223 -232 -257 0
-223 -232 -274 0
-223 -257 -274 0
-232 -257 -274 0
-227 -236 -261 0
-227 -236 -278 0
-227 -261 -278 0
-236 -261 -278 0
-231 -240 -242 0
-231 -240 -265 0
-231 -242 -265 0
-240 -242 -265 0
-204 -235 -246 0
-204 -235 -269 0
-204 -246 -269 0
-235 -246 -269 0
-1 -6 281 0
-1 -7 282 0
-1 -8 283 0
-1 -10 284 0
-1 -12 285 0
-1 -14 286 0
-2 -29 287 0
-2 -33 288 0
-2 -35 289 0
-2 -37 290 0
-2 -39 291 0
-2 -40 292 0
-3 -6 293 0
-3 -8 294 0
-3 -10 295 0
-3 -37 296 0
-3 -41 297 0
-3 -46 298 0
-3 -48 299 0
-3 -50 300 0
-4 -6 301 0
-4 -33 302 0
-4 -37 303 0
-4 -39 304 0
-4 -42 305 0
-4 -73 306 0
-4 -77 307 0
-4 -79 308 0
-5 -10 309 0
-5 -11 310 0
-5 -12 311 0
-5 -14 312 0
-5 -16 313 0
-5 -18 314 0
-6 -33 315 0
-6 -37 316 0
-6 -39 317 0
-7 -10 318 0
-7 -12 319 0
-7 -14 320 0
-7 -45 321 0
-7 -50 322 0
-7 -52 323 0
-7 -54 324 0
-8 -10 325 0
-8 -37 326 0
-8 -41 327 0
-8 -43 328 0
-8 -46 329 0
-8 -77 330 0
-9 -14 331 0
-9 -15 332 0
-9 -16 333 0
-9 -18 334 0
-9 -20 335 0
-9 -22 336 0
-10 -37 337 0
-11 -14 338 0
-11 -16 339 0
-11 -18 340 0
-11 -49 341 0
-11 -54 342 0
-11 -56 343 0
-11 -58 344 0
-12 -14 345 0
-12 -41 346 0
-12 -45 347 0
-12 -47 348 0
-12 -50 349 0
-13 -18 350 0
-13 -19 351 0
-13 -20 352 0
-13 -22 353 0
-13 -24 354 0
-13 -26 355 0
-15 -18 356 0
-15 -20 357 0
-15 -22 358 0
-15 -53 359 0
-15 -58 360 0
-15 -60 361 0
-15 -62 362 0
-16 -18 363 0
-16 -45 364 0
-16 -49 365 0
-16 -51 366 0
-16 -54 367 0
-17 -22 368 0
-17 -23 369 0
-17 -24 370 0
-17 -26 371 0
-17 -28 372 0
-17 -30 373 0
-19 -22 374 0
-19 -24 375 0
-19 -26 376 0
-19 -57 377 0
-19 -62 378 0
-19 -64 379 0
-19 -66 380 0
-20 -22 381 0
-20 -49 382 0
-20 -53 383 0
-20 -55 384 0
-20 -58 385 0
-21 -26 386 0
-21 -27 387 0
-21 -28 388 0
-21 -30 389 0
-21 -32 390 0
-21 -34 391 0
-23 -26 392 0
-23 -28 393 0
-23 -30 394 0
-23 -61 395 0
-23 -66 396 0
-23 -68 397 0
-23 -70 398 0
-24 -26 399 0
-24 -53 400 0
-24 -57 401 0
-24 -59 402 0
-24 -62 403 0
-25 -30 404 0
-25 -31 405 0
-25 -32 406 0
-25 -34 407 0
-25 -36 408 0
-25 -38 409 0
-27 -30 410 0
-27 -32 411 0
-27 -34 412 0
-27 -65 413 0
-27 -70 414 0
-27 -72 415 0
-27 -74 416 0
-28 -30 417 0
-28 -57 418 0
-28 -61 419 0
-28 -63 420 0
-28 -66 421 0
-29 -34 422 0
-29 -35 423 0
-29 -36 424 0
-29 -38 425 0
-29 -40 426 0
-31 -34 427 0
-31 -36 428 0
-31 -38 429 0
-31 -69 430 0
-31 -74 431 0
-31 -76 432 0
-31 -78 433 0
-32 -34 434 0
-32 -61 435 0
-32 -65 436 0
-32 -67 437 0
-32 -70 438 0
-33 -38 439 0
-33 -39 440 0
-33 -40 441 0
-35 -38 442 0
-35 -40 443 0
-35 -42 444 0
-35 -73 445 0
-35 -78 446 0
-35 -80 447 0
-36 -38 448 0
-36 -65 449 0
-36 -69 450 0
-36 -71 451 0
-36 -74 452 0
-39 -42 453 0
-39 -44 454 0
-39 -46 455 0
-39 -77 456 0
-40 -69 457 0
-40 -73 458 0
-40 -75 459 0
-40 -78 460 0
-41 -46 461 0
-41 -47 462 0
-41 -48 463 0
-41 -50 464 0
-41 -52 465 0
-41 -54 466 0
-42 -69 467 0
-42 -73 468 0
-42 -75 469 0
-42 -77 470 0
-42 -79 471 0
-42 -80 472 0
-43 -46 473 0
-43 -48 474 0
-43 -50 475 0
-43 -77 476 0
-43 -81 0
-43 -86 0
-43 -88 0
-43 -90 0
-44 -46 477 0
-44 -73 478 0
-44 -77 479 0
-44 -79 480 0
-44 -82 0
-44 -113 0
-44 -117 0
-44 -119 0
-45 -50 481 0
-45 -51 482 0
-45 -52 483 0
-45 -54 484 0
-45 -56 485 0
-45 -58 486 0
-46 -73 487 0
-46 -77 488 0
-46 -79 489 0
-47 -50 490 0
-47 -52 491 0
-47 -54 492 0
-47 -85 0
-47 -90 0
-47 -92 0
-47 -94 0
-48 -50 493 0
-48 -77 494 0
-48 -81 0
-48 -83 0
-48 -86 0
-48 -117 0
-49 -54 495 0
-49 -55 496 0
-49 -56 497 0
-49 -58 498 0
-49 -60 499 0
-49 -62 500 0
-50 -77 501 0
-51 -54 502 0
-51 -56 503 0
-51 -58 504 0
-51 -89 0
-51 -94 0
-51 -96 0
-51 -98 0
-52 -54 505 0
-52 -81 0
-52 -85 0
-52 -87 0
-52 -90 0
-53 -58 506 0
-53 -59 507 0
-53 -60 508 0
-53 -62 509 0
-53 -64 510 0
-53 -66 511 0
-55 -58 512 0
-55 -60 513 0
-55 -62 514 0
-55 -93 0
-55 -98 0
-55 -100 0
-55 -102 0
-56 -58 515 0
-56 -85 0
-56 -89 0
-56 -91 0
-56 -94 0
-57 -62 516 0
-57 -63 517 0
-57 -64 518 0
-57 -66 519 0
-57 -68 520 0
-57 -70 521 0
-59 -62 522 0
-59 -64 523 0
-59 -66 524 0
-59 -97 0
-59 -102 0
-59 -104 0
-59 -106 0
-60 -62 525 0
-60 -89 0
-60 -93 0
-60 -95 0
-60 -98 0
-61 -66 526 0
-61 -67 527 0
-61 -68 528 0
-61 -70 529 0
-61 -72 530 0
-61 -74 531 0
-63 -66 532 0
-63 -68 533 0
-63 -70 534 0
-63 -101 0
-63 -106 0
-63 -108 0
-63 -110 0
-64 -66 535 0
-64 -93 0
-64 -97 0
-64 -99 0
-64 -102 0
-65 -70 536 0
-65 -71 537 0
-65 -72 538 0
-65 -74 539 0
-65 -76 540 0
-65 -78 541 0
-67 -70 542 0
-67 -72 543 0
-67 -74 544 0
-67 -105 0
-67 -110 0
-67 -112 0
-67 -114 0
-68 -70 545 0
-68 -97 0
-68 -101 0
-68 -103 0
-68 -106 0
-69 -74 546 0
-69 -75 547 0
-69 -76 548 0
-69 -78 549 0
-69 -80 550 0
-71 -74 551 0
-71 -76 552 0
-71 -78 553 0
-71 -109 0
-71 -114 0
-71 -116 0
-71 -118 0
-72 -74 554 0
-72 -101 0
-72 -105 0
-72 -107 0
-72 -110 0
-73 -78 555 0
-73 -79 556 0
-73 -80 557 0
-75 -78 558 0
-75 -80 559 0
-75 -82 0
-75 -113 0
-75 -118 0
-75 -120 0
-76 -78 560 0
-76 -105 0
-76 -109 0
-76 -111 0
-76 -114 0
-79 -82 0
-79 -84 0
-79 -86 0
-79 -117 0
-80 -109 0
-80 -113 0
-80 -115 0
-80 -118 0
-81 -86 0
-81 -87 0
-81 -88 0
-81 -90 0
-81 -92 0
-81 -94 0
-82 -109 0
-82 -113 0
-82 -115 0
-82 -117 0
-82 -119 0
-82 -120 0
-83 -86 0
-83 -88 0
-83 -90 0
-83 -117 0
-83 -121 0
-83 -126 0
-83 -128 0
-83 -130 0
-84 -86 0
-84 -113 0
-84 -117 0
-84 -119 0
-84 -122 0
-84 -153 0
-84 -157 0
-84 -159 0
-85 -90 0
-85 -91 0
-85 -92 0
-85 -94 0
-85 -96 0
-85 -98 0
-86 -113 0
-86 -117 0
-86 -119 0
-87 -90 0
-87 -92 0
-87 -94 0
-87 -125 0
-87 -130 0
-87 -132 0
-87 -134 0
-88 -90 0
-88 -117 0
-88 -121 0
-88 -123 0
-88 -126 0
-88 -157 0
-89 -94 0
-89 -95 0
-89 -96 0
-89 -98 0
-89 -100 0
-89 -102 0
-90 -117 0
-91 -94 0
-91 -96 0
-91 -98 0
-91 -129 0
-91 -134 0
-91 -136 0
-91 -138 0
-92 -94 0
-92 -121 0
-92 -125 0
-92 -127 0
-92 -130 0
-93 -98 0
-93 -99 0
-93 -100 0
-93 -102 0
-93 -104 0
-93 -106 0
-95 -98 0
-95 -100 0
-95 -102 0
-95 -133 0
-95 -138 0
-95 -140 0
-95 -142 0
-96 -98 0
-96 -125 0
-96 -129 0
-96 -131 0
-96 -134 0
-97 -102 0
-97 -103 0
-97 -104 0
-97 -106 0
-97 -108 0
-97 -110 0
-99 -102 0
-99 -104 0
-99 -106 0
-99 -137 0
-99 -142 0
-99 -144 0
-99 -146 0
-100 -102 0
-100 -129 0
-100 -133 0
-100 -135 0
-100 -138 0
-101 -106 0
-101 -107 0
-101 -108 0
-101 -110 0
-101 -112 0
-101 -114 0
-103 -106 0
-103 -108 0
-103 -110 0
-103 -141 0
-103 -146 0
-103 -148 0
-103 -150 0
-104 -106 0
-104 -133 0
-104 -137 0
-104 -139 0
-104 -142 0
-105 -110 0
-105 -111 0
-105 -112 0
-105 -114 0
-105 -116 0
-105 -118 0
-107 -110 0
-107 -112 0
-107 -114 0
-107 -145 0
-107 -150 0
-107 -152 0
-107 -154 0
-108 -110 0
-108 -137 0
-108 -141 0
-108 -143 0
-108 -146 0
-109 -114 0
-109 -115 0
-109 -116 0
-109 -118 0
-109 -120 0
-111 -114 0
-111 -116 0
-111 -118 0
-111 -149 0
-111 -154 0
-111 -156 0
-111 -158 0
-112 -114 0
-112 -141 0
-112 -145 0
-112 -147 0
-112 -150 0
-113 -118 0
-113 -119 0
-113 -120 0
-115 -118 0
-115 -120 0
-115 -122 0
-115 -153 0
-115 -158 0
-115 -160 0
-116 -118 0
-116 -145 0
-116 -149 0
-116 -151 0
-116 -154 0
-119 -122 0
-119 -124 0
-119 -126 0
-119 -157 0
-120 -149 0
-120 -153 0
-120 -155 0
-120 -158 0
-121 -126 0
-121 -127 0
-121 -128 0
-121 -130 0
-121 -132 0
-121 -134 0
-122 -149 0
-122 -153 0
-122 -155 0
-122 -157 0
-122 -159 0
-122 -160 0
-123 -126 0
-123 -128 0
-123 -130 0
-123 -157 0
-123 -161 0
-123 -166 0
-123 -168 0
-123 -170 0
-124 -126 0
-124 -153 0
-124 -157 0
-124 -159 0
-124 -162 0
-124 -193 0
-124 -197 0
-124 -199 0
-125 -130 0
-125 -131 0
-125 -132 0
-125 -134 0
-125 -136 0
-125 -138 0
-126 -153 0
-126 -157 0
-126 -159 0
-127 -130 0
-127 -132 0
-127 -134 0
-127 -165 0
-127 -170 0
-127 -172 0
-127 -174 0
-128 -130 0
-128 -157 0
-128 -161 0
-128 -163 0
-128 -166 0
-128 -197 0
-129 -134 0
-129 -135 0
-129 -136 0
-129 -138 0
-129 -140 0
-129 -142 0
-130 -157 0
-131 -134 0
-131 -136 0
-131 -138 0
-131 -169 0
-131 -174 0
-131 -176 0
-131 -178 0
-132 -134 0
-132 -161 0
-132 -165 0
-132 -167 0
-132 -170 0
-133 -138 0
-133 -139 0
-133 -140 0
-133 -142 0
-133 -144 0
-133 -146 0
-135 -138 0
-135 -140 0
-135 -142 0
-135 -173 0
-135 -178 0
-135 -180 0
-135 -182 0
-136 -138 0
-136 -165 0
-136 -169 0
-136 -171 0
-136 -174 0
-137 -142 0
-137 -143 0
-137 -144 0
-137 -146 0
-137 -148 0
-137 -150 0
-139 -142 0
-139 -144 0
-139 -146 0
-139 -177 0
-139 -182 0
-139 -184 0
-139 -186 0
-140 -142 0
-140 -169 0
-140 -173 0
-140 -175 0
-140 -178 0
-141 -146 0
-141 -147 0
-141 -148 0
-141 -150 0
-141 -152 0
-141 -154 0
-143 -146 0
-143 -148 0
-143 -150 0
-143 -181 0
-143 -186 0
-143 -188 0
-143 -190 0
-144 -146 0
-144 -173 0
-144 -177 0
-144 -179 0
-144 -182 0
-145 -150 0
-145 -151 0
-145 -152 0
-145 -154 0
-145 -156 0
-145 -158 0
-147 -150 0
-147 -152 0
-147 -154 0
-147 -185 0
-147 -190 0
-147 -192 0
-147 -194 0
-148 -150 0
-148 -177 0
-148 -181 0
-148 -183 0
-148 -186 0
-149 -154 0
-149 -155 0
-149 -156 0
-149 -158 0
-149 -160 0
-151 -154 0
-151 -156 0
-151 -158 0
-151 -189 0
-151 -194 0
-151 -196 0
-151 -198 0
-152 -154 0
-152 -181 0
-152 -185 0
-152 -187 0
-152 -190 0
-153 -158 0
-153 -159 0
-153 -160 0
-155 -158 0
-155 -160 0
-155 -162 0
-155 -193 0
-155 -198 0
-155 -200 0
-156 -158 0
-156 -185 0
-156 -189 0
-156 -191 0
-156 -194 0
-159 -162 0
-159 -164 0
-159 -166 0
-159 -197 0
-160 -189 0
-160 -193 0
-160 -195 0
-160 -198 0
-161 -166 0
-161 -167 0
-161 -168 0
-161 -170 0
-161 -172 0
-161 -174 0
-162 -189 0
-162 -193 0
-162 -195 0
-162 -197 0
-162 -199 0
-162 -200 0
-163 -166 0
-163 -168 0
-163 -170 0
-163 -197 0
-163 -201 0
-163 -206 0
-163 -208 0
-163 -210 0
-164 -166 0
-164 -193 0
-164 -197 0
-164 -199 0
-164 -202 0
-164 -233 0
-164 -237 0
-164 -239 0
-165 -170 0
-165 -171 0
-165 -172 0
-165 -174 0
-165 -176 0
-165 -178 0
-166 -193 0
-166 -197 0
-166 -199 0
-167 -170 0
-167 -172 0
-167 -174 0
-167 -205 0
-167 -210 0
-167 -212 0
-167 -214 0
-168 -170 0
-168 -197 0
-168 -201 0
-168 -203 0
-168 -206 0
-168 -237 0
-169 -174 0
-169 -175 0
-169 -176 0
-169 -178 0
-169 -180 0
-169 -182 0
-170 -197 0
-171 -174 0
-171 -176 0
-171 -178 0
-171 -209 0
-171 -214 0
-171 -216 0
-171 -218 0
-172 -174 0
-172 -201 0
-172 -205 0
-172 -207 0
-172 -210 0
-173 -178 0
-173 -179 0
-173 -180 0
-173 -182 0
-173 -184 0
-173 -186 0
-175 -178 0
-175 -180 0
-175 -182 0
-175 -213 0
-175 -218 0
-175 -220 0
-175 -222 0
-176 -178 0
-176 -205 0
-176 -209 0
-176 -211 0
-176 -214 0
-177 -182 0
-177 -183 0
-177 -184 0
-177 -186 0
-177 -188 0
-177 -190 0
-179 -182 0
-179 -184 0
-179 -186 0
-179 -217 0
-179 -222 0
-179 -224 0
-179 -226 0
-180 -182 0
-180 -209 0
-180 -213 0
-180 -215 0
-180 -218 0
-181 -186 0
-181 -187 0
-181 -188 0
-181 -190 0
-181 -192 0
-181 -194 0
-183 -186 0
-183 -188 0
-183 -190 0
-183 -221 0
-183 -226 0
-183 -228 0
-183 -230 0
-184 -186 0
-184 -213 0
-184 -217 0
-184 -219 0
-184 -222 0
-185 -190 0
-185 -191 0
-185 -192 0
-185 -194 0
-185 -196 0
-185 -198 0
-187 -190 0
-187 -192 0
-187 -194 0
-187 -225 0
-187 -230 0
-187 -232 0
-187 -234 0
-188 -190 0
-188 -217 0
-188 -221 0
-188 -223 0
-188 -226 0
-189 -194 0
-189 -195 0
-189 -196 0
-189 -198 0
-189 -200 0
-191 -194 0
-191 -196 0
-191 -198 0
-191 -229 0
-191 -234 0
-191 -236 0
-191 -238 0
-192 -194 0
-192 -221 0
-192 -225 0
-192 -227 0
-192 -230 0
-193 -198 0
-193 -199 0
-193 -200 0
-195 -198 0
-195 -200 0
-195 -202 0
-195 -233 0
-195 -238 0
-195 -240 0
-196 -198 0
-196 -225 0
-196 -229 0
-196 -231 0
-196 -234 0
-199 -202 0
-199 -204 0
-199 -206 0
-199 -237 0
-200 -229 0
-200 -233 0
-200 -235 0
-200 -238 0
-201 -206 0
-201 -207 0
-201 -208 0
-201 -210 0
-201 -212 0
-201 -214 0
-202 -229 0
-202 -233 0
-202 -235 0
-202 -237 0
-202 -239 0
-202 -240 0
-203 -206 0
-203 -208 0
-203 -210 0
-203 -237 0
-203 -241 0
-203 -246 0
-203 -248 0
-203 -250 0
-204 -206 0
-204 -233 0
-204 -237 0
-204 -239 0
-204 -242 0
-204 -273 0
-204 -277 0
-204 -279 0
-205 -210 0
-205 -211 0
-205 -212 0
-205 -214 0
-205 -216 0
-205 -218 0
-206 -233 0
-206 -237 0
-206 -239 0
-207 -210 0
-207 -212 0
-207 -214 0
-207 -245 0
-207 -250 0
-207 -252 0
-207 -254 0
-208 -210 0
-208 -237 0
-208 -241 0
-208 -243 0
-208 -246 0
-208 -277 0
-209 -214 0
-209 -215 0
-209 -216 0
-209 -218 0
-209 -220 0
-209 -222 0
-210 -237 0
-211 -214 0
-211 -216 0
-211 -218 0
-211 -249 0
-211 -254 0
-211 -256 0
-211 -258 0
-212 -214 0
-212 -241 0
-212 -245 0
-212 -247 0
-212 -250 0
-213 -218 0
-213 -219 0
-213 -220 0
-213 -222 0
-213 -224 0
-213 -226 0
-215 -218 0
-215 -220 0
-215 -222 0
-215 -253 0
-215 -258 0
-215 -260 0
-215 -262 0
-216 -218 0
-216 -245 0
-216 -249 0
-216 -251 0
-216 -254 0
-217 -222 0
-217 -223 0
-217 -224 0
-217 -226 0
-217 -228 0
-217 -230 0
-219 -222 0
-219 -224 0
-219 -226 0
-219 -257 0
-219 -262 0
-219 -264 0
-219 -266 0
-220 -222 0
-220 -249 0
-220 -253 0
-220 -255 0
-220 -258 0
-221 -226 0
-221 -227 0
-221 -228 0
-221 -230 0
-221 -232 0
-221 -234 0
-223 -226 0
-223 -228 0
-223 -230 0
-223 -261 0
-223 -266 0
-223 -268 0
-223 -270 0
-224 -226 0
-224 -253 0
-224 -257 0
-224 -259 0
-224 -262 0
-225 -230 0
-225 -231 0
-225 -232 0
-225 -234 0
-225 -236 0
-225 -238 0
-227 -230 0
-227 -232 0
-227 -234 0
-227 -265 0
-227 -270 0
-227 -272 0
-227 -274 0
-228 -230 0
-228 -257 0
-228 -261 0
-228 -263 0
-228 -266 0
-229 -234 0
-229 -235 0
-229 -236 0
-229 -238 0
-229 -240 0
-231 -234 0
-231 -236 0
-231 -238 0
-231 -269 0
-231 -274 0
-231 -276 0
-231 -278 0
-232 -234 0
-232 -261 0
-232 -265 0
-232 -267 0
-232 -270 0
-233 -238 0
-233 -239 0
-233 -240 0
-235 -238 0
-235 -240 0
-235 -242 0
-235 -273 0
-235 -278 0
-235 -280 0
-236 -238 0
-236 -265 0
-236 -269 0
-236 -271 0
-236 -274 0
-239 -242 0
-239 -244 0
-239 -246 0
-239 -277 0
-240 -269 0
-240 -273 0
-240 -275 0
-240 -278 0
-241 -246 0
-241 -247 0
-241 -248 0
-241 -250 0
-241 -252 0
-241 -254 0
-242 -269 0
-242 -273 0
-242 -275 0
-242 -277 0
-242 -279 0
-242 -280 0
-243 -246 0
-243 -248 0
-243 -250 0
-243 -277 0
-244 -246 0
-244 -273 0
-244 -277 0
-244 -279 0
-245 -250 0
-245 -251 0
-245 -252 0
-245 -254 0
-245 -256 0
-245 -258 0
-246 -273 0
-246 -277 0
-246 -279 0
-247 -250 0
-247 -252 0
-247 -254 0
-248 -250 0
-248 -277 0
-249 -254 0
-249 -255 0
-249 -256 0
-249 -258 0
-249 -260 0
-249 -262 0
-250 -277 0
-251 -254 0
-251 -256 0
-251 -258 0
-252 -254 0
-253 -258 0
-253 -259 0
-253 -260 0
-253 -262 0
-253 -264 0
-253 -266 0
-255 -258 0
-255 -260 0
-255 -262 0
-256 -258 0
-257 -262 0
-257 -263 0
-257 -264 0
-257 -266 0
-257 -268 0
-257 -270 0
-259 -262 0
-259 -264 0
-259 -266 0
-260 -262 0
-261 -266 0
-261 -267 0
-261 -268 0
-261 -270 0
-261 -272 0
-261 -274 0
-263 -266 0
-263 -268 0
-263 -270 0
-264 -266 0
-265 -270 0
-265 -271 0
-265 -272 0
-265 -274 0
-265 -276 0
-265 -278 0
-267 -270 0
-267 -272 0
-267 -274 0
-268 -270 0
-269 -274 0
-269 -275 0
-269 -276 0
-269 -278 0
-269 -280 0
-271 -274 0
-271 -276 0
-271 -278 0
-272 -274 0
-273 -278 0
-273 -279 0
-273 -280 0
-275 -278 0
-275 -280 0
-276 -278 0
128 163 166 197 0
-128 -163 0
-128 -166 0
-128 -197 0
-163 -166 0
-163 -197 0
-166 -197 0
163 168 170 197 0
-163 -168 0
-163 -170 0
-163 -197 0
-168 -170 0
-168 -197 0
-170 -197 0
123 161 168 170 0
-123 -161 0
-123 -168 0
-123 -170 0
-161 -168 0
-161 -170 0
-168 -170 0
123 128 161 166 0
-123 -128 0
-123 -161 0
-123 -166 0
-128 -161 0
-128 -166 0
-161 -166 0
132 161 167 170 0
-132 -161 0
-132 -167 0
-132 -170 0
-161 -167 0
-161 -170 0
-167 -170 0
161 167 172 174 0
-161 -167 0
-161 -172 0
-161 -174 0
-167 -172 0
-167 -174 0
-172 -174 0
127 165 172 174 0
-127 -165 0
-127 -172 0
-127 -174 0
-165 -172 0
-165 -174 0
-172 -174 0
127 132 165 170 0
-127 -132 0
-127 -165 0
-127 -170 0
-132 -165 0
-132 -170 0
-165 -170 0
136 165 171 174 0
-136 -165 0
-136 -171 0
-136 -174 0
-165 -171 0
-165 -174 0
-171 -174 0
165 171 176 178 0
-165 -171 0
-165 -176 0
-165 -178 0
-171 -176 0
-171 -178 0
-176 -178 0
131 169 176 178 0
-131 -169 0
-131 -176 0
-131 -178 0
-169 -176 0
-169 -178 0
-176 -178 0
131 136 169 174 0
-131 -136 0
-131 -169 0
-131 -174 0
-136 -169 0
-136 -174 0
-169 -174 0
140 169 175 178 0
-140 -169 0
-140 -175 0
-140 -178 0
-169 -175 0
-169 -178 0
-175 -178 0
169 175 180 182 0
-169 -175 0
-169 -180 0
-169 -182 0
-175 -180 0
-175 -182 0
-180 -182 0
135 173 180 182 0
-135 -173 0
-135 -180 0
-135 -182 0
-173 -180 0
-173 -182 0
-180 -182 0
135 140 173 178 0
-135 -140 0
-135 -173 0
-135 -178 0
-140 -173 0
-140 -178 0
-173 -178 0
144 173 179 182 0
-144 -173 0
-144 -179 0
-144 -182 0
-173 -179 0
-173 -182 0
-179 -182 0
173 179 184 186 0
-173 -179 0
-173 -184 0
-173 -186 0
-179 -184 0
-179 -186 0
-184 -186 0
139 177 184 186 0
-139 -177 0
-139 -184 0
-139 -186 0
-177 -184 0
-177 -186 0
-184 -186 0
139 144 177 182 0
-139 -144 0
-139 -177 0
-139 -182 0
-144 -177 0
-144 -182 0
-177 -182 0
148 177 183 186 0
-148 -177 0
-148 -183 0
-148 -186 0
-177 -183 0
-177 -186 0
-183 -186 0
177 183 188 190 0
-177 -183 0
-177 -188 0
-177 -190 0
-183 -188 0
-183 -190 0
-188 -190 0
143 181 188 190 0
-143 -181 0
-143 -188 0
-143 -190 0
-181 -188 0
-181 -190 0
-188 -190 0
143 148 181 186 0
-143 -148 0
-143 -181 0
-143 -186 0
-148 -181 0
-148 -186 0
-181 -186 0
152 181 187 190 0
-152 -181 0
-152 -187 0
-152 -190 0
-181 -187 0
-181 -190 0
-187 -190 0
181 187 192 194 0
-181 -187 0
-181 -192 0
-181 -194 0
-187 -192 0
-187 -194 0
-192 -194 0
147 185 192 194 0
-147 -185 0
-147 -192 0
-147 -194 0
-185 -192 0
-185 -194 0
-192 -194 0
147 152 185 190 0
-147 -152 0
-147 -185 0
-147 -190 0
-152 -185 0
-152 -190 0
-185 -190 0
156 185 191 194 0
-156 -185 0
-156 -191 0
-156 -194 0
-185 -191 0
-185 -194 0
-191 -194 0
185 191 196 198 0
-185 -191 0
-185 -196 0
-185 -198 0
-191 -196 0
-191 -198 0
-196 -198 0
151 189 196 198 0
-151 -189 0
-151 -196 0
-151 -198 0
-189 -196 0
-189 -198 0
-196 -198 0
151 156 189 194 0
-151 -156 0
-151 -189 0
-151 -194 0
-156 -189 0
-156 -194 0
-189 -194 0
160 189 195 198 0
-160 -189 0
-160 -195 0
-160 -198 0
-189 -195 0
-189 -198 0
-195 -198 0
162 189 195 200 0
-162 -189 0
-162 -195 0
-162 -200 0
-189 -195 0
-189 -200 0
-195 -200 0
155 162 193 200 0
-155 -162 0
-155 -193 0
-155 -200 0
-162 -193 0
-162 -200 0
-193 -200 0
155 160 193 198 0
-155 -160 0
-155 -193 0
-155 -198 0
-160 -193 0
-160 -198 0
-193 -198 0
124 162 193 199 0
-124 -162 0
-124 -193 0
-124 -199 0
-162 -193 0
-162 -199 0
-193 -199 0
164 166 193 199 0
-164 -166 0
-164 -193 0
-164 -199 0
-166 -193 0
-166 -199 0
-193 -199 0
159 164 166 197 0
-159 -164 0
-159 -166 0
-159 -197 0
-164 -166 0
-164 -197 0
-166 -197 0
124 159 162 197 0
-124 -159 0
-124 -162 0
-124 -197 0
-159 -162 0
-159 -197 0
-162 -197 0
168 203 206 237 0
-168 -203 0
-168 -206 0
-168 -237 0
-203 -206 0
-203 -237 0
-206 -237 0
203 208 210 237 0
-203 -208 0
-203 -210 0
-203 -237 0
-208 -210 0
-208 -237 0
-210 -237 0
163 201 208 210 0
-163 -201 0
-163 -208 0
-163 -210 0
-201 -208 0
-201 -210 0
-208 -210 0
163 168 201 206 0
-163 -168 0
-163 -201 0
-163 -206 0
-168 -201 0
-168 -206 0
-201 -206 0
172 201 207 210 0
-172 -201 0
-172 -207 0
-172 -210 0
-201 -207 0
-201 -210 0
-207 -210 0
201 207 212 214 0
-201 -207 0
-201 -212 0
-201 -214 0
-207 -212 0
-207 -214 0
-212 -214 0
167 205 212 214 0
-167 -205 0
-167 -212 0
-167 -214 0
-205 -212 0
-205 -214 0
-212 -214 0
167 172 205 210 0
-167 -172 0
-167 -205 0
-167 -210 0
-172 -205 0
-172 -210 0
-205 -210 0
176 205 211 214 0
-176 -205 0
-176 -211 0
-176 -214 0
-205 -211 0
-205 -214 0
-211 -214 0
205 211 216 218 0
-205 -211 0
-205 -216 0
-205 -218 0
-211 -216 0
-211 -218 0
-216 -218 0
171 209 216 218 0
-171 -209 0
-171 -216 0
-171 -218 0
-209 -216 0
-209 -218 0
-216 -218 0
171 176 209 214 0
-171 -176 0
-171 -209 0
-171 -214 0
-176 -209 0
-176 -214 0
-209 -214 0
180 209 215 218 0
-180 -209 0
-180 -215 0
-180 -218 0
-209 -215 0
-209 -218 0
-215 -218 0
209 215 220 222 0
-209 -215 0
-209 -220 0
-209 -222 0
-215 -220 0
-215 -222 0
-220 -222 0
175 213 220 222 0
-175 -213 0
-175 -220 0
-175 -222 0
-213 -220 0
-213 -222 0
-220 -222 0
175 180 213 218 0
-175 -180 0
-175 -213 0
-175 -218 0
-180 -213 0
-180 -218 0
-213 -218 0
184 213 219 222 0
-184 -213 0
-184 -219 0
-184 -222 0
-213 -219 0
-213 -222 0
-219 -222 0
213 219 224 226 0
-213 -219 0
-213 -224 0
-213 -226 0
-219 -224 0
-219 -226 0
-224 -226 0
179 217 224 226 0
-179 -217 0
-179 -224 0
-179 -226 0
-217 -224 0
-217 -226 0
-224 -226 0
179 184 217 222 0
-179 -184 0
-179 -217 0
-179 -222 0
-184 -217 0
-184 -222 0
-217 -222 0
188 217 223 226 0
-188 -217 0
-188 -223 0
-188 -226 0
-217 -223 0
-217 -226 0
-223 -226 0
217 223 228 230 0
-217 -223 0
-217 -228 0
-217 -230 0
-223 -228 0
-223 -230 0
-228 -230 0
183 221 228 230 0
-183 -221 0
-183 -228 0
-183 -230 0
-221 -228 0
-221 -230 0
-228 -230 0
183 188 221 226 0
-183 -188 0
-183 -221 0
-183 -226 0
-188 -221 0
-188 -226 0
-221 -226 0
192 221 227 230 0
-192 -221 0
-192 -227 0
-192 -230 0
-221 -227 0
-221 -230 0
-227 -230 0
221 227 232 234 0
-221 -227 0
-221 -232 0
-221 -234 0
-227 -232 0
-227 -234 0
-232 -234 0
187 225 232 234 0
-187 -225 0
-187 -232 0
-187 -234 0
-225 -232 0
-225 -234 0
-232 -234 0
187 192 225 230 0
-187 -192 0
-187 -225 0
-187 -230 0
-192 -225 0
-192 -230 0
-225 -230 0
196 225 231 234 0
-196 -225 0
-196 -231 0
-196 -234 0
-225 -231 0
-225 -234 0
-231 -234 0
225 231 236 238 0
-225 -231 0
-225 -236 0
-225 -238 0
-231 -236 0
-231 -238 0
-236 -238 0
191 229 236 238 0
-191 -229 0
-191 -236 0
-191 -238 0
-229 -236 0
-229 -238 0
-236 -238 0
191 196 229 234 0
-191 -196 0
-191 -229 0
-191 -234 0
-196 -229 0
-196 -234 0
-229 -234 0
200 229 235 238 0
-200 -229 0
-200 -235 0
-200 -238 0
-229 -235 0
-229 -238 0
-235 -238 0
202 229 235 240 0
-202 -229 0
-202 -235 0
-202 -240 0
-229 -235 0
-229 -240 0
-235 -240 0
195 202 233 240 0
-195 -202 0
-195 -233 0
-195 -240 0
-202 -233 0
-202 -240 0
-233 -240 0
195 200 233 238 0
-195 -200 0
-195 -233 0
-195 -238 0
-200 -233 0
-200 -238 0
-233 -238 0
164 202 233 239 0
-164 -202 0
-164 -233 0
-164 -239 0
-202 -233 0
-202 -239 0
-233 -239 0
204 206 233 239 0
-204 -206 0
-204 -233 0
-204 -239 0
-206 -233 0
-206 -239 0
-233 -239 0
199 204 206 237 0
-199 -204 0
-199 -206 0
-199 -237 0
-204 -206 0
-204 -237 0
-206 -237 0
164 199 202 237 0
-164 -199 0
-164 -202 0
-164 -237 0
-199 -202 0
-199 -237 0
-202 -237 0
208 243 246 277 0
-208 -243 0
-208 -246 0
-208 -277 0
-243 -246 0
-243 -277 0
-246 -277 0
243 248 250 277 0
-243 -248 0
-243 -250 0
-243 -277 0
-248 -250 0
-248 -277 0
-250 -277 0
203 241 248 250 0
-203 -241 0
-203 -248 0
-203 -250 0
-241 -248 0
-241 -250 0
-248 -250 0
203 208 241 246 0
-203 -208 0
-203 -241 0
-203 -246 0
-208 -241 0
-208 -246 0
-241 -246 0
212 241 247 250 0
-212 -241 0
-212 -247 0
-212 -250 0
-241 -247 0
-241 -250 0
-247 -250 0
241 247 252 254 0
-241 -247 0
-241 -252 0
-241 -254 0
-247 -252 0
-247 -254 0
-252 -254 0
207 245 252 254 0
-207 -245 0
-207 -252 0
-207 -254 0
-245 -252 0
-245 -254 0
-252 -254 0
207 212 245 250 0
-207 -212 0
-207 -245 0
-207 -250 0
-212 -245 0
-212 -250 0
-245 -250 0
216 245 251 254 0
-216 -245 0
-216 -251 0
-216 -254 0
-245 -251 0
-245 -254 0
-251 -254 0
245 251 256 258 0
-245 -251 0
-245 -256 0
-245 -258 0
-251 -256 0
-251 -258 0
-256 -258 0
211 249 256 258 0
-211 -249 0
-211 -256 0
-211 -258 0
-249 -256 0
-249 -258 0
-256 -258 0
211 216 249 254 0
-211 -216 0
-211 -249 0
-211 -254 0
-216 -249 0
-216 -254 0
-249 -254 0
220 249 255 258 0
-220 -249 0
-220 -255 0
-220 -258 0
-249 -255 0
-249 -258 0
-255 -258 0
249 255 260 262 0
-249 -255 0
-249 -260 0
-249 -262 0
-255 -260 0
-255 -262 0
-260 -262 0
215 253 260 262 0
-215 -253 0
-215 -260 0
-215 -262 0
-253 -260 0
-253 -262 0
-260 -262 0
215 220 253 258 0
-215 -220 0
-215 -253 0
-215 -258 0
-220 -253 0
-220 -258 0
-253 -258 0
224 253 259 262 0
-224 -253 0
-224 -259 0
-224 -262 0
-253 -259 0
-253 -262 0
-259 -262 0
253 259 264 266 0
-253 -259 0
-253 -264 0
-253 -266 0
-259 -264 0
-259 -266 0
-264 -266 0
219 257 264 266 0
-219 -257 0
-219 -264 0
-219 -266 0
-257 -264 0
-257 -266 0
-264 -266 0
219 224 257 262 0
-219 -224 0
-219 -257 0
-219 -262 0
-224 -257 0
-224 -262 0
-257 -262 0
228 257 263 266 0
-228 -257 0
-228 -263 0
-228 -266 0
-257 -263 0
-257 -266 0
-263 -266 0
257 263 268 270 0
-257 -263 0
-257 -268 0
-257 -270 0
-263 -268 0
-263 -270 0
-268 -270 0
223 261 268 270 0
-223 -261 0
-223 -268 0
-223 -270 0
-261 -268 0
-261 -270 0
-268 -270 0
223 228 261 266 0
-223 -228 0
-223 -261 0
-223 -266 0
-228 -261 0
-228 -266 0
-261 -266 0
232 261 267 270 0
-232 -261 0
-232 -267 0
-232 -270 0
-261 -267 0
-261 -270 0
-267 -270 0
261 267 272 274 0
-261 -267 0
-261 -272 0
-261 -274 0
-267 -272 0
-267 -274 0
-272 -274 0
227 265 272 274 0
-227 -265 0
-227 -272 0
-227 -274 0
-265 -272 0
-265 -274 0
-272 -274 0
227 232 265 270 0
-227 -232 0
-227 -265 0
-227 -270 0
-232 -265 0
-232 -270 0
-265 -270 0
236 265 271 274 0
-236 -265 0
-236 -271 0
-236 -274 0
-265 -271 0
-265 -274 0
-271 -274 0
265 271 276 278 0
-265 -271 0
-265 -276 0
-265 -278 0
-271 -276 0
-271 -278 0
-276 -278 0
231 269 276 278 0
-231 -269 0
-231 -276 0
-231 -278 0
-269 -276 0
-269 -278 0
-276 -278 0
231 236 269 274 0
-231 -236 0
-231 -269 0
-231 -274 0
-236 -269 0
-236 -274 0
-269 -274 0
240 269 275 278 0
-240 -269 0
-240 -275 0
-240 -278 0
-269 -275 0
-269 -278 0
-275 -278 0
242 269 275 280 0
-242 -269 0
-242 -275 0
-242 -280 0
-269 -275 0
-269 -280 0
-275 -280 0
235 242 273 280 0
-235 -242 0
-235 -273 0
-235 -280 0
-242 -273 0
-242 -280 0
-273 -280 0
235 240 273 278 0
-235 -240 0
-235 -273 0
-235 -278 0
-240 -273 0
-240 -278 0
-273 -278 0
204 242 273 279 0
-204 -242 0
-204 -273 0
-204 -279 0
-242 -273 0
-242 -279 0
-273 -279 0
244 246 273 279 0
-244 -246 0
-244 -273 0
-244 -279 0
-246 -273 0
-246 -279 0
-273 -279 0
239 244 246 277 0
-239 -244 0
-239 -246 0
-239 -277 0
-244 -246 0
-244 -277 0
-246 -277 0
204 239 242 277 0
-204 -239 0
-204 -242 0
-204 -277 0
-239 -242 0
-239 -277 0
-242 -277 0
563 0
-561 0
-562 0
-561 43 564 0
-561 -43 565 0
-562 43 565 0
-562 -43 566 0
-563 43 566 0
-563 -43 564 0
-564 -565 0
-564 -566 0
-565 -566 0
-564 48 567 0
-564 -48 568 0
-565 48 568 0
-565 -48 569 0
-566 48 569 0
-566 -48 567 0
-567 -568 0
-567 -569 0
-568 -569 0
-567 50 570 0
-567 -50 572 0
-568 50 571 0
-568 -50 570 0
-569 50 572 0
-569 -50 571 0
-570 -571 0
-570 -572 0
-571 -572 0
-570 77 573 0
-570 -77 575 0
-571 77 574 0
-571 -77 573 0
-572 77 575 0
-572 -77 574 0
-573 -574 0
-573 -575 0
-574 -575 0
-573 81 576 0
-573 -81 578 0
-574 81 577 0
-574 -81 576 0
-575 81 578 0
-575 -81 577 0
-576 -577 0
-576 -578 0
-577 -578 0
-576 86 579 0
-576 -86 581 0
-577 86 580 0
-577 -86 579 0
-578 86 581 0
-578 -86 580 0
-579 -580 0
-579 -581 0
-580 -581 0
-579 83 582 0
-579 -83 584 0
-580 83 583 0
-580 -83 582 0
-581 83 584 0
-581 -83 583 0
-582 -583 0
-582 -584 0
-583 -584 0
-582 88 585 0
-582 -88 587 0
-583 88 586 0
-583 -88 585 0
-584 88 587 0
-584 -88 586 0
-585 -586 0
-585 -587 0
-586 -587 0
-585 90 588 0
-585 -90 589 0
-586 90 589 0
-586 -90 590 0
-587 90 590 0
-587 -90 588 0
-588 -589 0
-588 -590 0
-589 -590 0
-588 117 591 0
-588 -117 592 0
-589 117 592 0
-589 -117 593 0
-590 117 593 0
-590 -117 591 0
-591 -592 0
-591 -593 0
-592 -593 0
-591 121 594 0
-591 -121 595 0
-592 121 595 0
-592 -121 596 0
-593 121 596 0
-593 -121 594 0
-594 -595 0
-594 -596 0
-595 -596 0
-594 126 597 0
-594 -126 598 0
-595 126 598 0
-595 -126 599 0
-596 126 599 0
-596 -126 597 0
-597 -598 0
-597 -599 0
-598 -599 0
-597 123 600 0
-597 -123 601 0
-598 123 601 0
-598 -123 602 0
-599 123 602 0
-599 -123 600 0
-600 -601 0
-600 -602 0
-601 -602 0
-600 128 603 0
-600 -128 604 0
-601 128 604 0
-601 -128 605 0
-602 128 605 0
-602 -128 603 0
-603 -604 0
-603 -605 0
-604 -605 0
-603 130 606 0
-603 -130 608 0
-604 130 607 0
-604 -130 606 0
-605 130 608 0
-605 -130 607 0
-606 -607 0
-606 -608 0
-607 -608 0
-606 157 609 0
-606 -157 611 0
-607 157 610 0
-607 -157 609 0
-608 157 611 0
-608 -157 610 0
-609 -610 0
-609 -611 0
-610 -611 0
-609 161 612 0
-609 -161 614 0
-610 161 613 0
-610 -161 612 0
-611 161 614 0
-611 -161 613 0
-612 -613 0
-612 -614 0
-613 -614 0
-612 166 615 0
-612 -166 617 0
-613 166 616 0
-613 -166 615 0
-614 166 617 0
-614 -166 616 0
-615 -616 0
-615 -617 0
-616 -617 0
-615 163 618 0
-615 -163 620 0
-616 163 619 0
-616 -163 618 0
-617 163 620 0
-617 -163 619 0
-618 -619 0
-618 -620 0
-619 -620 0
-618 168 621 0
-618 -168 623 0
-619 168 622 0
-619 -168 621 0
-620 168 623 0
-620 -168 622 0
-621 -622 0
-621 -623 0
-622 -623 0
-621 170 624 0
-621 -170 625 0
-622 170 625 0
-622 -170 626 0
-623 170 626 0
-623 -170 624 0
-624 -625 0
-624 -626 0
-625 -626 0
-624 197 627 0
-624 -197 628 0
-625 197 628 0
-625 -197 629 0
-626 197 629 0
-626 -197 627 0
-627 -628 0
-627 -629 0
-628 -629 0
-627 201 630 0
-627 -201 631 0
-628 201 631 0
-628 -201 632 0
-629 201 632 0
-629 -201 630 0
-630 -631 0
-630 -632 0
-631 -632 0
-630 206 633 0
-630 -206 634 0
-631 206 634 0
-631 -206 635 0
-632 206 635 0
-632 -206 633 0
-633 -634 0
-633 -635 0
-634 -635 0
-633 203 636 0
-633 -203 637 0
-634 203 637 0
-634 -203 638 0
-635 203 638 0
-635 -203 636 0
-636 -637 0
-636 -638 0
-637 -638 0
-636 208 639 0
-636 -208 640 0
-637 208 640 0
-637 -208 641 0
-638 208 641 0
-638 -208 639 0
-639 -640 0
-639 -641 0
-640 -641 0
-639 210 642 0
-639 -210 644 0
-640 210 643 0
-640 -210 642 0
-641 210 644 0
-641 -210 643 0
-642 -643 0
-642 -644 0
-643 -644 0
-642 237 645 0
-642 -237 647 0
-643 237 646 0
-643 -237 645 0
-644 237 647 0
-644 -237 646 0
-645 -646 0
-645 -647 0
-646 -647 0
-645 241 648 0
-645 -241 650 0
-646 241 649 0
-646 -241 648 0
-647 241 650 0
-647 -241 649 0
-648 -649 0
-648 -650 0
-649 -650 0
-648 246 651 0
-648 -246 653 0
-649 246 652 0
-649 -246 651 0
-650 246 653 0
-650 -246 652 0
-651 -652 0
-651 -653 0
-652 -653 0
-651 0
-3 -8 0
654 0
-655 0
-656 0
-654 37 657 0
-654 -37 659 0
-655 37 658 0
-655 -37 657 0
-656 37 659 0
-656 -37 658 0
-657 -658 0
-657 -659 0
-658 -659 0
-657 2 660 0
-657 -2 662 0
-658 2 661 0
-658 -2 660 0
-659 2 662 0
-659 -2 661 0
-660 -661 0
-660 -662 0
-661 -662 0
-660 4 663 0
-660 -4 665 0
-661 4 664 0
-661 -4 663 0
-662 4 665 0
-662 -4 664 0
-663 -664 0
-663 -665 0
-664 -665 0
-663 6 666 0
-663 -6 667 0
-664 6 667 0
-664 -6 668 0
-665 6 668 0
-665 -6 666 0
-666 -667 0
-666 -668 0
-667 -668 0
-666 8 669 0
-666 -8 670 0
-667 8 670 0
-667 -8 671 0
-668 8 671 0
-668 -8 669 0
-669 -670 0
-669 -671 0
-670 -671 0
-669 10 672 0
-669 -10 674 0
-670 10 673 0
-670 -10 672 0
-671 10 674 0
-671 -10 673 0
-672 -673 0
-672 -674 0
-673 -674 0
-672 41 675 0
-672 -41 677 0
-673 41 676 0
-673 -41 675 0
-674 41 677 0
-674 -41 676 0
-675 -676 0
-675 -677 0
-676 -677 0
-675 46 678 0
-675 -46 680 0
-676 46 679 0
-676 -46 678 0
-677 46 680 0
-677 -46 679 0
-678 -679 0
-678 -680 0
-679 -680 0
-678 0
-679 0
-281 681 0
-681 682 0
-282 -681 683 0
-683 684 0
-283 -683 685 0
-685 686 0
-284 -685 687 0
-687 688 0
-285 -687 689 0
-689 690 0
-286 -689 691 0
-691 692 0
-287 -691 693 0
-693 694 0
-288 -693 695 0
-695 696 0
-289 -695 697 0
-697 698 0
-290 -697 699 0
-699 700 0
-291 -699 701 0
-701 702 0
-292 -701 703 0
-703 704 0
-293 -703 705 0
-705 706 0
-294 -705 707 0
-707 708 0
-295 -707 709 0
-709 710 0
-296 -709 711 0
-711 712 0
-297 -711 713 0
-713 714 0
-298 -713 715 0
-715 716 0
-299 -715 717 0
-717 718 0
-300 -717 719 0
-719 720 0
-301 -719 721 0
-721 722 0
-302 -721 723 0
-723 724 0
-303 -723 725 0
-725 726 0
-304 -725 0
-282 682 0
-682 727 0
-283 -682 684 0
-684 728 0
-284 -684 686 0
-686 729 0
-285 -686 688 0
-688 730 0
-286 -688 690 0
-690 731 0
-287 -690 692 0
-692 732 0
-288 -692 694 0
-694 733 0
-289 -694 696 0
-696 734 0
-290 -696 698 0
-698 735 0
-291 -698 700 0
-700 736 0
-292 -700 702 0
-702 737 0
-293 -702 704 0
-704 738 0
-294 -704 706 0
-706 739 0
-295 -706 708 0
-708 740 0
-296 -708 710 0
-710 741 0
-297 -710 712 0
-712 742 0
-298 -712 714 0
-714 743 0
-299 -714 716 0
-716 744 0
-300 -716 718 0
-718 745 0
-301 -718 720 0
-720 746 0
-302 -720 722 0
-722 747 0
-303 -722 724 0
-724 748 0
-304 -724 726 0
-726 749 0
-305 -726 0
-283 727 0
-727 750 0
-284 -727 728 0
-728 751 0
-285 -728 729 0
-729 752 0
-286 -729 730 0
-730 753 0
-287 -730 731 0
-731 754 0
-288 -731 732 0
-732 755 0
-289 -732 733 0
-733 756 0
-290 -733 734 0
-734 757 0
-291 -734 735 0
-735 758 0
-292 -735 736 0
-736 759 0
-293 -736 737 0
-737 760 0
-294 -737 738 0
-738 761 0
-295 -738 739 0
-739 762 0
-296 -739 740 0
-740 763 0
-297 -740 741 0
-741 764 0
-298 -741 742 0
-742 765 0
-299 -742 743 0
-743 766 0
-300 -743 744 0
-744 767 0
-301 -744 745 0
-745 768 0
-302 -745 746 0
-746 769 0
-303 -746 747 0
-747 770 0
-304 -747 748 0
-748 771 0
-305 -748 749 0
-749 772 0
-306 -749 0
-284 750 0
-750 773 0
-285 -750 751 0
-751 774 0
-286 -751 752 0
-752 775 0
-287 -752 753 0
-753 776 0
-288 -753 754 0
-754 777 0
-289 -754 755 0
-755 778 0
-290 -755 756 0
-756 779 0
-291 -756 757 0
-757 780 0
-292 -757 758 0
-758 781 0
-293 -758 759 0
-759 782 0
-294 -759 760 0
-760 783 0
-295 -760 761 0
-761 784 0
-296 -761 762 0
-762 785 0
-297 -762 763 0
-763 786 0
-298 -763 764 0
-764 787 0
-299 -764 765 0
-765 788 0
-300 -765 766 0
-766 789 0
-301 -766 767 0
-767 790 0
-302 -767 768 0
-768 791 0
-303 -768 769 0
-769 792 0
-304 -769 770 0
-770 793 0
-305 -770 771 0
-771 794 0
-306 -771 772 0
-772 795 0
-307 -772 0
-285 773 0
-773 796 0
-286 -773 774 0
-774 797 0
-287 -774 775 0
-775 798 0
-288 -775 776 0
-776 799 0
-289 -776 777 0
-777 800 0
-290 -777 778 0
-778 801 0
-291 -778 779 0
-779 802 0
-292 -779 780 0
-780 803 0
-293 -780 781 0
-781 804 0
-294 -781 782 0
-782 805 0
-295 -782 783 0
-783 806 0
-296 -783 784 0
-784 807 0
-297 -784 785 0
-785 808 0
-298 -785 786 0
-786 809 0
-299 -786 787 0
-787 810 0
-300 -787 788 0
-788 811 0
-301 -788 789 0
-789 812 0
-302 -789 790 0
-790 813 0
-303 -790 791 0
-791 814 0
-304 -791 792 0
-792 815 0
-305 -792 793 0
-793 816 0
-306 -793 794 0
-794 817 0
-307 -794 795 0
-795 818 0
-308 -795 0
-286 796 0
-796 819 0
-287 -796 797 0
-797 820 0
-288 -797 798 0
-798 821 0
-289 -798 799 0
-799 822 0
-290 -799 800 0
-800 823 0
-291 -800 801 0
-801 824 0
-292 -801 802 0
-802 825 0
-293 -802 803 0
-803 826 0
-294 -803 804 0
-804 827 0
-295 -804 805 0
-805 828 0
-296 -805 806 0
-806 829 0
-297 -806 807 0
-807 830 0
-298 -807 808 0
-808 831 0
-299 -808 809 0
-809 832 0
-300 -809 810 0
-810 833 0
-301 -810 811 0
-811 834 0
-302 -811 812 0
-812 835 0
-303 -812 813 0
-813 836 0
-304 -813 814 0
-814 837 0
-305 -814 815 0
-815 838 0
-306 -815 816 0
-816 839 0
-307 -816 817 0
-817 840 0
-308 -817 818 0
-818 841 0
-309 -818 0
-287 819 0
-819 842 0
-288 -819 820 0
-820 843 0
-289 -820 821 0
-821 844 0
-290 -821 822 0
-822 845 0
-291 -822 823 0
-823 846 0
-292 -823 824 0
-824 847 0
-293 -824 825 0
-825 848 0
-294 -825 826 0
-826 849 0
-295 -826 827 0
-827 850 0
-296 -827 828 0
-828 851 0
-297 -828 829 0
-829 852 0
-298 -829 830 0
-830 853 0
-299 -830 831 0
-831 854 0
-300 -831 832 0
-832 855 0
-301 -832 833 0
-833 856 0
-302 -833 834 0
-834 857 0
-303 -834 835 0
-835 858 0
-304 -835 836 0
-836 859 0
-305 -836 837 0
-837 860 0
-306 -837 838 0
-838 861 0
-307 -838 839 0
-839 862 0
-308 -839 840 0
-840 863 0
-309 -840 841 0
-841 864 0
-310 -841 0
-288 842 0
-842 865 0
-289 -842 843 0
-843 866 0
-290 -843 844 0
-844 867 0
-291 -844 845 0
-845 868 0
-292 -845 846 0
-846 869 0
-293 -846 847 0
-847 870 0
-294 -847 848 0
-848 871 0
-295 -848 849 0
-849 872 0
-296 -849 850 0
-850 873 0
-297 -850 851 0
-851 874 0
-298 -851 852 0
-852 875 0
-299 -852 853 0
-853 876 0
-300 -853 854 0
-854 877 0
-301 -854 855 0
-855 878 0
-302 -855 856 0
-856 879 0
-303 -856 857 0
-857 880 0
-304 -857 858 0
-858 881 0
-305 -858 859 0
-859 882 0
-306 -859 860 0
-860 883 0
-307 -860 861 0
-861 884 0
-308 -861 862 0
-862 885 0
-309 -862 863 0
-863 886 0
-310 -863 864 0
-864 887 0
-311 -864 0
-289 865 0
-865 888 0
-290 -865 866 0
-866 889 0
-291 -866 867 0
-867 890 0
-292 -867 868 0
-868 891 0
-293 -868 869 0
-869 892 0
-294 -869 870 0
-870 893 0
-295 -870 871 0
-871 894 0
-296 -871 872 0
-872 895 0
-297 -872 873 0
-873 896 0
-298 -873 874 0
-874 897 0
-299 -874 875 0
-875 898 0
-300 -875 876 0
-876 899 0
-301 -876 877 0
-877 900 0
-302 -877 878 0
-878 901 0
-303 -878 879 0
-879 902 0
-304 -879 880 0
-880 903 0
-305 -880 881 0
-881 904 0
-306 -881 882 0
-882 905 0
-307 -882 883 0
-883 906 0
-308 -883 884 0
-884 907 0
-309 -884 885 0
-885 908 0
-310 -885 886 0
-886 909 0
-311 -886 887 0
-887 910 0
-312 -887 0
-290 888 0
-888 911 0
-291 -888 889 0
-889 912 0
-292 -889 890 0
-890 913 0
-293 -890 891 0
-891 914 0
-294 -891 892 0
-892 915 0
-295 -892 893 0
-893 916 0
-296 -893 894 0
-894 917 0
-297 -894 895 0
-895 918 0
-298 -895 896 0
-896 919 0
-299 -896 897 0
-897 920 0
-300 -897 898 0
-898 921 0
-301 -898 899 0
-899 922 0
-302 -899 900 0
-900 923 0
-303 -900 901 0
-901 924 0
-304 -901 902 0
-902 925 0
-305 -902 903 0
-903 926 0
-306 -903 904 0
-904 927 0
-307 -904 905 0
-905 928 0
-308 -905 906 0
-906 929 0
-309 -906 907 0
-907 930 0
-310 -907 908 0
-908 931 0
-311 -908 909 0
-909 932 0
-312 -909 910 0
-910 933 0
-313 -910 0
-291 911 0
-911 934 0
-292 -911 912 0
-912 935 0
-293 -912 913 0
-913 936 0
-294 -913 914 0
-914 937 0
-295 -914 915 0
-915 938 0
-296 -915 916 0
-916 939 0
-297 -916 917 0
-917 940 0
-298 -917 918 0
-918 941 0
-299 -918 919 0
-919 942 0
-300 -919 920 0
-920 943 0
-301 -920 921 0
-921 944 0
-302 -921 922 0
-922 945 0
-303 -922 923 0
-923 946 0
-304 -923 924 0
-924 947 0
-305 -924 925 0
-925 948 0
-306 -925 926 0
-926 949 0
-307 -926 927 0
-927 950 0
-308 -927 928 0
-928 951 0
-309 -928 929 0
-929 952 0
-310 -929 930 0
-930 953 0
-311 -930 931 0
-931 954 0
-312 -931 932 0
-932 955 0
-313 -932 933 0
-933 956 0
-314 -933 0
-292 934 0
-934 957 0
-293 -934 935 0
-935 958 0
-294 -935 936 0
-936 959 0
-295 -936 937 0
-937 960 0
-296 -937 938 0
-938 961 0
-297 -938 939 0
-939 962 0
-298 -939 940 0
-940 963 0
-299 -940 941 0
-941 964 0
-300 -941 942 0
-942 965 0
-301 -942 943 0
-943 966 0
-302 -943 944 0
-944 967 0
-303 -944 945 0
-945 968 0
-304 -945 946 0
-946 969 0
-305 -946 947 0
-947 970 0
-306 -947 948 0
-948 971 0
-307 -948 949 0
-949 972 0
-308 -949 950 0
-950 973 0
-309 -950 951 0
-951 974 0
-310 -951 952 0
-952 975 0
-311 -952 953 0
-953 976 0
-312 -953 954 0
-954 977 0
-313 -954 955 0
-955 978 0
-314 -955 956 0
-956 979 0
-315 -956 0
-293 957 0
-957 980 0
-294 -957 958 0
-958 981 0
-295 -958 959 0
-959 982 0
-296 -959 960 0
-960 983 0
-297 -960 961 0
-961 984 0
-298 -961 962 0
-962 985 0
-299 -962 963 0
-963 986 0
-300 -963 964 0
-964 987 0
-301 -964 965 0
-965 988 0
-302 -965 966 0
-966 989 0
-303 -966 967 0
-967 990 0
-304 -967 968 0
-968 991 0
-305 -968 969 0
-969 992 0
-306 -969 970 0
-970 993 0
-307 -970 971 0
-971 994 0
-308 -971 972 0
-972 995 0
-309 -972 973 0
-973 996 0
-310 -973 974 0
-974 997 0
-311 -974 975 0
-975 998 0
-312 -975 976 0
-976 999 0
-313 -976 977 0
-977 1000 0
-314 -977 978 0
-978 1001 0
-315 -978 979 0
-979 1002 0
-316 -979 0
-294 980 0
-980 1003 0
-295 -980 981 0
-981 1004 0
-296 -981 982 0
-982 1005 0
-297 -982 983 0
-983 1006 0
-298 -983 984 0
-984 1007 0
-299 -984 985 0
-985 1008 0
-300 -985 986 0
-986 1009 0
-301 -986 987 0
-987 1010 0
-302 -987 988 0
-988 1011 0
-303 -988 989 0
-989 1012 0
-304 -989 990 0
-990 1013 0
-305 -990 991 0
-991 1014 0
-306 -991 992 0
-992 1015 0
-307 -992 993 0
-993 1016 0
-308 -993 994 0
-994 1017 0
-309 -994 995 0
-995 1018 0
-310 -995 996 0
-996 1019 0
-311 -996 997 0
-997 1020 0
-312 -997 998 0
-998 1021 0
-313 -998 999 0
-999 1022 0
-314 -999 1000 0
-1000 1023 0
-315 -1000 1001 0
-1001 1024 0
-316 -1001 1002 0
-1002 1025 0
-317 -1002 0
-295 1003 0
-1003 1026 0
-296 -1003 1004 0
-1004 1027 0
-297 -1004 1005 0
-1005 1028 0
-298 -1005 1006 0
-1006 1029 0
-299 -1006 1007 0
-1007 1030 0
-300 -1007 1008 0
-1008 1031 0
-301 -1008 1009 0
-1009 1032 0
-302 -1009 1010 0
-1010 1033 0
-303 -1010 1011 0
-1011 1034 0
-304 -1011 1012 0
-1012 1035 0
-305 -1012 1013 0
-1013 1036 0
-306 -1013 1014 0
-1014 1037 0
-307 -1014 1015 0
-1015 1038 0
-308 -1015 1016 0
-1016 1039 0
-309 -1016 1017 0
-1017 1040 0
-310 -1017 1018 0
-1018 1041 0
-311 -1018 1019 0
-1019 1042 0
-312 -1019 1020 0
-1020 1043 0
-313 -1020 1021 0
-1021 1044 0
-314 -1021 1022 0
-1022 1045 0
-315 -1022 1023 0
-1023 1046 0
-316 -1023 1024 0
-1024 1047 0
-317 -1024 1025 0
-1025 1048 0
-318 -1025 0
-296 1026 0
-1026 1049 0
-297 -1026 1027 0
-1027 1050 0
-298 -1027 1028 0
-1028 1051 0
-299 -1028 1029 0
-1029 1052 0
-300 -1029 1030 0
-1030 1053 0
-301 -1030 1031 0
-1031 1054 0
-302 -1031 1032 0
-1032 1055 0
-303 -1032 1033 0
-1033 1056 0
-304 -1033 1034 0
-1034 1057 0
-305 -1034 1035 0
-1035 1058 0
-306 -1035 1036 0
-1036 1059 0
-307 -1036 1037 0
-1037 1060 0
-308 -1037 1038 0
-1038 1061 0
-309 -1038 1039 0
-1039 1062 0
-310 -1039 1040 0
-1040 1063 0
-311 -1040 1041 0
-1041 1064 0
-312 -1041 1042 0
-1042 1065 0
-313 -1042 1043 0
-1043 1066 0
-314 -1043 1044 0
-1044 1067 0
-315 -1044 1045 0
-1045 1068 0
-316 -1045 1046 0
-1046 1069 0
-317 -1046 1047 0
-1047 1070 0
-318 -1047 1048 0
-1048 1071 0
-319 -1048 0
-297 1049 0
-1049 1072 0
-298 -1049 1050 0
-1050 1073 0
-299 -1050 1051 0
-1051 1074 0
-300 -1051 1052 0
-1052 1075 0
-301 -1052 1053 0
-1053 1076 0
-302 -1053 1054 0
-1054 1077 0
-303 -1054 1055 0
-1055 1078 0
-304 -1055 1056 0
-1056 1079 0
-305 -1056 1057 0
-1057 1080 0
-306 -1057 1058 0
-1058 1081 0
-307 -1058 1059 0
-1059 1082 0
-308 -1059 1060 0
-1060 1083 0
-309 -1060 1061 0
-1061 1084 0
-310 -1061 1062 0
-1062 1085 0
-311 -1062 1063 0
-1063 1086 0
-312 -1063 1064 0
-1064 1087 0
-313 -1064 1065 0
-1065 1088 0
-314 -1065 1066 0
-1066 1089 0
-315 -1066 1067 0
-1067 1090 0
-316 -1067 1068 0
-1068 1091 0
-317 -1068 1069 0
-1069 1092 0
-318 -1069 1070 0
-1070 1093 0
-319 -1070 1071 0
-1071 1094 0
-320 -1071 0
-298 1072 0
-1072 1095 0
-299 -1072 1073 0
-1073 1096 0
-300 -1073 1074 0
-1074 1097 0
-301 -1074 1075 0
-1075 1098 0
-302 -1075 1076 0
-1076 1099 0
-303 -1076 1077 0
-1077 1100 0
-304 -1077 1078 0
-1078 1101 0
-305 -1078 1079 0
-1079 1102 0
-306 -1079 1080 0
-1080 1103 0
-307 -1080 1081 0
-1081 1104 0
-308 -1081 1082 0
-1082 1105 0
-309 -1082 1083 0
-1083 1106 0
-310 -1083 1084 0
-1084 1107 0
-311 -1084 1085 0
-1085 1108 0
-312 -1085 1086 0
-1086 1109 0
-313 -1086 1087 0
-1087 1110 0
-314 -1087 1088 0
-1088 1111 0
-315 -1088 1089 0
-1089 1112 0
-316 -1089 1090 0
-1090 1113 0
-317 -1090 1091 0
-1091 1114 0
-318 -1091 1092 0
-1092 1115 0
-319 -1092 1093 0
-1093 1116 0
-320 -1093 1094 0
-1094 1117 0
-321 -1094 0
-299 1095 0
-1095 1118 0
-300 -1095 1096 0
-1096 1119 0
-301 -1096 1097 0
-1097 1120 0
-302 -1097 1098 0
-1098 1121 0
-303 -1098 1099 0
-1099 1122 0
-304 -1099 1100 0
-1100 1123 0
-305 -1100 1101 0
-1101 1124 0
-306 -1101 1102 0
-1102 1125 0
-307 -1102 1103 0
-1103 1126 0
-308 -1103 1104 0
-1104 1127 0
-309 -1104 1105 0
-1105 1128 0
-310 -1105 1106 0
-1106 1129 0
-311 -1106 1107 0
-1107 1130 0
-312 -1107 1108 0
-1108 1131 0
-313 -1108 1109 0
-1109 1132 0
-314 -1109 1110 0
-1110 1133 0
-315 -1110 1111 0
-1111 1134 0
-316 -1111 1112 0
-1112 1135 0
-317 -1112 1113 0
-1113 1136 0
-318 -1113 1114 0
-1114 1137 0
-319 -1114 1115 0
-1115 1138 0
-320 -1115 1116 0
-1116 1139 0
-321 -1116 1117 0
-1117 1140 0
-322 -1117 0
-300 1118 0
-1118 1141 0
-301 -1118 1119 0
-1119 1142 0
-302 -1119 1120 0
-1120 1143 0
-303 -1120 1121 0
-1121 1144 0
-304 -1121 1122 0
-1122 1145 0
-305 -1122 1123 0
-1123 1146 0
-306 -1123 1124 0
-1124 1147 0
-307 -1124 1125 0
-1125 1148 0
-308 -1125 1126 0
-1126 1149 0
-309 -1126 1127 0
-1127 1150 0
-310 -1127 1128 0
-1128 1151 0
-311 -1128 1129 0
-1129 1152 0
-312 -1129 1130 0
-1130 1153 0
-313 -1130 1131 0
-1131 1154 0
-314 -1131 1132 0
-1132 1155 0
-315 -1132 1133 0
-1133 1156 0
-316 -1133 1134 0
-1134 1157 0
-317 -1134 1135 0
-1135 1158 0
-318 -1135 1136 0
-1136 1159 0
-319 -1136 1137 0
-1137 1160 0
-320 -1137 1138 0
-1138 1161 0
-321 -1138 1139 0
-1139 1162 0
-322 -1139 1140 0
-1140 1163 0
-323 -1140 0
-301 1141 0
-1141 1164 0
-302 -1141 1142 0
-1142 1165 0
-303 -1142 1143 0
-1143 1166 0
-304 -1143 1144 0
-1144 1167 0
-305 -1144 1145 0
-1145 1168 0
-306 -1145 1146 0
-1146 1169 0
-307 -1146 1147 0
-1147 1170 0
-308 -1147 1148 0
-1148 1171 0
-309 -1148 1149 0
-1149 1172 0
-310 -1149 1150 0
-1150 1173 0
-311 -1150 1151 0
-1151 1174 0
-312 -1151 1152 0
-1152 1175 0
-313 -1152 1153 0
-1153 1176 0
-314 -1153 1154 0
-1154 1177 0
-315 -1154 1155 0
-1155 1178 0
-316 -1155 1156 0
-1156 1179 0
-317 -1156 1157 0
-1157 1180 0
-318 -1157 1158 0
-1158 1181 0
-319 -1158 1159 0
-1159 1182 0
-320 -1159 1160 0
-1160 1183 0
-321 -1160 1161 0
-1161 1184 0
-322 -1161 1162 0
-1162 1185 0
-323 -1162 1163 0
-1163 1186 0
-324 -1163 0
-302 1164 0
-1164 1187 0
-303 -1164 1165 0
-1165 1188 0
-304 -1165 1166 0
-1166 1189 0
-305 -1166 1167 0
-1167 1190 0
-306 -1167 1168 0
-1168 1191 0
-307 -1168 1169 0
-1169 1192 0
-308 -1169 1170 0
-1170 1193 0
-309 -1170 1171 0
-1171 1194 0
-310 -1171 1172 0
-1172 1195 0
-311 -1172 1173 0
-1173 1196 0
-312 -1173 1174 0
-1174 1197 0
-313 -1174 1175 0
-1175 1198 0
-314 -1175 1176 0
-1176 1199 0
-315 -1176 1177 0
-1177 1200 0
-316 -1177 1178 0
-1178 1201 0
-317 -1178 1179 0
-1179 1202 0
-318 -1179 1180 0
-1180 1203 0
-319 -1180 1181 0
-1181 1204 0
-320 -1181 1182 0
-1182 1205 0
-321 -1182 1183 0
-1183 1206 0
-322 -1183 1184 0
-1184 1207 0
-323 -1184 1185 0
-1185 1208 0
-324 -1185 1186 0
-1186 1209 0
-325 -1186 0
-303 1187 0
-1187 1210 0
-304 -1187 1188 0
-1188 1211 0
-305 -1188 1189 0
-1189 1212 0
-306 -1189 1190 0
-1190 1213 0
-307 -1190 1191 0
-1191 1214 0
-308 -1191 1192 0
-1192 1215 0
-309 -1192 1193 0
-1193 1216 0
-310 -1193 1194 0
-1194 1217 0
-311 -1194 1195 0
-1195 1218 0
-312 -1195 1196 0
-1196 1219 0
-313 -1196 1197 0
-1197 1220 0
-314 -1197 1198 0
-1198 1221 0
-315 -1198 1199 0
-1199 1222 0
-316 -1199 1200 0
-1200 1223 0
-317 -1200 1201 0
-1201 1224 0
-318 -1201 1202 0
-1202 1225 0
-319 -1202 1203 0
-1203 1226 0
-320 -1203 1204 0
-1204 1227 0
-321 -1204 1205 0
-1205 1228 0
-322 -1205 1206 0
-1206 1229 0
-323 -1206 1207 0
-1207 1230 0
-324 -1207 1208 0
-1208 1231 0
-325 -1208 1209 0
-1209 1232 0
-326 -1209 0
-304 1210 0
-1210 1233 0
-305 -1210 1211 0
-1211 1234 0
-306 -1211 1212 0
-1212 1235 0
-307 -1212 1213 0
-1213 1236 0
-308 -1213 1214 0
-1214 1237 0
-309 -1214 1215 0
-1215 1238 0
-310 -1215 1216 0
-1216 1239 0
-311 -1216 1217 0
-1217 1240 0
-312 -1217 1218 0
-1218 1241 0
-313 -1218 1219 0
-1219 1242 0
-314 -1219 1220 0
-1220 1243 0
-315 -1220 1221 0
-1221 1244 0
-316 -1221 1222 0
-1222 1245 0
-317 -1222 1223 0
-1223 1246 0
-318 -1223 1224 0
-1224 1247 0
-319 -1224 1225 0
-1225 1248 0
-320 -1225 1226 0
-1226 1249 0
-321 -1226 1227 0
-1227 1250 0
-322 -1227 1228 0
-1228 1251 0
-323 -1228 1229 0
-1229 1252 0
-324 -1229 1230 0
-1230 1253 0
-325 -1230 1231 0
-1231 1254 0
-326 -1231 1232 0
-1232 1255 0
-327 -1232 0
-305 1233 0
-1233 1256 0
-306 -1233 1234 0
-1234 1257 0
-307 -1234 1235 0
-1235 1258 0
-308 -1235 1236 0
-1236 1259 0
-309 -1236 1237 0
-1237 1260 0
-310 -1237 1238 0
-1238 1261 0
-311 -1238 1239 0
-1239 1262 0
-312 -1239 1240 0
-1240 1263 0
-313 -1240 1241 0
-1241 1264 0
-314 -1241 1242 0
-1242 1265 0
-315 -1242 1243 0
-1243 1266 0
-316 -1243 1244 0
-1244 1267 0
-317 -1244 1245 0
-1245 1268 0
-318 -1245 1246 0
-1246 1269 0
-319 -1246 1247 0
-1247 1270 0
-320 -1247 1248 0
-1248 1271 0
-321 -1248 1249 0
-1249 1272 0
-322 -1249 1250 0
-1250 1273 0
-323 -1250 1251 0
-1251 1274 0
-324 -1251 1252 0
-1252 1275 0
-325 -1252 1253 0
-1253 1276 0
-326 -1253 1254 0
-1254 1277 0
-327 -1254 1255 0
-1255 1278 0
-328 -1255 0
-306 1256 0
-1256 1279 0
-307 -1256 1257 0
-1257 1280 0
-308 -1257 1258 0
-1258 1281 0
-309 -1258 1259 0
-1259 1282 0
-310 -1259 1260 0
-1260 1283 0
-311 -1260 1261 0
-1261 1284 0
-312 -1261 1262 0
-1262 1285 0
-313 -1262 1263 0
-1263 1286 0
-314 -1263 1264 0
-1264 1287 0
-315 -1264 1265 0
-1265 1288 0
-316 -1265 1266 0
-1266 1289 0
-317 -1266 1267 0
-1267 1290 0
-318 -1267 1268 0
-1268 1291 0
-319 -1268 1269 0
-1269 1292 0
-320 -1269 1270 0
-1270 1293 0
-321 -1270 1271 0
-1271 1294 0
-322 -1271 1272 0
-1272 1295 0
-323 -1272 1273 0
-1273 1296 0
-324 -1273 1274 0
-1274 1297 0
-325 -1274 1275 0
-1275 1298 0
-326 -1275 1276 0
-1276 1299 0
-327 -1276 1277 0
-1277 1300 0
-328 -1277 1278 0
-1278 1301 0
-329 -1278 0
-307 1279 0
-1279 1302 0
-308 -1279 1280 0
-1280 1303 0
-309 -1280 1281 0
-1281 1304 0
-310 -1281 1282 0
-1282 1305 0
-311 -1282 1283 0
-1283 1306 0
-312 -1283 1284 0
-1284 1307 0
-313 -1284 1285 0
-1285 1308 0
-314 -1285 1286 0
-1286 1309 0
-315 -1286 1287 0
-1287 1310 0
-316 -1287 1288 0
-1288 1311 0
-317 -1288 1289 0
-1289 1312 0
-318 -1289 1290 0
-1290 1313 0
-319 -1290 1291 0
-1291 1314 0
-320 -1291 1292 0
-1292 1315 0
-321 -1292 1293 0
-1293 1316 0
-322 -1293 1294 0
-1294 1317 0
-323 -1294 1295 0
-1295 1318 0
-324 -1295 1296 0
-1296 1319 0
-325 -1296 1297 0
-1297 1320 0
-326 -1297 1298 0
-1298 1321 0
-327 -1298 1299 0
-1299 1322 0
-328 -1299 1300 0
-1300 1323 0
-329 -1300 1301 0
-1301 1324 0
-330 -1301 0
-308 1302 0
-1302 1325 0
-309 -1302 1303 0
-1303 1326 0
-310 -1303 1304 0
-1304 1327 0
-311 -1304 1305 0
-1305 1328 0
-312 -1305 1306 0
-1306 1329 0
-313 -1306 1307 0
-1307 1330 0
-314 -1307 1308 0
-1308 1331 0
-315 -1308 1309 0
-1309 1332 0
-316 -1309 1310 0
-1310 1333 0
-317 -1310 1311 0
-1311 1334 0
-318 -1311 1312 0
-1312 1335 0
-319 -1312 1313 0
-1313 1336 0
-320 -1313 1314 0
-1314 1337 0
-321 -1314 1315 0
-1315 1338 0
-322 -1315 1316 0
-1316 1339 0
-323 -1316 1317 0
-1317 1340 0
-324 -1317 1318 0
-1318 1341 0
-325 -1318 1319 0
-1319 1342 0
-326 -1319 1320 0
-1320 1343 0
-327 -1320 1321 0
-1321 1344 0
-328 -1321 1322 0
-1322 1345 0
-329 -1322 1323 0
-1323 1346 0
-330 -1323 1324 0
-1324 1347 0
-331 -1324 0
-309 1325 0
-1325 1348 0
-310 -1325 1326 0
-1326 1349 0
-311 -1326 1327 0
-1327 1350 0
-312 -1327 1328 0
-1328 1351 0
-313 -1328 1329 0
-1329 1352 0
-314 -1329 1330 0
-1330 1353 0
-315 -1330 1331 0
-1331 1354 0
-316 -1331 1332 0
-1332 1355 0
-317 -1332 1333 0
-1333 1356 0
-318 -1333 1334 0
-1334 1357 0
-319 -1334 1335 0
-1335 1358 0
-320 -1335 1336 0
-1336 1359 0
-321 -1336 1337 0
-1337 1360 0
-322 -1337 1338 0
-1338 1361 0
-323 -1338 1339 0
-1339 1362 0
-324 -1339 1340 0
-1340 1363 0
-325 -1340 1341 0
-1341 1364 0
-326 -1341 1342 0
-1342 1365 0
-327 -1342 1343 0
-1343 1366 0
-328 -1343 1344 0
-1344 1367 0
-329 -1344 1345 0
-1345 1368 0
-330 -1345 1346 0
-1346 1369 0
-331 -1346 1347 0
-1347 1370 0
-332 -1347 0
-310 1348 0
-1348 1371 0
-311 -1348 1349 0
-1349 1372 0
-312 -1349 1350 0
-1350 1373 0
-313 -1350 1351 0
-1351 1374 0
-314 -1351 1352 0
-1352 1375 0
-315 -1352 1353 0
-1353 1376 0
-316 -1353 1354 0
-1354 1377 0
-317 -1354 1355 0
-1355 1378 0
-318 -1355 1356 0
-1356 1379 0
-319 -1356 1357 0
-1357 1380 0
-320 -1357 1358 0
-1358 1381 0
-321 -1358 1359 0
-1359 1382 0
-322 -1359 1360 0
-1360 1383 0
-323 -1360 1361 0
-1361 1384 0
-324 -1361 1362 0
-1362 1385 0
-325 -1362 1363 0
-1363 1386 0
-326 -1363 1364 0
-1364 1387 0
-327 -1364 1365 0
-1365 1388 0
-328 -1365 1366 0
-1366 1389 0
-329 -1366 1367 0
-1367 1390 0
-330 -1367 1368 0
-1368 1391 0
-331 -1368 1369 0
-1369 1392 0
-332 -1369 1370 0
-1370 1393 0
-333 -1370 0
-311 1371 0
-1371 1394 0
-312 -1371 1372 0
-1372 1395 0
-313 -1372 1373 0
-1373 1396 0
-314 -1373 1374 0
-1374 1397 0
-315 -1374 1375 0
-1375 1398 0
-316 -1375 1376 0
-1376 1399 0
-317 -1376 1377 0
-1377 1400 0
-318 -1377 1378 0
-1378 1401 0
-319 -1378 1379 0
-1379 1402 0
-320 -1379 1380 0
-1380 1403 0
-321 -1380 1381 0
-1381 1404 0
-322 -1381 1382 0
-1382 1405 0
-323 -1382 1383 0
-1383 1406 0
-324 -1383 1384 0
-1384 1407 0
-325 -1384 1385 0
-1385 1408 0
-326 -1385 1386 0
-1386 1409 0
-327 -1386 1387 0
-1387 1410 0
-328 -1387 1388 0
-1388 1411 0
-329 -1388 1389 0
-1389 1412 0
-330 -1389 1390 0
-1390 1413 0
-331 -1390 1391 0
-1391 1414 0
-332 -1391 1392 0
-1392 1415 0
-333 -1392 1393 0
-1393 1416 0
-334 -1393 0
-312 1394 0
-1394 1417 0
-313 -1394 1395 0
-1395 1418 0
-314 -1395 1396 0
-1396 1419 0
-315 -1396 1397 0
-1397 1420 0
-316 -1397 1398 0
-1398 1421 0
-317 -1398 1399 0
-1399 1422 0
-318 -1399 1400 0
-1400 1423 0
-319 -1400 1401 0
-1401 1424 0
-320 -1401 1402 0
-1402 1425 0
-321 -1402 1403 0
-1403 1426 0
-322 -1403 1404 0
-1404 1427 0
-323 -1404 1405 0
-1405 1428 0
-324 -1405 1406 0
-1406 1429 0
-325 -1406 1407 0
-1407 1430 0
-326 -1407 1408 0
-1408 1431 0
-327 -1408 1409 0
-1409 1432 0
-328 -1409 1410 0
-1410 1433 0
-329 -1410 1411 0
-1411 1434 0
-330 -1411 1412 0
-1412 1435 0
-331 -1412 1413 0
-1413 1436 0
-332 -1413 1414 0
-1414 1437 0
-333 -1414 1415 0
-1415 1438 0
-334 -1415 1416 0
-1416 1439 0
-335 -1416 0
-313 1417 0
-1417 1440 0
-314 -1417 1418 0
-1418 1441 0
-315 -1418 1419 0
-1419 1442 0
-316 -1419 1420 0
-1420 1443 0
-317 -1420 1421 0
-1421 1444 0
-318 -1421 1422 0
-1422 1445 0
-319 -1422 1423 0
-1423 1446 0
-320 -1423 1424 0
-1424 1447 0
-321 -1424 1425 0
-1425 1448 0
-322 -1425 1426 0
-1426 1449 0
-323 -1426 1427 0
-1427 1450 0
-324 -1427 1428 0
-1428 1451 0
-325 -1428 1429 0
-1429 1452 0
-326 -1429 1430 0
-1430 1453 0
-327 -1430 1431 0
-1431 1454 0
-328 -1431 1432 0
-1432 1455 0
-329 -1432 1433 0
-1433 1456 0
-330 -1433 1434 0
-1434 1457 0
-331 -1434 1435 0
-1435 1458 0
-332 -1435 1436 0
-1436 1459 0
-333 -1436 1437 0
-1437 1460 0
-334 -1437 1438 0
-1438 1461 0
-335 -1438 1439 0
-1439 1462 0
-336 -1439 0
-314 1440 0
-1440 1463 0
-315 -1440 1441 0
-1441 1464 0
-316 -1441 1442 0
-1442 1465 0
-317 -1442 1443 0
-1443 1466 0
-318 -1443 1444 0
-1444 1467 0
-319 -1444 1445 0
-1445 1468 0
-320 -1445 1446 0
-1446 1469 0
-321 -1446 1447 0
-1447 1470 0
-322 -1447 1448 0
-1448 1471 0
-323 -1448 1449 0
-1449 1472 0
-324 -1449 1450 0
-1450 1473 0
-325 -1450 1451 0
-1451 1474 0
-326 -1451 1452 0
-1452 1475 0
-327 -1452 1453 0
-1453 1476 0
-328 -1453 1454 0
-1454 1477 0
-329 -1454 1455 0
-1455 1478 0
-330 -1455 1456 0
-1456 1479 0
-331 -1456 1457 0
-1457 1480 0
-332 -1457 1458 0
-1458 1481 0
-333 -1458 1459 0
-1459 1482 0
-334 -1459 1460 0
-1460 1483 0
-335 -1460 1461 0
-1461 1484 0
-336 -1461 1462 0
-1462 1485 0
-337 -1462 0
-315 1463 0
-1463 1486 0
-316 -1463 1464 0
-1464 1487 0
-317 -1464 1465 0
-1465 1488 0
-318 -1465 1466 0
-1466 1489 0
-319 -1466 1467 0
-1467 1490 0
-320 -1467 1468 0
-1468 1491 0
-321 -1468 1469 0
-1469 1492 0
-322 -1469 1470 0
-1470 1493 0
-323 -1470 1471 0
-1471 1494 0
-324 -1471 1472 0
-1472 1495 0
-325 -1472 1473 0
-1473 1496 0
-326 -1473 1474 0
-1474 1497 0
-327 -1474 1475 0
-1475 1498 0
-328 -1475 1476 0
-1476 1499 0
-329 -1476 1477 0
-1477 1500 0
-330 -1477 1478 0
-1478 1501 0
-331 -1478 1479 0
-1479 1502 0
-332 -1479 1480 0
-1480 1503 0
-333 -1480 1481 0
-1481 1504 0
-334 -1481 1482 0
-1482 1505 0
-335 -1482 1483 0
-1483 1506 0
-336 -1483 1484 0
-1484 1507 0
-337 -1484 1485 0
-1485 1508 0
-338 -1485 0
-316 1486 0
-1486 1509 0
-317 -1486 1487 0
-1487 1510 0
-318 -1487 1488 0
-1488 1511 0
-319 -1488 1489 0
-1489 1512 0
-320 -1489 1490 0
-1490 1513 0
-321 -1490 1491 0
-1491 1514 0
-322 -1491 1492 0
-1492 1515 0
-323 -1492 1493 0
-1493 1516 0
-324 -1493 1494 0
-1494 1517 0
-325 -1494 1495 0
-1495 1518 0
-326 -1495 1496 0
-1496 1519 0
-327 -1496 1497 0
-1497 1520 0
-328 -1497 1498 0
-1498 1521 0
-329 -1498 1499 0
-1499 1522 0
-330 -1499 1500 0
-1500 1523 0
-331 -1500 1501 0
-1501 1524 0
-332 -1501 1502 0
-1502 1525 0
-333 -1502 1503 0
-1503 1526 0
-334 -1503 1504 0
-1504 1527 0
-335 -1504 1505 0
-1505 1528 0
-336 -1505 1506 0
-1506 1529 0
-337 -1506 1507 0
-1507 1530 0
-338 -1507 1508 0
-1508 1531 0
-339 -1508 0
-317 1509 0
-1509 1532 0
-318 -1509 1510 0
-1510 1533 0
-319 -1510 1511 0
-1511 1534 0
-320 -1511 1512 0
-1512 1535 0
-321 -1512 1513 0
-1513 1536 0
-322 -1513 1514 0
-1514 1537 0
-323 -1514 1515 0
-1515 1538 0
-324 -1515 1516 0
-1516 1539 0
-325 -1516 1517 0
-1517 1540 0
-326 -1517 1518 0
-1518 1541 0
-327 -1518 1519 0
-1519 1542 0
-328 -1519 1520 0
-1520 1543 0
-329 -1520 1521 0
-1521 1544 0
-330 -1521 1522 0
-1522 1545 0
-331 -1522 1523 0
-1523 1546 0
-332 -1523 1524 0
-1524 1547 0
-333 -1524 1525 0
-1525 1548 0
-334 -1525 1526 0
-1526 1549 0
-335 -1526 1527 0
-1527 1550 0
-336 -1527 1528 0
-1528 1551 0
-337 -1528 1529 0
-1529 1552 0
-338 -1529 1530 0
-1530 1553 0
-339 -1530 1531 0
-1531 1554 0
-340 -1531 0
-318 1532 0
-1532 1555 0
-319 -1532 1533 0
-1533 1556 0
-320 -1533 1534 0
-1534 1557 0
-321 -1534 1535 0
-1535 1558 0
-322 -1535 1536 0
-1536 1559 0
-323 -1536 1537 0
-1537 1560 0
-324 -1537 1538 0
-1538 1561 0
-325 -1538 1539 0
-1539 1562 0
-326 -1539 1540 0
-1540 1563 0
-327 -1540 1541 0
-1541 1564 0
-328 -1541 1542 0
-1542 1565 0
-329 -1542 1543 0
-1543 1566 0
-330 -1543 1544 0
-1544 1567 0
-331 -1544 1545 0
-1545 1568 0
-332 -1545 1546 0
-1546 1569 0
-333 -1546 1547 0
-1547 1570 0
-334 -1547 1548 0
-1548 1571 0
-335 -1548 1549 0
-1549 1572 0
-336 -1549 1550 0
-1550 1573 0
-337 -1550 1551 0
-1551 1574 0
-338 -1551 1552 0
-1552 1575 0
-339 -1552 1553 0
-1553 1576 0
-340 -1553 1554 0
-1554 1577 0
-341 -1554 0
-319 1555 0
-1555 1578 0
-320 -1555 1556 0
-1556 1579 0
-321 -1556 1557 0
-1557 1580 0
-322 -1557 1558 0
-1558 1581 0
-323 -1558 1559 0
-1559 1582 0
-324 -1559 1560 0
-1560 1583 0
-325 -1560 1561 0
-1561 1584 0
-326 -1561 1562 0
-1562 1585 0
-327 -1562 1563 0
-1563 1586 0
-328 -1563 1564 0
-1564 1587 0
-329 -1564 1565 0
-1565 1588 0
-330 -1565 1566 0
-1566 1589 0
-331 -1566 1567 0
-1567 1590 0
-332 -1567 1568 0
-1568 1591 0
-333 -1568 1569 0
-1569 1592 0
-334 -1569 1570 0
-1570 1593 0
-335 -1570 1571 0
-1571 1594 0
-336 -1571 1572 0
-1572 1595 0
-337 -1572 1573 0
-1573 1596 0
-338 -1573 1574 0
-1574 1597 0
-339 -1574 1575 0
-1575 1598 0
-340 -1575 1576 0
-1576 1599 0
-341 -1576 1577 0
-1577 1600 0
-342 -1577 0
-320 1578 0
-1578 1601 0
-321 -1578 1579 0
-1579 1602 0
-322 -1579 1580 0
-1580 1603 0
-323 -1580 1581 0
-1581 1604 0
-324 -1581 1582 0
-1582 1605 0
-325 -1582 1583 0
-1583 1606 0
-326 -1583 1584 0
-1584 1607 0
-327 -1584 1585 0
-1585 1608 0
-328 -1585 1586 0
-1586 1609 0
-329 -1586 1587 0
-1587 1610 0
-330 -1587 1588 0
-1588 1611 0
-331 -1588 1589 0
-1589 1612 0
-332 -1589 1590 0
-1590 1613 0
-333 -1590 1591 0
-1591 1614 0
-334 -1591 1592 0
-1592 1615 0
-335 -1592 1593 0
-1593 1616 0
-336 -1593 1594 0
-1594 1617 0
-337 -1594 1595 0
-1595 1618 0
-338 -1595 1596 0
-1596 1619 0
-339 -1596 1597 0
-1597 1620 0
-340 -1597 1598 0
-1598 1621 0
-341 -1598 1599 0
-1599 1622 0
-342 -1599 1600 0
-1600 1623 0
-343 -1600 0
-321 1601 0
-1601 1624 0
-322 -1601 1602 0
-1602 1625 0
-323 -1602 1603 0
-1603 1626 0
-324 -1603 1604 0
-1604 1627 0
-325 -1604 1605 0
-1605 1628 0
-326 -1605 1606 0
-1606 1629 0
-327 -1606 1607 0
-1607 1630 0
-328 -1607 1608 0
-1608 1631 0
-329 -1608 1609 0
-1609 1632 0
-330 -1609 1610 0
-1610 1633 0
-331 -1610 1611 0
-1611 1634 0
-332 -1611 1612 0
-1612 1635 0
-333 -1612 1613 0
-1613 1636 0
-334 -1613 1614 0
-1614 1637 0
-335 -1614 1615 0
-1615 1638 0
-336 -1615 1616 0
-1616 1639 0
-337 -1616 1617 0
-1617 1640 0
-338 -1617 1618 0
-1618 1641 0
-339 -1618 1619 0
-1619 1642 0
-340 -1619 1620 0
-1620 1643 0
-341 -1620 1621 0
-1621 1644 0
-342 -1621 1622 0
-1622 1645 0
-343 -1622 1623 0
-1623 1646 0
-344 -1623 0
-322 1624 0
-1624 1647 0
-323 -1624 1625 0
-1625 1648 0
-324 -1625 1626 0
-1626 1649 0
-325 -1626 1627 0
-1627 1650 0
-326 -1627 1628 0
-1628 1651 0
-327 -1628 1629 0
-1629 1652 0
-328 -1629 1630 0
-1630 1653 0
-329 -1630 1631 0
-1631 1654 0
-330 -1631 1632 0
-1632 1655 0
-331 -1632 1633 0
-1633 1656 0
-332 -1633 1634 0
-1634 1657 0
-333 -1634 1635 0
-1635 1658 0
-334 -1635 1636 0
-1636 1659 0
-335 -1636 1637 0
-1637 1660 0
-336 -1637 1638 0
-1638 1661 0
-337 -1638 1639 0
-1639 1662 0
-338 -1639 1640 0
-1640 1663 0
-339 -1640 1641 0
-1641 1664 0
-340 -1641 1642 0
-1642 1665 0
-341 -1642 1643 0
-1643 1666 0
-342 -1643 1644 0
-1644 1667 0
-343 -1644 1645 0
-1645 1668 0
-344 -1645 1646 0
-1646 1669 0
-345 -1646 0
-323 1647 0
-1647 1670 0
-324 -1647 1648 0
-1648 1671 0
-325 -1648 1649 0
-1649 1672 0
-326 -1649 1650 0
-1650 1673 0
-327 -1650 1651 0
-1651 1674 0
-328 -1651 1652 0
-1652 1675 0
-329 -1652 1653 0
-1653 1676 0
-330 -1653 1654 0
-1654 1677 0
-331 -1654 1655 0
-1655 1678 0
-332 -1655 1656 0
-1656 1679 0
-333 -1656 1657 0
-1657 1680 0
-334 -1657 1658 0
-1658 1681 0
-335 -1658 1659 0
-1659 1682 0
-336 -1659 1660 0
-1660 1683 0
-337 -1660 1661 0
-1661 1684 0
-338 -1661 1662 0
-1662 1685 0
-339 -1662 1663 0
-1663 1686 0
-340 -1663 1664 0
-1664 1687 0
-341 -1664 1665 0
-1665 1688 0
-342 -1665 1666 0
-1666 1689 0
-343 -1666 1667 0
-1667 1690 0
-344 -1667 1668 0
-1668 1691 0
-345 -1668 1669 0
-1669 1692 0
-346 -1669 0
-324 1670 0
-1670 1693 0
-325 -1670 1671 0
-1671 1694 0
-326 -1671 1672 0
-1672 1695 0
-327 -1672 1673 0
-1673 1696 0
-328 -1673 1674 0
-1674 1697 0
-329 -1674 1675 0
-1675 1698 0
-330 -1675 1676 0
-1676 1699 0
-331 -1676 1677 0
-1677 1700 0
-332 -1677 1678 0
-1678 1701 0
-333 -1678 1679 0
-1679 1702 0
-334 -1679 1680 0
-1680 1703 0
-335 -1680 1681 0
-1681 1704 0
-336 -1681 1682 0
-1682 1705 0
-337 -1682 1683 0
-1683 1706 0
-338 -1683 1684 0
-1684 1707 0
-339 -1684 1685 0
-1685 1708 0
-340 -1685 1686 0
-1686 1709 0
-341 -1686 1687 0
-1687 1710 0
-342 -1687 1688 0
-1688 1711 0
-343 -1688 1689 0
-1689 1712 0
-344 -1689 1690 0
-1690 1713 0
-345 -1690 1691 0
-1691 1714 0
-346 -1691 1692 0
-1692 1715 0
-347 -1692 0
-325 1693 0
-1693 1716 0
-326 -1693 1694 0
-1694 1717 0
-327 -1694 1695 0
-1695 1718 0
-328 -1695 1696 0
-1696 1719 0
-329 -1696 1697 0
-1697 1720 0
-330 -1697 1698 0
-1698 1721 0
-331 -1698 1699 0
-1699 1722 0
-332 -1699 1700 0
-1700 1723 0
-333 -1700 1701 0
-1701 1724 0
-334 -1701 1702 0
-1702 1725 0
-335 -1702 1703 0
-1703 1726 0
-336 -1703 1704 0
-1704 1727 0
-337 -1704 1705 0
-1705 1728 0
-338 -1705 1706 0
-1706 1729 0
-339 -1706 1707 0
-1707 1730 0
-340 -1707 1708 0
-1708 1731 0
-341 -1708 1709 0
-1709 1732 0
-342 -1709 1710 0
-1710 1733 0
-343 -1710 1711 0
-1711 1734 0
-344 -1711 1712 0
-1712 1735 0
-345 -1712 1713 0
-1713 1736 0
-346 -1713 1714 0
-1714 1737 0
-347 -1714 1715 0
-1715 1738 0
-348 -1715 0
-326 1716 0
-1716 1739 0
-327 -1716 1717 0
-1717 1740 0
-328 -1717 1718 0
-1718 1741 0
-329 -1718 1719 0
-1719 1742 0
-330 -1719 1720 0
-1720 1743 0
-331 -1720 1721 0
-1721 1744 0
-332 -1721 1722 0
-1722 1745 0
-333 -1722 1723 0
-1723 1746 0
-334 -1723 1724 0
-1724 1747 0
-335 -1724 1725 0
-1725 1748 0
-336 -1725 1726 0
-1726 1749 0
-337 -1726 1727 0
-1727 1750 0
-338 -1727 1728 0
-1728 1751 0
-339 -1728 1729 0
-1729 1752 0
-340 -1729 1730 0
-1730 1753 0
-341 -1730 1731 0
-1731 1754 0
-342 -1731 1732 0
-1732 1755 0
-343 -1732 1733 0
-1733 1756 0
-344 -1733 1734 0
-1734 1757 0
-345 -1734 1735 0
-1735 1758 0
-346 -1735 1736 0
-1736 1759 0
-347 -1736 1737 0
-1737 1760 0
-348 -1737 1738 0
-1738 1761 0
-349 -1738 0
-327 1739 0
-1739 1762 0
-328 -1739 1740 0
-1740 1763 0
-329 -1740 1741 0
-1741 1764 0
-330 -1741 1742 0
-1742 1765 0
-331 -1742 1743 0
-1743 1766 0
-332 -1743 1744 0
-1744 1767 0
-333 -1744 1745 0
-1745 1768 0
-334 -1745 1746 0
-1746 1769 0
-335 -1746 1747 0
-1747 1770 0
-336 -1747 1748 0
-1748 1771 0
-337 -1748 1749 0
-1749 1772 0
-338 -1749 1750 0
-1750 1773 0
-339 -1750 1751 0
-1751 1774 0
-340 -1751 1752 0
-1752 1775 0
-341 -1752 1753 0
-1753 1776 0
-342 -1753 1754 0
-1754 1777 0
-343 -1754 1755 0
-1755 1778 0
-344 -1755 1756 0
-1756 1779 0
-345 -1756 1757 0
-1757 1780 0
-346 -1757 1758 0
-1758 1781 0
-347 -1758 1759 0
-1759 1782 0
-348 -1759 1760 0
-1760 1783 0
-349 -1760 1761 0
-1761 1784 0
-350 -1761 0
-328 1762 0
-1762 1785 0
-329 -1762 1763 0
-1763 1786 0
-330 -1763 1764 0
-1764 1787 0
-331 -1764 1765 0
-1765 1788 0
-332 -1765 1766 0
-1766 1789 0
-333 -1766 1767 0
-1767 1790 0
-334 -1767 1768 0
-1768 1791 0
-335 -1768 1769 0
-1769 1792 0
-336 -1769 1770 0
-1770 1793 0
-337 -1770 1771 0
-1771 1794 0
-338 -1771 1772 0
-1772 1795 0
-339 -1772 1773 0
-1773 1796 0
-340 -1773 1774 0
-1774 1797 0
-341 -1774 1775 0
-1775 1798 0
-342 -1775 1776 0
-1776 1799 0
-343 -1776 1777 0
-1777 1800 0
-344 -1777 1778 0
-1778 1801 0
-345 -1778 1779 0
-1779 1802 0
-346 -1779 1780 0
-1780 1803 0
-347 -1780 1781 0
-1781 1804 0
-348 -1781 1782 0
-1782 1805 0
-349 -1782 1783 0
-1783 1806 0
-350 -1783 1784 0
-1784 1807 0
-351 -1784 0
-329 1785 0
-1785 1808 0
-330 -1785 1786 0
-1786 1809 0
-331 -1786 1787 0
-1787 1810 0
-332 -1787 1788 0
-1788 1811 0
-333 -1788 1789 0
-1789 1812 0
-334 -1789 1790 0
-1790 1813 0
-335 -1790 1791 0
-1791 1814 0
-336 -1791 1792 0
-1792 1815 0
-337 -1792 1793 0
-1793 1816 0
-338 -1793 1794 0
-1794 1817 0
-339 -1794 1795 0
-1795 1818 0
-340 -1795 1796 0
-1796 1819 0
-341 -1796 1797 0
-1797 1820 0
-342 -1797 1798 0
-1798 1821 0
-343 -1798 1799 0
-1799 1822 0
-344 -1799 1800 0
-1800 1823 0
-345 -1800 1801 0
-1801 1824 0
-346 -1801 1802 0
-1802 1825 0
-347 -1802 1803 0
-1803 1826 0
-348 -1803 1804 0
-1804 1827 0
-349 -1804 1805 0
-1805 1828 0
-350 -1805 1806 0
-1806 1829 0
-351 -1806 1807 0
-1807 1830 0
-352 -1807 0
-330 1808 0
-1808 1831 0
-331 -1808 1809 0
-1809 1832 0
-332 -1809 1810 0
-1810 1833 0
-333 -1810 1811 0
-1811 1834 0
-334 -1811 1812 0
-1812 1835 0
-335 -1812 1813 0
-1813 1836 0
-336 -1813 1814 0
-1814 1837 0
-337 -1814 1815 0
-1815 1838 0
-338 -1815 1816 0
-1816 1839 0
-339 -1816 1817 0
-1817 1840 0
-340 -1817 1818 0
-1818 1841 0
-341 -1818 1819 0
-1819 1842 0
-342 -1819 1820 0
-1820 1843 0
-343 -1820 1821 0
-1821 1844 0
-344 -1821 1822 0
-1822 1845 0
-345 -1822 1823 0
-1823 1846 0
-346 -1823 1824 0
-1824 1847 0
-347 -1824 1825 0
-1825 1848 0
-348 -1825 1826 0
-1826 1849 0
-349 -1826 1827 0
-1827 1850 0
-350 -1827 1828 0
-1828 1851 0
-351 -1828 1829 0
-1829 1852 0
-352 -1829 1830 0
-1830 1853 0
-353 -1830 0
-331 1831 0
-1831 1854 0
-332 -1831 1832 0
-1832 1855 0
-333 -1832 1833 0
-1833 1856 0
-334 -1833 1834 0
-1834 1857 0
-335 -1834 1835 0
-1835 1858 0
-336 -1835 1836 0
-1836 1859 0
-337 -1836 1837 0
-1837 1860 0
-338 -1837 1838 0
-1838 1861 0
-339 -1838 1839 0
-1839 1862 0
-340 -1839 1840 0
-1840 1863 0
-341 -1840 1841 0
-1841 1864 0
-342 -1841 1842 0
-1842 1865 0
-343 -1842 1843 0
-1843 1866 0
-344 -1843 1844 0
-1844 1867 0
-345 -1844 1845 0
-1845 1868 0
-346 -1845 1846 0
-1846 1869 0
-347 -1846 1847 0
-1847 1870 0
-348 -1847 1848 0
-1848 1871 0
-349 -1848 1849 0
-1849 1872 0
-350 -1849 1850 0
-1850 1873 0
-351 -1850 1851 0
-1851 1874 0
-352 -1851 1852 0
-1852 1875 0
-353 -1852 1853 0
-1853 1876 0
-354 -1853 0
-332 1854 0
-1854 1877 0
-333 -1854 1855 0
-1855 1878 0
-334 -1855 1856 0
-1856 1879 0
-335 -1856 1857 0
-1857 1880 0
-336 -1857 1858 0
-1858 1881 0
-337 -1858 1859 0
-1859 1882 0
-338 -1859 1860 0
-1860 1883 0
-339 -1860 1861 0
-1861 1884 0
-340 -1861 1862 0
-1862 1885 0
-341 -1862 1863 0
-1863 1886 0
-342 -1863 1864 0
-1864 1887 0
-343 -1864 1865 0
-1865 1888 0
-344 -1865 1866 0
-1866 1889 0
-345 -1866 1867 0
-1867 1890 0
-346 -1867 1868 0
-1868 1891 0
-347 -1868 1869 0
-1869 1892 0
-348 -1869 1870 0
-1870 1893 0
-349 -1870 1871 0
-1871 1894 0
-350 -1871 1872 0
-1872 1895 0
-351 -1872 1873 0
-1873 1896 0
-352 -1873 1874 0
-1874 1897 0
-353 -1874 1875 0
-1875 1898 0
-354 -1875 1876 0
-1876 1899 0
-355 -1876 0
-333 1877 0
-1877 1900 0
-334 -1877 1878 0
-1878 1901 0
-335 -1878 1879 0
-1879 1902 0
-336 -1879 1880 0
-1880 1903 0
-337 -1880 1881 0
-1881 1904 0
-338 -1881 1882 0
-1882 1905 0
-339 -1882 1883 0
-1883 1906 0
-340 -1883 1884 0
-1884 1907 0
-341 -1884 1885 0
-1885 1908 0
-342 -1885 1886 0
-1886 1909 0
-343 -1886 1887 0
-1887 1910 0
-344 -1887 1888 0
-1888 1911 0
-345 -1888 1889 0
-1889 1912 0
-346 -1889 1890 0
-1890 1913 0
-347 -1890 1891 0
-1891 1914 0
-348 -1891 1892 0
-1892 1915 0
-349 -1892 1893 0
-1893 1916 0
-350 -1893 1894 0
-1894 1917 0
-351 -1894 1895 0
-1895 1918 0
-352 -1895 1896 0
-1896 1919 0
-353 -1896 1897 0
-1897 1920 0
-354 -1897 1898 0
-1898 1921 0
-355 -1898 1899 0
-1899 1922 0
-356 -1899 0
-334 1900 0
-1900 1923 0
-335 -1900 1901 0
-1901 1924 0
-336 -1901 1902 0
-1902 1925 0
-337 -1902 1903 0
-1903 1926 0
-338 -1903 1904 0
-1904 1927 0
-339 -1904 1905 0
-1905 1928 0
-340 -1905 1906 0
-1906 1929 0
-341 -1906 1907 0
-1907 1930 0
-342 -1907 1908 0
-1908 1931 0
-343 -1908 1909 0
-1909 1932 0
-344 -1909 1910 0
-1910 1933 0
-345 -1910 1911 0
-1911 1934 0
-346 -1911 1912 0
-1912 1935 0
-347 -1912 1913 0
-1913 1936 0
-348 -1913 1914 0
-1914 1937 0
-349 -1914 1915 0
-1915 1938 0
-350 -1915 1916 0
-1916 1939 0
-351 -1916 1917 0
-1917 1940 0
-352 -1917 1918 0
-1918 1941 0
-353 -1918 1919 0
-1919 1942 0
-354 -1919 1920 0
-1920 1943 0
-355 -1920 1921 0
-1921 1944 0
-356 -1921 1922 0
-1922 1945 0
-357 -1922 0
-335 1923 0
-1923 1946 0
-336 -1923 1924 0
-1924 1947 0
-337 -1924 1925 0
-1925 1948 0
-338 -1925 1926 0
-1926 1949 0
-339 -1926 1927 0
-1927 1950 0
-340 -1927 1928 0
-1928 1951 0
-341 -1928 1929 0
-1929 1952 0
-342 -1929 1930 0
-1930 1953 0
-343 -1930 1931 0
-1931 1954 0
-344 -1931 1932 0
-1932 1955 0
-345 -1932 1933 0
-1933 1956 0
-346 -1933 1934 0
-1934 1957 0
-347 -1934 1935 0
-1935 1958 0
-348 -1935 1936 0
-1936 1959 0
-349 -1936 1937 0
-1937 1960 0
-350 -1937 1938 0
-1938 1961 0
-351 -1938 1939 0
-1939 1962 0
-352 -1939 1940 0
-1940 1963 0
-353 -1940 1941 0
-1941 1964 0
-354 -1941 1942 0
-1942 1965 0
-355 -1942 1943 0
-1943 1966 0
-356 -1943 1944 0
-1944 1967 0
-357 -1944 1945 0
-1945 1968 0
-358 -1945 0
-336 1946 0
-1946 1969 0
-337 -1946 1947 0
-1947 1970 0
-338 -1947 1948 0
-1948 1971 0
-339 -1948 1949 0
-1949 1972 0
-340 -1949 1950 0
-1950 1973 0
-341 -1950 1951 0
-1951 1974 0
-342 -1951 1952 0
-1952 1975 0
-343 -1952 1953 0
-1953 1976 0
-344 -1953 1954 0
-1954 1977 0
-345 -1954 1955 0
-1955 1978 0
-346 -1955 1956 0
-1956 1979 0
-347 -1956 1957 0
-1957 1980 0
-348 -1957 1958 0
-1958 1981 0
-349 -1958 1959 0
-1959 1982 0
-350 -1959 1960 0
-1960 1983 0
-351 -1960 1961 0
-1961 1984 0
-352 -1961 1962 0
-1962 1985 0
-353 -1962 1963 0
-1963 1986 0
-354 -1963 1964 0
-1964 1987 0
-355 -1964 1965 0
-1965 1988 0
-356 -1965 1966 0
-1966 1989 0
-357 -1966 1967 0
-1967 1990 0
-358 -1967 1968 0
-1968 1991 0
-359 -1968 0
-337 1969 0
-1969 1992 0
-338 -1969 1970 0
-1970 1993 0
-339 -1970 1971 0
-1971 1994 0
-340 -1971 1972 0
-1972 1995 0
-341 -1972 1973 0
-1973 1996 0
-342 -1973 1974 0
-1974 1997 0
-343 -1974 1975 0
-1975 1998 0
-344 -1975 1976 0
-1976 1999 0
-345 -1976 1977 0
-1977 2000 0
-346 -1977 1978 0
-1978 2001 0
-347 -1978 1979 0
-1979 2002 0
-348 -1979 1980 0
-1980 2003 0
-349 -1980 1981 0
-1981 2004 0
-350 -1981 1982 0
-1982 2005 0
-351 -1982 1983 0
-1983 2006 0
-352 -1983 1984 0
-1984 2007 0
-353 -1984 1985 0
-1985 2008 0
-354 -1985 1986 0
-1986 2009 0
-355 -1986 1987 0
-1987 2010 0
-356 -1987 1988 0
-1988 2011 0
-357 -1988 1989 0
-1989 2012 0
-358 -1989 1990 0
-1990 2013 0
-359 -1990 1991 0
-1991 2014 0
-360 -1991 0
-338 1992 0
-1992 2015 0
-339 -1992 1993 0
-1993 2016 0
-340 -1993 1994 0
-1994 2017 0
-341 -1994 1995 0
-1995 2018 0
-342 -1995 1996 0
-1996 2019 0
-343 -1996 1997 0
-1997 2020 0
-344 -1997 1998 0
-1998 2021 0
-345 -1998 1999 0
-1999 2022 0
-346 -1999 2000 0
-2000 2023 0
-347 -2000 2001 0
-2001 2024 0
-348 -2001 2002 0
-2002 2025 0
-349 -2002 2003 0
-2003 2026 0
-350 -2003 2004 0
-2004 2027 0
-351 -2004 2005 0
-2005 2028 0
-352 -2005 2006 0
-2006 2029 0
-353 -2006 2007 0
-2007 2030 0
-354 -2007 2008 0
-2008 2031 0
-355 -2008 2009 0
-2009 2032 0
-356 -2009 2010 0
-2010 2033 0
-357 -2010 2011 0
-2011 2034 0
-358 -2011 2012 0
-2012 2035 0
-359 -2012 2013 0
-2013 2036 0
-360 -2013 2014 0
-2014 2037 0
-361 -2014 0
-339 2015 0
-2015 2038 0
-340 -2015 2016 0
-2016 2039 0
-341 -2016 2017 0
-2017 2040 0
-342 -2017 2018 0
-2018 2041 0
-343 -2018 2019 0
-2019 2042 0
-344 -2019 2020 0
-2020 2043 0
-345 -2020 2021 0
-2021 2044 0
-346 -2021 2022 0
-2022 2045 0
-347 -2022 2023 0
-2023 2046 0
-348 -2023 2024 0
-2024 2047 0
-349 -2024 2025 0
-2025 2048 0
-350 -2025 2026 0
-2026 2049 0
-351 -2026 2027 0
-2027 2050 0
-352 -2027 2028 0
-2028 2051 0
-353 -2028 2029 0
-2029 2052 0
-354 -2029 2030 0
-2030 2053 0
-355 -2030 2031 0
-2031 2054 0
-356 -2031 2032 0
-2032 2055 0
-357 -2032 2033 0
-2033 2056 0
-358 -2033 2034 0
-2034 2057 0
-359 -2034 2035 0
-2035 2058 0
-360 -2035 2036 0
-2036 2059 0
-361 -2036 2037 0
-2037 2060 0
-362 -2037 0
-340 2038 0
-2038 2061 0
-341 -2038 2039 0
-2039 2062 0
-342 -2039 2040 0
-2040 2063 0
-343 -2040 2041 0
-2041 2064 0
-344 -2041 2042 0
-2042 2065 0
-345 -2042 2043 0
-2043 2066 0
-346 -2043 2044 0
-2044 2067 0
-347 -2044 2045 0
-2045 2068 0
-348 -2045 2046 0
-2046 2069 0
-349 -2046 2047 0
-2047 2070 0
-350 -2047 2048 0
-2048 2071 0
-351 -2048 2049 0
-2049 2072 0
-352 -2049 2050 0
-2050 2073 0
-353 -2050 2051 0
-2051 2074 0
-354 -2051 2052 0
-2052 2075 0
-355 -2052 2053 0
-2053 2076 0
-356 -2053 2054 0
-2054 2077 0
-357 -2054 2055 0
-2055 2078 0
-358 -2055 2056 0
-2056 2079 0
-359 -2056 2057 0
-2057 2080 0
-360 -2057 2058 0
-2058 2081 0
-361 -2058 2059 0
-2059 2082 0
-362 -2059 2060 0
-2060 2083 0
-363 -2060 0
-341 2061 0
-2061 2084 0
-342 -2061 2062 0
-2062 2085 0
-343 -2062 2063 0
-2063 2086 0
-344 -2063 2064 0
-2064 2087 0
-345 -2064 2065 0
-2065 2088 0
-346 -2065 2066 0
-2066 2089 0
-347 -2066 2067 0
-2067 2090 0
-348 -2067 2068 0
-2068 2091 0
-349 -2068 2069 0
-2069 2092 0
-350 -2069 2070 0
-2070 2093 0
-351 -2070 2071 0
-2071 2094 0
-352 -2071 2072 0
-2072 2095 0
-353 -2072 2073 0
-2073 2096 0
-354 -2073 2074 0
-2074 2097 0
-355 -2074 2075 0
-2075 2098 0
-356 -2075 2076 0
-2076 2099 0
-357 -2076 2077 0
-2077 2100 0
-358 -2077 2078 0
-2078 2101 0
-359 -2078 2079 0
-2079 2102 0
-360 -2079 2080 0
-2080 2103 0
-361 -2080 2081 0
-2081 2104 0
-362 -2081 2082 0
-2082 2105 0
-363 -2082 2083 0
-2083 2106 0
-364 -2083 0
-342 2084 0
-2084 2107 0
-343 -2084 2085 0
-2085 2108 0
-344 -2085 2086 0
-2086 2109 0
-345 -2086 2087 0
-2087 2110 0
-346 -2087 2088 0
-2088 2111 0
-347 -2088 2089 0
-2089 2112 0
-348 -2089 2090 0
-2090 2113 0
-349 -2090 2091 0
-2091 2114 0
-350 -2091 2092 0
-2092 2115 0
-351 -2092 2093 0
-2093 2116 0
-352 -2093 2094 0
-2094 2117 0
-353 -2094 2095 0
-2095 2118 0
-354 -2095 2096 0
-2096 2119 0
-355 -2096 2097 0
-2097 2120 0
-356 -2097 2098 0
-2098 2121 0
-357 -2098 2099 0
-2099 2122 0
-358 -2099 2100 0
-2100 2123 0
-359 -2100 2101 0
-2101 2124 0
-360 -2101 2102 0
-2102 2125 0
-361 -2102 2103 0
-2103 2126 0
-362 -2103 2104 0
-2104 2127 0
-363 -2104 2105 0
-2105 2128 0
-364 -2105 2106 0
-2106 2129 0
-365 -2106 0
-343 2107 0
-2107 2130 0
-344 -2107 2108 0
-2108 2131 0
-345 -2108 2109 0
-2109 2132 0
-346 -2109 2110 0
-2110 2133 0
-347 -2110 2111 0
-2111 2134 0
-348 -2111 2112 0
-2112 2135 0
-349 -2112 2113 0
-2113 2136 0
-350 -2113 2114 0
-2114 2137 0
-351 -2114 2115 0
-2115 2138 0
-352 -2115 2116 0
-2116 2139 0
-353 -2116 2117 0
-2117 2140 0
-354 -2117 2118 0
-2118 2141 0
-355 -2118 2119 0
-2119 2142 0
-356 -2119 2120 0
-2120 2143 0
-357 -2120 2121 0
-2121 2144 0
-358 -2121 2122 0
-2122 2145 0
-359 -2122 2123 0
-2123 2146 0
-360 -2123 2124 0
-2124 2147 0
-361 -2124 2125 0
-2125 2148 0
-362 -2125 2126 0
-2126 2149 0
-363 -2126 2127 0
-2127 2150 0
-364 -2127 2128 0
-2128 2151 0
-365 -2128 2129 0
-2129 2152 0
-366 -2129 0
-344 2130 0
-2130 2153 0
-345 -2130 2131 0
-2131 2154 0
-346 -2131 2132 0
-2132 2155 0
-347 -2132 2133 0
-2133 2156 0
-348 -2133 2134 0
-2134 2157 0
-349 -2134 2135 0
-2135 2158 0
-350 -2135 2136 0
-2136 2159 0
-351 -2136 2137 0
-2137 2160 0
-352 -2137 2138 0
-2138 2161 0
-353 -2138 2139 0
-2139 2162 0
-354 -2139 2140 0
-2140 2163 0
-355 -2140 2141 0
-2141 2164 0
-356 -2141 2142 0
-2142 2165 0
-357 -2142 2143 0
-2143 2166 0
-358 -2143 2144 0
-2144 2167 0
-359 -2144 2145 0
-2145 2168 0
-360 -2145 2146 0
-2146 2169 0
-361 -2146 2147 0
-2147 2170 0
-362 -2147 2148 0
-2148 2171 0
-363 -2148 2149 0
-2149 2172 0
-364 -2149 2150 0
-2150 2173 0
-365 -2150 2151 0
-2151 2174 0
-366 -2151 2152 0
-2152 2175 0
-367 -2152 0
-345 2153 0
-2153 2176 0
-346 -2153 2154 0
-2154 2177 0
-347 -2154 2155 0
-2155 2178 0
-348 -2155 2156 0
-2156 2179 0
-349 -2156 2157 0
-2157 2180 0
-350 -2157 2158 0
-2158 2181 0
-351 -2158 2159 0
-2159 2182 0
-352 -2159 2160 0
-2160 2183 0
-353 -2160 2161 0
-2161 2184 0
-354 -2161 2162 0
-2162 2185 0
-355 -2162 2163 0
-2163 2186 0
-356 -2163 2164 0
-2164 2187 0
-357 -2164 2165 0
-2165 2188 0
-358 -2165 2166 0
-2166 2189 0
-359 -2166 2167 0
-2167 2190 0
-360 -2167 2168 0
-2168 2191 0
-361 -2168 2169 0
-2169 2192 0
-362 -2169 2170 0
-2170 2193 0
-363 -2170 2171 0
-2171 2194 0
-364 -2171 2172 0
-2172 2195 0
-365 -2172 2173 0
-2173 2196 0
-366 -2173 2174 0
-2174 2197 0
-367 -2174 2175 0
-2175 2198 0
-368 -2175 0
-346 2176 0
-2176 2199 0
-347 -2176 2177 0
-2177 2200 0
-348 -2177 2178 0
-2178 2201 0
-349 -2178 2179 0
-2179 2202 0
-350 -2179 2180 0
-2180 2203 0
-351 -2180 2181 0
-2181 2204 0
-352 -2181 2182 0
-2182 2205 0
-353 -2182 2183 0
-2183 2206 0
-354 -2183 2184 0
-2184 2207 0
-355 -2184 2185 0
-2185 2208 0
-356 -2185 2186 0
-2186 2209 0
-357 -2186 2187 0
-2187 2210 0
-358 -2187 2188 0
-2188 2211 0
-359 -2188 2189 0
-2189 2212 0
-360 -2189 2190 0
-2190 2213 0
-361 -2190 2191 0
-2191 2214 0
-362 -2191 2192 0
-2192 2215 0
-363 -2192 2193 0
-2193 2216 0
-364 -2193 2194 0
-2194 2217 0
-365 -2194 2195 0
-2195 2218 0
-366 -2195 2196 0
-2196 2219 0
-367 -2196 2197 0
-2197 2220 0
-368 -2197 2198 0
-2198 2221 0
-369 -2198 0
-347 2199 0
-2199 2222 0
-348 -2199 2200 0
-2200 2223 0
-349 -2200 2201 0
-2201 2224 0
-350 -2201 2202 0
-2202 2225 0
-351 -2202 2203 0
-2203 2226 0
-352 -2203 2204 0
-2204 2227 0
-353 -2204 2205 0
-2205 2228 0
-354 -2205 2206 0
-2206 2229 0
-355 -2206 2207 0
-2207 2230 0
-356 -2207 2208 0
-2208 2231 0
-357 -2208 2209 0
-2209 2232 0
-358 -2209 2210 0
-2210 2233 0
-359 -2210 2211 0
-2211 2234 0
-360 -2211 2212 0
-2212 2235 0
-361 -2212 2213 0
-2213 2236 0
-362 -2213 2214 0
-2214 2237 0
-363 -2214 2215 0
-2215 2238 0
-364 -2215 2216 0
-2216 2239 0
-365 -2216 2217 0
-2217 2240 0
-366 -2217 2218 0
-2218 2241 0
-367 -2218 2219 0
-2219 2242 0
-368 -2219 2220 0
-2220 2243 0
-369 -2220 2221 0
-2221 2244 0
-370 -2221 0
-348 2222 0
-2222 2245 0
-349 -2222 2223 0
-2223 2246 0
-350 -2223 2224 0
-2224 2247 0
-351 -2224 2225 0
-2225 2248 0
-352 -2225 2226 0
-2226 2249 0
-353 -2226 2227 0
-2227 2250 0
-354 -2227 2228 0
-2228 2251 0
-355 -2228 2229 0
-2229 2252 0
-356 -2229 2230 0
-2230 2253 0
-357 -2230 2231 0
-2231 2254 0
-358 -2231 2232 0
-2232 2255 0
-359 -2232 2233 0
-2233 2256 0
-360 -2233 2234 0
-2234 2257 0
-361 -2234 2235 0
-2235 2258 0
-362 -2235 2236 0
-2236 2259 0
-363 -2236 2237 0
-2237 2260 0
-364 -2237 2238 0
-2238 2261 0
-365 -2238 2239 0
-2239 2262 0
-366 -2239 2240 0
-2240 2263 0
-367 -2240 2241 0
-2241 2264 0
-368 -2241 2242 0
-2242 2265 0
-369 -2242 2243 0
-2243 2266 0
-370 -2243 2244 0
-2244 2267 0
-371 -2244 0
-349 2245 0
-2245 2268 0
-350 -2245 2246 0
-2246 2269 0
-351 -2246 2247 0
-2247 2270 0
-352 -2247 2248 0
-2248 2271 0
-353 -2248 2249 0
-2249 2272 0
-354 -2249 2250 0
-2250 2273 0
-355 -2250 2251 0
-2251 2274 0
-356 -2251 2252 0
-2252 2275 0
-357 -2252 2253 0
-2253 2276 0
-358 -2253 2254 0
-2254 2277 0
-359 -2254 2255 0
-2255 2278 0
-360 -2255 2256 0
-2256 2279 0
-361 -2256 2257 0
-2257 2280 0
-362 -2257 2258 0
-2258 2281 0
-363 -2258 2259 0
-2259 2282 0
-364 -2259 2260 0
-2260 2283 0
-365 -2260 2261 0
-2261 2284 0
-366 -2261 2262 0
-2262 2285 0
-367 -2262 2263 0
-2263 2286 0
-368 -2263 2264 0
-2264 2287 0
-369 -2264 2265 0
-2265 2288 0
-370 -2265 2266 0
-2266 2289 0
-371 -2266 2267 0
-2267 2290 0
-372 -2267 0
-350 2268 0
-2268 2291 0
-351 -2268 2269 0
-2269 2292 0
-352 -2269 2270 0
-2270 2293 0
-353 -2270 2271 0
-2271 2294 0
-354 -2271 2272 0
-2272 2295 0
-355 -2272 2273 0
-2273 2296 0
-356 -2273 2274 0
-2274 2297 0
-357 -2274 2275 0
-2275 2298 0
-358 -2275 2276 0
-2276 2299 0
-359 -2276 2277 0
-2277 2300 0
-360 -2277 2278 0
-2278 2301 0
-361 -2278 2279 0
-2279 2302 0
-362 -2279 2280 0
-2280 2303 0
-363 -2280 2281 0
-2281 2304 0
-364 -2281 2282 0
-2282 2305 0
-365 -2282 2283 0
-2283 2306 0
-366 -2283 2284 0
-2284 2307 0
-367 -2284 2285 0
-2285 2308 0
-368 -2285 2286 0
-2286 2309 0
-369 -2286 2287 0
-2287 2310 0
-370 -2287 2288 0
-2288 2311 0
-371 -2288 2289 0
-2289 2312 0
-372 -2289 2290 0
-2290 2313 0
-373 -2290 0
-351 2291 0
-2291 2314 0
-352 -2291 2292 0
-2292 2315 0
-353 -2292 2293 0
-2293 2316 0
-354 -2293 2294 0
-2294 2317 0
-355 -2294 2295 0
-2295 2318 0
-356 -2295 2296 0
-2296 2319 0
-357 -2296 2297 0
-2297 2320 0
-358 -2297 2298 0
-2298 2321 0
-359 -2298 2299 0
-2299 2322 0
-360 -2299 2300 0
-2300 2323 0
-361 -2300 2301 0
-2301 2324 0
-362 -2301 2302 0
-2302 2325 0
-363 -2302 2303 0
-2303 2326 0
-364 -2303 2304 0
-2304 2327 0
-365 -2304 2305 0
-2305 2328 0
-366 -2305 2306 0
-2306 2329 0
-367 -2306 2307 0
-2307 2330 0
-368 -2307 2308 0
-2308 2331 0
-369 -2308 2309 0
-2309 2332 0
-370 -2309 2310 0
-2310 2333 0
-371 -2310 2311 0
-2311 2334 0
-372 -2311 2312 0
-2312 2335 0
-373 -2312 2313 0
-2313 2336 0
-374 -2313 0
-352 2314 0
-2314 2337 0
-353 -2314 2315 0
-2315 2338 0
-354 -2315 2316 0
-2316 2339 0
-355 -2316 2317 0
-2317 2340 0
-356 -2317 2318 0
-2318 2341 0
-357 -2318 2319 0
-2319 2342 0
-358 -2319 2320 0
-2320 2343 0
-359 -2320 2321 0
-2321 2344 0
-360 -2321 2322 0
-2322 2345 0
-361 -2322 2323 0
-2323 2346 0
-362 -2323 2324 0
-2324 2347 0
-363 -2324 2325 0
-2325 2348 0
-364 -2325 2326 0
-2326 2349 0
-365 -2326 2327 0
-2327 2350 0
-366 -2327 2328 0
-2328 2351 0
-367 -2328 2329 0
-2329 2352 0
-368 -2329 2330 0
-2330 2353 0
-369 -2330 2331 0
-2331 2354 0
-370 -2331 2332 0
-2332 2355 0
-371 -2332 2333 0
-2333 2356 0
-372 -2333 2334 0
-2334 2357 0
-373 -2334 2335 0
-2335 2358 0
-374 -2335 2336 0
-2336 2359 0
-375 -2336 0
-353 2337 0
-2337 2360 0
-354 -2337 2338 0
-2338 2361 0
-355 -2338 2339 0
-2339 2362 0
-356 -2339 2340 0
-2340 2363 0
-357 -2340 2341 0
-2341 2364 0
-358 -2341 2342 0
-2342 2365 0
-359 -2342 2343 0
-2343 2366 0
-360 -2343 2344 0
-2344 2367 0
-361 -2344 2345 0
-2345 2368 0
-362 -2345 2346 0
-2346 2369 0
-363 -2346 2347 0
-2347 2370 0
-364 -2347 2348 0
-2348 2371 0
-365 -2348 2349 0
-2349 2372 0
-366 -2349 2350 0
-2350 2373 0
-367 -2350 2351 0
-2351 2374 0
-368 -2351 2352 0
-2352 2375 0
-369 -2352 2353 0
-2353 2376 0
-370 -2353 2354 0
-2354 2377 0
-371 -2354 2355 0
-2355 2378 0
-372 -2355 2356 0
-2356 2379 0
-373 -2356 2357 0
-2357 2380 0
-374 -2357 2358 0
-2358 2381 0
-375 -2358 2359 0
-2359 2382 0
-376 -2359 0
-354 2360 0
-2360 2383 0
-355 -2360 2361 0
-2361 2384 0
-356 -2361 2362 0
-2362 2385 0
-357 -2362 2363 0
-2363 2386 0
-358 -2363 2364 0
-2364 2387 0
-359 -2364 2365 0
-2365 2388 0
-360 -2365 2366 0
-2366 2389 0
-361 -2366 2367 0
-2367 2390 0
-362 -2367 2368 0
-2368 2391 0
-363 -2368 2369 0
-2369 2392 0
-364 -2369 2370 0
-2370 2393 0
-365 -2370 2371 0
-2371 2394 0
-366 -2371 2372 0
-2372 2395 0
-367 -2372 2373 0
-2373 2396 0
-368 -2373 2374 0
-2374 2397 0
-369 -2374 2375 0
-2375 2398 0
-370 -2375 2376 0
-2376 2399 0
-371 -2376 2377 0
-2377 2400 0
-372 -2377 2378 0
-2378 2401 0
-373 -2378 2379 0
-2379 2402 0
-374 -2379 2380 0
-2380 2403 0
-375 -2380 2381 0
-2381 2404 0
-376 -2381 2382 0
-2382 2405 0
-377 -2382 0
-355 2383 0
-2383 2406 0
-356 -2383 2384 0
-2384 2407 0
-357 -2384 2385 0
-2385 2408 0
-358 -2385 2386 0
-2386 2409 0
-359 -2386 2387 0
-2387 2410 0
-360 -2387 2388 0
-2388 2411 0
-361 -2388 2389 0
-2389 2412 0
-362 -2389 2390 0
-2390 2413 0
-363 -2390 2391 0
-2391 2414 0
-364 -2391 2392 0
-2392 2415 0
-365 -2392 2393 0
-2393 2416 0
-366 -2393 2394 0
-2394 2417 0
-367 -2394 2395 0
-2395 2418 0
-368 -2395 2396 0
-2396 2419 0
-369 -2396 2397 0
-2397 2420 0
-370 -2397 2398 0
-2398 2421 0
-371 -2398 2399 0
-2399 2422 0
-372 -2399 2400 0
-2400 2423 0
-373 -2400 2401 0
-2401 2424 0
-374 -2401 2402 0
-2402 2425 0
-375 -2402 2403 0
-2403 2426 0
-376 -2403 2404 0
-2404 2427 0
-377 -2404 2405 0
-2405 2428 0
-378 -2405 0
-356 2406 0
-2406 2429 0
-357 -2406 2407 0
-2407 2430 0
-358 -2407 2408 0
-2408 2431 0
-359 -2408 2409 0
-2409 2432 0
-360 -2409 2410 0
-2410 2433 0
-361 -2410 2411 0
-2411 2434 0
-362 -2411 2412 0
-2412 2435 0
-363 -2412 2413 0
-2413 2436 0
-364 -2413 2414 0
-2414 2437 0
-365 -2414 2415 0
-2415 2438 0
-366 -2415 2416 0
-2416 2439 0
-367 -2416 2417 0
-2417 2440 0
-368 -2417 2418 0
-2418 2441 0
-369 -2418 2419 0
-2419 2442 0
-370 -2419 2420 0
-2420 2443 0
-371 -2420 2421 0
-2421 2444 0
-372 -2421 2422 0
-2422 2445 0
-373 -2422 2423 0
-2423 2446 0
-374 -2423 2424 0
-2424 2447 0
-375 -2424 2425 0
-2425 2448 0
-376 -2425 2426 0
-2426 2449 0
-377 -2426 2427 0
-2427 2450 0
-378 -2427 2428 0
-2428 2451 0
-379 -2428 0
-357 2429 0
-2429 2452 0
-358 -2429 2430 0
-2430 2453 0
-359 -2430 2431 0
-2431 2454 0
-360 -2431 2432 0
-2432 2455 0
-361 -2432 2433 0
-2433 2456 0
-362 -2433 2434 0
-2434 2457 0
-363 -2434 2435 0
-2435 2458 0
-364 -2435 2436 0
-2436 2459 0
-365 -2436 2437 0
-2437 2460 0
-366 -2437 2438 0
-2438 2461 0
-367 -2438 2439 0
-2439 2462 0
-368 -2439 2440 0
-2440 2463 0
-369 -2440 2441 0
-2441 2464 0
-370 -2441 2442 0
-2442 2465 0
-371 -2442 2443 0
-2443 2466 0
-372 -2443 2444 0
-2444 2467 0
-373 -2444 2445 0
-2445 2468 0
-374 -2445 2446 0
-2446 2469 0
-375 -2446 2447 0
-2447 2470 0
-376 -2447 2448 0
-2448 2471 0
-377 -2448 2449 0
-2449 2472 0
-378 -2449 2450 0
-2450 2473 0
-379 -2450 2451 0
-2451 2474 0
-380 -2451 0
-358 2452 0
-2452 2475 0
-359 -2452 2453 0
-2453 2476 0
-360 -2453 2454 0
-2454 2477 0
-361 -2454 2455 0
-2455 2478 0
-362 -2455 2456 0
-2456 2479 0
-363 -2456 2457 0
-2457 2480 0
-364 -2457 2458 0
-2458 2481 0
-365 -2458 2459 0
-2459 2482 0
-366 -2459 2460 0
-2460 2483 0
-367 -2460 2461 0
-2461 2484 0
-368 -2461 2462 0
-2462 2485 0
-369 -2462 2463 0
-2463 2486 0
-370 -2463 2464 0
-2464 2487 0
-371 -2464 2465 0
-2465 2488 0
-372 -2465 2466 0
-2466 2489 0
-373 -2466 2467 0
-2467 2490 0
-374 -2467 2468 0
-2468 2491 0
-375 -2468 2469 0
-2469 2492 0
-376 -2469 2470 0
-2470 2493 0
-377 -2470 2471 0
-2471 2494 0
-378 -2471 2472 0
-2472 2495 0
-379 -2472 2473 0
-2473 2496 0
-380 -2473 2474 0
-2474 2497 0
-381 -2474 0
-359 2475 0
-2475 2498 0
-360 -2475 2476 0
-2476 2499 0
-361 -2476 2477 0
-2477 2500 0
-362 -2477 2478 0
-2478 2501 0
-363 -2478 2479 0
-2479 2502 0
-364 -2479 2480 0
-2480 2503 0
-365 -2480 2481 0
-2481 2504 0
-366 -2481 2482 0
-2482 2505 0
-367 -2482 2483 0
-2483 2506 0
-368 -2483 2484 0
-2484 2507 0
-369 -2484 2485 0
-2485 2508 0
-370 -2485 2486 0
-2486 2509 0
-371 -2486 2487 0
-2487 2510 0
-372 -2487 2488 0
-2488 2511 0
-373 -2488 2489 0
-2489 2512 0
-374 -2489 2490 0
-2490 2513 0
-375 -2490 2491 0
-2491 2514 0
-376 -2491 2492 0
-2492 2515 0
-377 -2492 2493 0
-2493 2516 0
-378 -2493 2494 0
-2494 2517 0
-379 -2494 2495 0
-2495 2518 0
-380 -2495 2496 0
-2496 2519 0
-381 -2496 2497 0
-2497 2520 0
-382 -2497 0
-360 2498 0
-2498 2521 0
-361 -2498 2499 0
-2499 2522 0
-362 -2499 2500 0
-2500 2523 0
-363 -2500 2501 0
-2501 2524 0
-364 -2501 2502 0
-2502 2525 0
-365 -2502 2503 0
-2503 2526 0
-366 -2503 2504 0
-2504 2527 0
-367 -2504 2505 0
-2505 2528 0
-368 -2505 2506 0
-2506 2529 0
-369 -2506 2507 0
-2507 2530 0
-370 -2507 2508 0
-2508 2531 0
-371 -2508 2509 0
-2509 2532 0
-372 -2509 2510 0
-2510 2533 0
-373 -2510 2511 0
-2511 2534 0
-374 -2511 2512 0
-2512 2535 0
-375 -2512 2513 0
-2513 2536 0
-376 -2513 2514 0
-2514 2537 0
-377 -2514 2515 0
-2515 2538 0
-378 -2515 2516 0
-2516 2539 0
-379 -2516 2517 0
-2517 2540 0
-380 -2517 2518 0
-2518 2541 0
-381 -2518 2519 0
-2519 2542 0
-382 -2519 2520 0
-2520 2543 0
-383 -2520 0
-361 2521 0
-2521 2544 0
-362 -2521 2522 0
-2522 2545 0
-363 -2522 2523 0
-2523 2546 0
-364 -2523 2524 0
-2524 2547 0
-365 -2524 2525 0
-2525 2548 0
-366 -2525 2526 0
-2526 2549 0
-367 -2526 2527 0
-2527 2550 0
-368 -2527 2528 0
-2528 2551 0
-369 -2528 2529 0
-2529 2552 0
-370 -2529 2530 0
-2530 2553 0
-371 -2530 2531 0
-2531 2554 0
-372 -2531 2532 0
-2532 2555 0
-373 -2532 2533 0
-2533 2556 0
-374 -2533 2534 0
-2534 2557 0
-375 -2534 2535 0
-2535 2558 0
-376 -2535 2536 0
-2536 2559 0
-377 -2536 2537 0
-2537 2560 0
-378 -2537 2538 0
-2538 2561 0
-379 -2538 2539 0
-2539 2562 0
-380 -2539 2540 0
-2540 2563 0
-381 -2540 2541 0
-2541 2564 0
-382 -2541 2542 0
-2542 2565 0
-383 -2542 2543 0
-2543 2566 0
-384 -2543 0
-362 2544 0
-2544 2567 0
-363 -2544 2545 0
-2545 2568 0
-364 -2545 2546 0
-2546 2569 0
-365 -2546 2547 0
-2547 2570 0
-366 -2547 2548 0
-2548 2571 0
-367 -2548 2549 0
-2549 2572 0
-368 -2549 2550 0
-2550 2573 0
-369 -2550 2551 0
-2551 2574 0
-370 -2551 2552 0
-2552 2575 0
-371 -2552 2553 0
-2553 2576 0
-372 -2553 2554 0
-2554 2577 0
-373 -2554 2555 0
-2555 2578 0
-374 -2555 2556 0
-2556 2579 0
-375 -2556 2557 0
-2557 2580 0
-376 -2557 2558 0
-2558 2581 0
-377 -2558 2559 0
-2559 2582 0
-378 -2559 2560 0
-2560 2583 0
-379 -2560 2561 0
-2561 2584 0
-380 -2561 2562 0
-2562 2585 0
-381 -2562 2563 0
-2563 2586 0
-382 -2563 2564 0
-2564 2587 0
-383 -2564 2565 0
-2565 2588 0
-384 -2565 2566 0
-2566 2589 0
-385 -2566 0
-363 2567 0
-2567 2590 0
-364 -2567 2568 0
-2568 2591 0
-365 -2568 2569 0
-2569 2592 0
-366 -2569 2570 0
-2570 2593 0
-367 -2570 2571 0
-2571 2594 0
-368 -2571 2572 0
-2572 2595 0
-369 -2572 2573 0
-2573 2596 0
-370 -2573 2574 0
-2574 2597 0
-371 -2574 2575 0
-2575 2598 0
-372 -2575 2576 0
-2576 2599 0
-373 -2576 2577 0
-2577 2600 0
-374 -2577 2578 0
-2578 2601 0
-375 -2578 2579 0
-2579 2602 0
-376 -2579 2580 0
-2580 2603 0
-377 -2580 2581 0
-2581 2604 0
-378 -2581 2582 0
-2582 2605 0
-379 -2582 2583 0
-2583 2606 0
-380 -2583 2584 0
-2584 2607 0
-381 -2584 2585 0
-2585 2608 0
-382 -2585 2586 0
-2586 2609 0
-383 -2586 2587 0
-2587 2610 0
-384 -2587 2588 0
-2588 2611 0
-385 -2588 2589 0
-2589 2612 0
-386 -2589 0
-364 2590 0
-2590 2613 0
-365 -2590 2591 0
-2591 2614 0
-366 -2591 2592 0
-2592 2615 0
-367 -2592 2593 0
-2593 2616 0
-368 -2593 2594 0
-2594 2617 0
-369 -2594 2595 0
-2595 2618 0
-370 -2595 2596 0
-2596 2619 0
-371 -2596 2597 0
-2597 2620 0
-372 -2597 2598 0
-2598 2621 0
-373 -2598 2599 0
-2599 2622 0
-374 -2599 2600 0
-2600 2623 0
-375 -2600 2601 0
-2601 2624 0
-376 -2601 2602 0
-2602 2625 0
-377 -2602 2603 0
-2603 2626 0
-378 -2603 2604 0
-2604 2627 0
-379 -2604 2605 0
-2605 2628 0
-380 -2605 2606 0
-2606 2629 0
-381 -2606 2607 0
-2607 2630 0
-382 -2607 2608 0
-2608 2631 0
-383 -2608 2609 0
-2609 2632 0
-384 -2609 2610 0
-2610 2633 0
-385 -2610 2611 0
-2611 2634 0
-386 -2611 2612 0
-2612 2635 0
-387 -2612 0
-365 2613 0
-2613 2636 0
-366 -2613 2614 0
-2614 2637 0
-367 -2614 2615 0
-2615 2638 0
-368 -2615 2616 0
-2616 2639 0
-369 -2616 2617 0
-2617 2640 0
-370 -2617 2618 0
-2618 2641 0
-371 -2618 2619 0
-2619 2642 0
-372 -2619 2620 0
-2620 2643 0
-373 -2620 2621 0
-2621 2644 0
-374 -2621 2622 0
-2622 2645 0
-375 -2622 2623 0
-2623 2646 0
-376 -2623 2624 0
-2624 2647 0
-377 -2624 2625 0
-2625 2648 0
-378 -2625 2626 0
-2626 2649 0
-379 -2626 2627 0
-2627 2650 0
-380 -2627 2628 0
-2628 2651 0
-381 -2628 2629 0
-2629 2652 0
-382 -2629 2630 0
-2630 2653 0
-383 -2630 2631 0
-2631 2654 0
-384 -2631 2632 0
-2632 2655 0
-385 -2632 2633 0
-2633 2656 0
-386 -2633 2634 0
-2634 2657 0
-387 -2634 2635 0
-2635 2658 0
-388 -2635 0
-366 2636 0
-2636 2659 0
-367 -2636 2637 0
-2637 2660 0
-368 -2637 2638 0
-2638 2661 0
-369 -2638 2639 0
-2639 2662 0
-370 -2639 2640 0
-2640 2663 0
-371 -2640 2641 0
-2641 2664 0
-372 -2641 2642 0
-2642 2665 0
-373 -2642 2643 0
-2643 2666 0
-374 -2643 2644 0
-2644 2667 0
-375 -2644 2645 0
-2645 2668 0
-376 -2645 2646 0
-2646 2669 0
-377 -2646 2647 0
-2647 2670 0
-378 -2647 2648 0
-2648 2671 0
-379 -2648 2649 0
-2649 2672 0
-380 -2649 2650 0
-2650 2673 0
-381 -2650 2651 0
-2651 2674 0
-382 -2651 2652 0
-2652 2675 0
-383 -2652 2653 0
-2653 2676 0
-384 -2653 2654 0
-2654 2677 0
-385 -2654 2655 0
-2655 2678 0
-386 -2655 2656 0
-2656 2679 0
-387 -2656 2657 0
-2657 2680 0
-388 -2657 2658 0
-2658 2681 0
-389 -2658 0
-367 2659 0
-2659 2682 0
-368 -2659 2660 0
-2660 2683 0
-369 -2660 2661 0
-2661 2684 0
-370 -2661 2662 0
-2662 2685 0
-371 -2662 2663 0
-2663 2686 0
-372 -2663 2664 0
-2664 2687 0
-373 -2664 2665 0
-2665 2688 0
-374 -2665 2666 0
-2666 2689 0
-375 -2666 2667 0
-2667 2690 0
-376 -2667 2668 0
-2668 2691 0
-377 -2668 2669 0
-2669 2692 0
-378 -2669 2670 0
-2670 2693 0
-379 -2670 2671 0
-2671 2694 0
-380 -2671 2672 0
-2672 2695 0
-381 -2672 2673 0
-2673 2696 0
-382 -2673 2674 0
-2674 2697 0
-383 -2674 2675 0
-2675 2698 0
-384 -2675 2676 0
-2676 2699 0
-385 -2676 2677 0
-2677 2700 0
-386 -2677 2678 0
-2678 2701 0
-387 -2678 2679 0
-2679 2702 0
-388 -2679 2680 0
-2680 2703 0
-389 -2680 2681 0
-2681 2704 0
-390 -2681 0
-368 2682 0
-2682 2705 0
-369 -2682 2683 0
-2683 2706 0
-370 -2683 2684 0
-2684 2707 0
-371 -2684 2685 0
-2685 2708 0
-372 -2685 2686 0
-2686 2709 0
-373 -2686 2687 0
-2687 2710 0
-374 -2687 2688 0
-2688 2711 0
-375 -2688 2689 0
-2689 2712 0
-376 -2689 2690 0
-2690 2713 0
-377 -2690 2691 0
-2691 2714 0
-378 -2691 2692 0
-2692 2715 0
-379 -2692 2693 0
-2693 2716 0
-380 -2693 2694 0
-2694 2717 0
-381 -2694 2695 0
-2695 2718 0
-382 -2695 2696 0
-2696 2719 0
-383 -2696 2697 0
-2697 2720 0
-384 -2697 2698 0
-2698 2721 0
-385 -2698 2699 0
-2699 2722 0
-386 -2699 2700 0
-2700 2723 0
-387 -2700 2701 0
-2701 2724 0
-388 -2701 2702 0
-2702 2725 0
-389 -2702 2703 0
-2703 2726 0
-390 -2703 2704 0
-2704 2727 0
-391 -2704 0
-369 2705 0
-2705 2728 0
-370 -2705 2706 0
-2706 2729 0
-371 -2706 2707 0
-2707 2730 0
-372 -2707 2708 0
-2708 2731 0
-373 -2708 2709 0
-2709 2732 0
-374 -2709 2710 0
-2710 2733 0
-375 -2710 2711 0
-2711 2734 0
-376 -2711 2712 0
-2712 2735 0
-377 -2712 2713 0
-2713 2736 0
-378 -2713 2714 0
-2714 2737 0
-379 -2714 2715 0
-2715 2738 0
-380 -2715 2716 0
-2716 2739 0
-381 -2716 2717 0
-2717 2740 0
-382 -2717 2718 0
-2718 2741 0
-383 -2718 2719 0
-2719 2742 0
-384 -2719 2720 0
-2720 2743 0
-385 -2720 2721 0
-2721 2744 0
-386 -2721 2722 0
-2722 2745 0
-387 -2722 2723 0
-2723 2746 0
-388 -2723 2724 0
-2724 2747 0
-389 -2724 2725 0
-2725 2748 0
-390 -2725 2726 0
-2726 2749 0
-391 -2726 2727 0
-2727 2750 0
-392 -2727 0
-370 2728 0
-2728 2751 0
-371 -2728 2729 0
-2729 2752 0
-372 -2729 2730 0
-2730 2753 0
-373 -2730 2731 0
-2731 2754 0
-374 -2731 2732 0
-2732 2755 0
-375 -2732 2733 0
-2733 2756 0
-376 -2733 2734 0
-2734 2757 0
-377 -2734 2735 0
-2735 2758 0
-378 -2735 2736 0
-2736 2759 0
-379 -2736 2737 0
-2737 2760 0
-380 -2737 2738 0
-2738 2761 0
-381 -2738 2739 0
-2739 2762 0
-382 -2739 2740 0
-2740 2763 0
-383 -2740 2741 0
-2741 2764 0
-384 -2741 2742 0
-2742 2765 0
-385 -2742 2743 0
-2743 2766 0
-386 -2743 2744 0
-2744 2767 0
-387 -2744 2745 0
-2745 2768 0
-388 -2745 2746 0
-2746 2769 0
-389 -2746 2747 0
-2747 2770 0
-390 -2747 2748 0
-2748 2771 0
-391 -2748 2749 0
-2749 2772 0
-392 -2749 2750 0
-2750 2773 0
-393 -2750 0
-371 2751 0
-2751 2774 0
-372 -2751 2752 0
-2752 2775 0
-373 -2752 2753 0
-2753 2776 0
-374 -2753 2754 0
-2754 2777 0
-375 -2754 2755 0
-2755 2778 0
-376 -2755 2756 0
-2756 2779 0
-377 -2756 2757 0
-2757 2780 0
-378 -2757 2758 0
-2758 2781 0
-379 -2758 2759 0
-2759 2782 0
-380 -2759 2760 0
-2760 2783 0
-381 -2760 2761 0
-2761 2784 0
-382 -2761 2762 0
-2762 2785 0
-383 -2762 2763 0
-2763 2786 0
-384 -2763 2764 0
-2764 2787 0
-385 -2764 2765 0
-2765 2788 0
-386 -2765 2766 0
-2766 2789 0
-387 -2766 2767 0
-2767 2790 0
-388 -2767 2768 0
-2768 2791 0
-389 -2768 2769 0
-2769 2792 0
-390 -2769 2770 0
-2770 2793 0
-391 -2770 2771 0
-2771 2794 0
-392 -2771 2772 0
-2772 2795 0
-393 -2772 2773 0
-2773 2796 0
-394 -2773 0
-372 2774 0
-2774 2797 0
-373 -2774 2775 0
-2775 2798 0
-374 -2775 2776 0
-2776 2799 0
-375 -2776 2777 0
-2777 2800 0
-376 -2777 2778 0
-2778 2801 0
-377 -2778 2779 0
-2779 2802 0
-378 -2779 2780 0
-2780 2803 0
-379 -2780 2781 0
-2781 2804 0
-380 -2781 2782 0
-2782 2805 0
-381 -2782 2783 0
-2783 2806 0
-382 -2783 2784 0
-2784 2807 0
-383 -2784 2785 0
-2785 2808 0
-384 -2785 2786 0
-2786 2809 0
-385 -2786 2787 0
-2787 2810 0
-386 -2787 2788 0
-2788 2811 0
-387 -2788 2789 0
-2789 2812 0
-388 -2789 2790 0
-2790 2813 0
-389 -2790 2791 0
-2791 2814 0
-390 -2791 2792 0
-2792 2815 0
-391 -2792 2793 0
-2793 2816 0
-392 -2793 2794 0
-2794 2817 0
-393 -2794 2795 0
-2795 2818 0
-394 -2795 2796 0
-2796 2819 0
-395 -2796 0
-373 2797 0
-2797 2820 0
-374 -2797 2798 0
-2798 2821 0
-375 -2798 2799 0
-2799 2822 0
-376 -2799 2800 0
-2800 2823 0
-377 -2800 2801 0
-2801 2824 0
-378 -2801 2802 0
-2802 2825 0
-379 -2802 2803 0
-2803 2826 0
-380 -2803 2804 0
-2804 2827 0
-381 -2804 2805 0
-2805 2828 0
-382 -2805 2806 0
-2806 2829 0
-383 -2806 2807 0
-2807 2830 0
-384 -2807 2808 0
-2808 2831 0
-385 -2808 2809 0
-2809 2832 0
-386 -2809 2810 0
-2810 2833 0
-387 -2810 2811 0
-2811 2834 0
-388 -2811 2812 0
-2812 2835 0
-389 -2812 2813 0
-2813 2836 0
-390 -2813 2814 0
-2814 2837 0
-391 -2814 2815 0
-2815 2838 0
-392 -2815 2816 0
-2816 2839 0
-393 -2816 2817 0
-2817 2840 0
-394 -2817 2818 0
-2818 2841 0
-395 -2818 2819 0
-2819 2842 0
-396 -2819 0
-374 2820 0
-2820 2843 0
-375 -2820 2821 0
-2821 2844 0
-376 -2821 2822 0
-2822 2845 0
-377 -2822 2823 0
-2823 2846 0
-378 -2823 2824 0
-2824 2847 0
-379 -2824 2825 0
-2825 2848 0
-380 -2825 2826 0
-2826 2849 0
-381 -2826 2827 0
-2827 2850 0
-382 -2827 2828 0
-2828 2851 0
-383 -2828 2829 0
-2829 2852 0
-384 -2829 2830 0
-2830 2853 0
-385 -2830 2831 0
-2831 2854 0
-386 -2831 2832 0
-2832 2855 0
-387 -2832 2833 0
-2833 2856 0
-388 -2833 2834 0
-2834 2857 0
-389 -2834 2835 0
-2835 2858 0
-390 -2835 2836 0
-2836 2859 0
-391 -2836 2837 0
-2837 2860 0
-392 -2837 2838 0
-2838 2861 0
-393 -2838 2839 0
-2839 2862 0
-394 -2839 2840 0
-2840 2863 0
-395 -2840 2841 0
-2841 2864 0
-396 -2841 2842 0
-2842 2865 0
-397 -2842 0
-375 2843 0
-2843 2866 0
-376 -2843 2844 0
-2844 2867 0
-377 -2844 2845 0
-2845 2868 0
-378 -2845 2846 0
-2846 2869 0
-379 -2846 2847 0
-2847 2870 0
-380 -2847 2848 0
-2848 2871 0
-381 -2848 2849 0
-2849 2872 0
-382 -2849 2850 0
-2850 2873 0
-383 -2850 2851 0
-2851 2874 0
-384 -2851 2852 0
-2852 2875 0
-385 -2852 2853 0
-2853 2876 0
-386 -2853 2854 0
-2854 2877 0
-387 -2854 2855 0
-2855 2878 0
-388 -2855 2856 0
-2856 2879 0
-389 -2856 2857 0
-2857 2880 0
-390 -2857 2858 0
-2858 2881 0
-391 -2858 2859 0
-2859 2882 0
-392 -2859 2860 0
-2860 2883 0
-393 -2860 2861 0
-2861 2884 0
-394 -2861 2862 0
-2862 2885 0
-395 -2862 2863 0
-2863 2886 0
-396 -2863 2864 0
-2864 2887 0
-397 -2864 2865 0
-2865 2888 0
-398 -2865 0
-376 2866 0
-2866 2889 0
-377 -2866 2867 0
-2867 2890 0
-378 -2867 2868 0
-2868 2891 0
-379 -2868 2869 0
-2869 2892 0
-380 -2869 2870 0
-2870 2893 0
-381 -2870 2871 0
-2871 2894 0
-382 -2871 2872 0
-2872 2895 0
-383 -2872 2873 0
-2873 2896 0
-384 -2873 2874 0
-2874 2897 0
-385 -2874 2875 0
-2875 2898 0
-386 -2875 2876 0
-2876 2899 0
-387 -2876 2877 0
-2877 2900 0
-388 -2877 2878 0
-2878 2901 0
-389 -2878 2879 0
-2879 2902 0
-390 -2879 2880 0
-2880 2903 0
-391 -2880 2881 0
-2881 2904 0
-392 -2881 2882 0
-2882 2905 0
-393 -2882 2883 0
-2883 2906 0
-394 -2883 2884 0
-2884 2907 0
-395 -2884 2885 0
-2885 2908 0
-396 -2885 2886 0
-2886 2909 0
-397 -2886 2887 0
-2887 2910 0
-398 -2887 2888 0
-2888 2911 0
-399 -2888 0
-377 2889 0
-2889 2912 0
-378 -2889 2890 0
-2890 2913 0
-379 -2890 2891 0
-2891 2914 0
-380 -2891 2892 0
-2892 2915 0
-381 -2892 2893 0
-2893 2916 0
-382 -2893 2894 0
-2894 2917 0
-383 -2894 2895 0
-2895 2918 0
-384 -2895 2896 0
-2896 2919 0
-385 -2896 2897 0
-2897 2920 0
-386 -2897 2898 0
-2898 2921 0
-387 -2898 2899 0
-2899 2922 0
-388 -2899 2900 0
-2900 2923 0
-389 -2900 2901 0
-2901 2924 0
-390 -2901 2902 0
-2902 2925 0
-391 -2902 2903 0
-2903 2926 0
-392 -2903 2904 0
-2904 2927 0
-393 -2904 2905 0
-2905 2928 0
-394 -2905 2906 0
-2906 2929 0
-395 -2906 2907 0
-2907 2930 0
-396 -2907 2908 0
-2908 2931 0
-397 -2908 2909 0
-2909 2932 0
-398 -2909 2910 0
-2910 2933 0
-399 -2910 2911 0
-2911 2934 0
-400 -2911 0
-378 2912 0
-2912 2935 0
-379 -2912 2913 0
-2913 2936 0
-380 -2913 2914 0
-2914 2937 0
-381 -2914 2915 0
-2915 2938 0
-382 -2915 2916 0
-2916 2939 0
-383 -2916 2917 0
-2917 2940 0
-384 -2917 2918 0
-2918 2941 0
-385 -2918 2919 0
-2919 2942 0
-386 -2919 2920 0
-2920 2943 0
-387 -2920 2921 0
-2921 2944 0
-388 -2921 2922 0
-2922 2945 0
-389 -2922 2923 0
-2923 2946 0
-390 -2923 2924 0
-2924 2947 0
-391 -2924 2925 0
-2925 2948 0
-392 -2925 2926 0
-2926 2949 0
-393 -2926 2927 0
-2927 2950 0
-394 -2927 2928 0
-2928 2951 0
-395 -2928 2929 0
-2929 2952 0
-396 -2929 2930 0
-2930 2953 0
-397 -2930 2931 0
-2931 2954 0
-398 -2931 2932 0
-2932 2955 0
-399 -2932 2933 0
-2933 2956 0
-400 -2933 2934 0
-2934 2957 0
-401 -2934 0
-379 2935 0
-2935 2958 0
-380 -2935 2936 0
-2936 2959 0
-381 -2936 2937 0
-2937 2960 0
-382 -2937 2938 0
-2938 2961 0
-383 -2938 2939 0
-2939 2962 0
-384 -2939 2940 0
-2940 2963 0
-385 -2940 2941 0
-2941 2964 0
-386 -2941 2942 0
-2942 2965 0
-387 -2942 2943 0
-2943 2966 0
-388 -2943 2944 0
-2944 2967 0
-389 -2944 2945 0
-2945 2968 0
-390 -2945 2946 0
-2946 2969 0
-391 -2946 2947 0
-2947 2970 0
-392 -2947 2948 0
-2948 2971 0
-393 -2948 2949 0
-2949 2972 0
-394 -2949 2950 0
-2950 2973 0
-395 -2950 2951 0
-2951 2974 0
-396 -2951 2952 0
-2952 2975 0
-397 -2952 2953 0
-2953 2976 0
-398 -2953 2954 0
-2954 2977 0
-399 -2954 2955 0
-2955 2978 0
-400 -2955 2956 0
-2956 2979 0
-401 -2956 2957 0
-2957 2980 0
-402 -2957 0
-380 2958 0
-2958 2981 0
-381 -2958 2959 0
-2959 2982 0
-382 -2959 2960 0
-2960 2983 0
-383 -2960 2961 0
-2961 2984 0
-384 -2961 2962 0
-2962 2985 0
-385 -2962 2963 0
-2963 2986 0
-386 -2963 2964 0
-2964 2987 0
-387 -2964 2965 0
-2965 2988 0
-388 -2965 2966 0
-2966 2989 0
-389 -2966 2967 0
-2967 2990 0
-390 -2967 2968 0
-2968 2991 0
-391 -2968 2969 0
-2969 2992 0
-392 -2969 2970 0
-2970 2993 0
-393 -2970 2971 0
-2971 2994 0
-394 -2971 2972 0
-2972 2995 0
-395 -2972 2973 0
-2973 2996 0
-396 -2973 2974 0
-2974 2997 0
-397 -2974 2975 0
-2975 2998 0
-398 -2975 2976 0
-2976 2999 0
-399 -2976 2977 0
-2977 3000 0
-400 -2977 2978 0
-2978 3001 0
-401 -2978 2979 0
-2979 3002 0
-402 -2979 2980 0
-2980 3003 0
-403 -2980 0
-381 2981 0
-2981 3004 0
-382 -2981 2982 0
-2982 3005 0
-383 -2982 2983 0
-2983 3006 0
-384 -2983 2984 0
-2984 3007 0
-385 -2984 2985 0
-2985 3008 0
-386 -2985 2986 0
-2986 3009 0
-387 -2986 2987 0
-2987 3010 0
-388 -2987 2988 0
-2988 3011 0
-389 -2988 2989 0
-2989 3012 0
-390 -2989 2990 0
-2990 3013 0
-391 -2990 2991 0
-2991 3014 0
-392 -2991 2992 0
-2992 3015 0
-393 -2992 2993 0
-2993 3016 0
-394 -2993 2994 0
-2994 3017 0
-395 -2994 2995 0
-2995 3018 0
-396 -2995 2996 0
-2996 3019 0
-397 -2996 2997 0
-2997 3020 0
-398 -2997 2998 0
-2998 3021 0
-399 -2998 2999 0
-2999 3022 0
-400 -2999 3000 0
-3000 3023 0
-401 -3000 3001 0
-3001 3024 0
-402 -3001 3002 0
-3002 3025 0
-403 -3002 3003 0
-3003 3026 0
-404 -3003 0
-382 3004 0
-3004 3027 0
-383 -3004 3005 0
-3005 3028 0
-384 -3005 3006 0
-3006 3029 0
-385 -3006 3007 0
-3007 3030 0
-386 -3007 3008 0
-3008 3031 0
-387 -3008 3009 0
-3009 3032 0
-388 -3009 3010 0
-3010 3033 0
-389 -3010 3011 0
-3011 3034 0
-390 -3011 3012 0
-3012 3035 0
-391 -3012 3013 0
-3013 3036 0
-392 -3013 3014 0
-3014 3037 0
-393 -3014 3015 0
-3015 3038 0
-394 -3015 3016 0
-3016 3039 0
-395 -3016 3017 0
-3017 3040 0
-396 -3017 3018 0
-3018 3041 0
-397 -3018 3019 0
-3019 3042 0
-398 -3019 3020 0
-3020 3043 0
-399 -3020 3021 0
-3021 3044 0
-400 -3021 3022 0
-3022 3045 0
-401 -3022 3023 0
-3023 3046 0
-402 -3023 3024 0
-3024 3047 0
-403 -3024 3025 0
-3025 3048 0
-404 -3025 3026 0
-3026 3049 0
-405 -3026 0
-383 3027 0
-3027 3050 0
-384 -3027 3028 0
-3028 3051 0
-385 -3028 3029 0
-3029 3052 0
-386 -3029 3030 0
-3030 3053 0
-387 -3030 3031 0
-3031 3054 0
-388 -3031 3032 0
-3032 3055 0
-389 -3032 3033 0
-3033 3056 0
-390 -3033 3034 0
-3034 3057 0
-391 -3034 3035 0
-3035 3058 0
-392 -3035 3036 0
-3036 3059 0
-393 -3036 3037 0
-3037 3060 0
-394 -3037 3038 0
-3038 3061 0
-395 -3038 3039 0
-3039 3062 0
-396 -3039 3040 0
-3040 3063 0
-397 -3040 3041 0
-3041 3064 0
-398 -3041 3042 0
-3042 3065 0
-399 -3042 3043 0
-3043 3066 0
-400 -3043 3044 0
-3044 3067 0
-401 -3044 3045 0
-3045 3068 0
-402 -3045 3046 0
-3046 3069 0
-403 -3046 3047 0
-3047 3070 0
-404 -3047 3048 0
-3048 3071 0
-405 -3048 3049 0
-3049 3072 0
-406 -3049 0
-384 3050 0
-3050 3073 0
-385 -3050 3051 0
-3051 3074 0
-386 -3051 3052 0
-3052 3075 0
-387 -3052 3053 0
-3053 3076 0
-388 -3053 3054 0
-3054 3077 0
-389 -3054 3055 0
-3055 3078 0
-390 -3055 3056 0
-3056 3079 0
-391 -3056 3057 0
-3057 3080 0
-392 -3057 3058 0
-3058 3081 0
-393 -3058 3059 0
-3059 3082 0
-394 -3059 3060 0
-3060 3083 0
-395 -3060 3061 0
-3061 3084 0
-396 -3061 3062 0
-3062 3085 0
-397 -3062 3063 0
-3063 3086 0
-398 -3063 3064 0
-3064 3087 0
-399 -3064 3065 0
-3065 3088 0
-400 -3065 3066 0
-3066 3089 0
-401 -3066 3067 0
-3067 3090 0
-402 -3067 3068 0
-3068 3091 0
-403 -3068 3069 0
-3069 3092 0
-404 -3069 3070 0
-3070 3093 0
-405 -3070 3071 0
-3071 3094 0
-406 -3071 3072 0
-3072 3095 0
-407 -3072 0
-385 3073 0
-3073 3096 0
-386 -3073 3074 0
-3074 3097 0
-387 -3074 3075 0
-3075 3098 0
-388 -3075 3076 0
-3076 3099 0
-389 -3076 3077 0
-3077 3100 0
-390 -3077 3078 0
-3078 3101 0
-391 -3078 3079 0
-3079 3102 0
-392 -3079 3080 0
-3080 3103 0
-393 -3080 3081 0
-3081 3104 0
-394 -3081 3082 0
-3082 3105 0
-395 -3082 3083 0
-3083 3106 0
-396 -3083 3084 0
-3084 3107 0
-397 -3084 3085 0
-3085 3108 0
-398 -3085 3086 0
-3086 3109 0
-399 -3086 3087 0
-3087 3110 0
-400 -3087 3088 0
-3088 3111 0
-401 -3088 3089 0
-3089 3112 0
-402 -3089 3090 0
-3090 3113 0
-403 -3090 3091 0
-3091 3114 0
-404 -3091 3092 0
-3092 3115 0
-405 -3092 3093 0
-3093 3116 0
-406 -3093 3094 0
-3094 3117 0
-407 -3094 3095 0
-3095 3118 0
-408 -3095 0
-386 3096 0
-3096 3119 0
-387 -3096 3097 0
-3097 3120 0
-388 -3097 3098 0
-3098 3121 0
-389 -3098 3099 0
-3099 3122 0
-390 -3099 3100 0
-3100 3123 0
-391 -3100 3101 0
-3101 3124 0
-392 -3101 3102 0
-3102 3125 0
-393 -3102 3103 0
-3103 3126 0
-394 -3103 3104 0
-3104 3127 0
-395 -3104 3105 0
-3105 3128 0
-396 -3105 3106 0
-3106 3129 0
-397 -3106 3107 0
-3107 3130 0
-398 -3107 3108 0
-3108 3131 0
-399 -3108 3109 0
-3109 3132 0
-400 -3109 3110 0
-3110 3133 0
-401 -3110 3111 0
-3111 3134 0
-402 -3111 3112 0
-3112 3135 0
-403 -3112 3113 0
-3113 3136 0
-404 -3113 3114 0
-3114 3137 0
-405 -3114 3115 0
-3115 3138 0
-406 -3115 3116 0
-3116 3139 0
-407 -3116 3117 0
-3117 3140 0
-408 -3117 3118 0
-3118 3141 0
-409 -3118 0
-387 3119 0
-3119 3142 0
-388 -3119 3120 0
-3120 3143 0
-389 -3120 3121 0
-3121 3144 0
-390 -3121 3122 0
-3122 3145 0
-391 -3122 3123 0
-3123 3146 0
-392 -3123 3124 0
-3124 3147 0
-393 -3124 3125 0
-3125 3148 0
-394 -3125 3126 0
-3126 3149 0
-395 -3126 3127 0
-3127 3150 0
-396 -3127 3128 0
-3128 3151 0
-397 -3128 3129 0
-3129 3152 0
-398 -3129 3130 0
-3130 3153 0
-399 -3130 3131 0
-3131 3154 0
-400 -3131 3132 0
-3132 3155 0
-401 -3132 3133 0
-3133 3156 0
-402 -3133 3134 0
-3134 3157 0
-403 -3134 3135 0
-3135 3158 0
-404 -3135 3136 0
-3136 3159 0
-405 -3136 3137 0
-3137 3160 0
-406 -3137 3138 0
-3138 3161 0
-407 -3138 3139 0
-3139 3162 0
-408 -3139 3140 0
-3140 3163 0
-409 -3140 3141 0
-3141 3164 0
-410 -3141 0
-388 3142 0
-3142 3165 0
-389 -3142 3143 0
-3143 3166 0
-390 -3143 3144 0
-3144 3167 0
-391 -3144 3145 0
-3145 3168 0
-392 -3145 3146 0
-3146 3169 0
-393 -3146 3147 0
-3147 3170 0
-394 -3147 3148 0
-3148 3171 0
-395 -3148 3149 0
-3149 3172 0
-396 -3149 3150 0
-3150 3173 0
-397 -3150 3151 0
-3151 3174 0
-398 -3151 3152 0
-3152 3175 0
-399 -3152 3153 0
-3153 3176 0
-400 -3153 3154 0
-3154 3177 0
-401 -3154 3155 0
-3155 3178 0
-402 -3155 3156 0
-3156 3179 0
-403 -3156 3157 0
-3157 3180 0
-404 -3157 3158 0
-3158 3181 0
-405 -3158 3159 0
-3159 3182 0
-406 -3159 3160 0
-3160 3183 0
-407 -3160 3161 0
-3161 3184 0
-408 -3161 3162 0
-3162 3185 0
-409 -3162 3163 0
-3163 3186 0
-410 -3163 3164 0
-3164 3187 0
-411 -3164 0
-389 3165 0
-3165 3188 0
-390 -3165 3166 0
-3166 3189 0
-391 -3166 3167 0
-3167 3190 0
-392 -3167 3168 0
-3168 3191 0
-393 -3168 3169 0
-3169 3192 0
-394 -3169 3170 0
-3170 3193 0
-395 -3170 3171 0
-3171 3194 0
-396 -3171 3172 0
-3172 3195 0
-397 -3172 3173 0
-3173 3196 0
-398 -3173 3174 0
-3174 3197 0
-399 -3174 3175 0
-3175 3198 0
-400 -3175 3176 0
-3176 3199 0
-401 -3176 3177 0
-3177 3200 0
-402 -3177 3178 0
-3178 3201 0
-403 -3178 3179 0
-3179 3202 0
-404 -3179 3180 0
-3180 3203 0
-405 -3180 3181 0
-3181 3204 0
-406 -3181 3182 0
-3182 3205 0
-407 -3182 3183 0
-3183 3206 0
-408 -3183 3184 0
-3184 3207 0
-409 -3184 3185 0
-3185 3208 0
-410 -3185 3186 0
-3186 3209 0
-411 -3186 3187 0
-3187 3210 0
-412 -3187 0
-390 3188 0
-3188 3211 0
-391 -3188 3189 0
-3189 3212 0
-392 -3189 3190 0
-3190 3213 0
-393 -3190 3191 0
-3191 3214 0
-394 -3191 3192 0
-3192 3215 0
-395 -3192 3193 0
-3193 3216 0
-396 -3193 3194 0
-3194 3217 0
-397 -3194 3195 0
-3195 3218 0
-398 -3195 3196 0
-3196 3219 0
-399 -3196 3197 0
-3197 3220 0
-400 -3197 3198 0
-3198 3221 0
-401 -3198 3199 0
-3199 3222 0
-402 -3199 3200 0
-3200 3223 0
-403 -3200 3201 0
-3201 3224 0
-404 -3201 3202 0
-3202 3225 0
-405 -3202 3203 0
-3203 3226 0
-406 -3203 3204 0
-3204 3227 0
-407 -3204 3205 0
-3205 3228 0
-408 -3205 3206 0
-3206 3229 0
-409 -3206 3207 0
-3207 3230 0
-410 -3207 3208 0
-3208 3231 0
-411 -3208 3209 0
-3209 3232 0
-412 -3209 3210 0
-3210 3233 0
-413 -3210 0
-391 3211 0
-3211 3234 0
-392 -3211 3212 0
-3212 3235 0
-393 -3212 3213 0
-3213 3236 0
-394 -3213 3214 0
-3214 3237 0
-395 -3214 3215 0
-3215 3238 0
-396 -3215 3216 0
-3216 3239 0
-397 -3216 3217 0
-3217 3240 0
-398 -3217 3218 0
-3218 3241 0
-399 -3218 3219 0
-3219 3242 0
-400 -3219 3220 0
-3220 3243 0
-401 -3220 3221 0
-3221 3244 0
-402 -3221 3222 0
-3222 3245 0
-403 -3222 3223 0
-3223 3246 0
-404 -3223 3224 0
-3224 3247 0
-405 -3224 3225 0
-3225 3248 0
-406 -3225 3226 0
-3226 3249 0
-407 -3226 3227 0
-3227 3250 0
-408 -3227 3228 0
-3228 3251 0
-409 -3228 3229 0
-3229 3252 0
-410 -3229 3230 0
-3230 3253 0
-411 -3230 3231 0
-3231 3254 0
-412 -3231 3232 0
-3232 3255 0
-413 -3232 3233 0
-3233 3256 0
-414 -3233 0
-392 3234 0
-3234 3257 0
-393 -3234 3235 0
-3235 3258 0
-394 -3235 3236 0
-3236 3259 0
-395 -3236 3237 0
-3237 3260 0
-396 -3237 3238 0
-3238 3261 0
-397 -3238 3239 0
-3239 3262 0
-398 -3239 3240 0
-3240 3263 0
-399 -3240 3241 0
-3241 3264 0
-400 -3241 3242 0
-3242 3265 0
-401 -3242 3243 0
-3243 3266 0
-402 -3243 3244 0
-3244 3267 0
-403 -3244 3245 0
-3245 3268 0
-404 -3245 3246 0
-3246 3269 0
-405 -3246 3247 0
-3247 3270 0
-406 -3247 3248 0
-3248 3271 0
-407 -3248 3249 0
-3249 3272 0
-408 -3249 3250 0
-3250 3273 0
-409 -3250 3251 0
-3251 3274 0
-410 -3251 3252 0
-3252 3275 0
-411 -3252 3253 0
-3253 3276 0
-412 -3253 3254 0
-3254 3277 0
-413 -3254 3255 0
-3255 3278 0
-414 -3255 3256 0
-3256 3279 0
-415 -3256 0
-393 3257 0
-3257 3280 0
-394 -3257 3258 0
-3258 3281 0
-395 -3258 3259 0
-3259 3282 0
-396 -3259 3260 0
-3260 3283 0
-397 -3260 3261 0
-3261 3284 0
-398 -3261 3262 0
-3262 3285 0
-399 -3262 3263 0
-3263 3286 0
-400 -3263 3264 0
-3264 3287 0
-401 -3264 3265 0
-3265 3288 0
-402 -3265 3266 0
-3266 3289 0
-403 -3266 3267 0
-3267 3290 0
-404 -3267 3268 0
-3268 3291 0
-405 -3268 3269 0
-3269 3292 0
-406 -3269 3270 0
-3270 3293 0
-407 -3270 3271 0
-3271 3294 0
-408 -3271 3272 0
-3272 3295 0
-409 -3272 3273 0
-3273 3296 0
-410 -3273 3274 0
-3274 3297 0
-411 -3274 3275 0
-3275 3298 0
-412 -3275 3276 0
-3276 3299 0
-413 -3276 3277 0
-3277 3300 0
-414 -3277 3278 0
-3278 3301 0
-415 -3278 3279 0
-3279 3302 0
-416 -3279 0
-394 3280 0
-3280 3303 0
-395 -3280 3281 0
-3281 3304 0
-396 -3281 3282 0
-3282 3305 0
-397 -3282 3283 0
-3283 3306 0
-398 -3283 3284 0
-3284 3307 0
-399 -3284 3285 0
-3285 3308 0
-400 -3285 3286 0
-3286 3309 0
-401 -3286 3287 0
-3287 3310 0
-402 -3287 3288 0
-3288 3311 0
-403 -3288 3289 0
-3289 3312 0
-404 -3289 3290 0
-3290 3313 0
-405 -3290 3291 0
-3291 3314 0
-406 -3291 3292 0
-3292 3315 0
-407 -3292 3293 0
-3293 3316 0
-408 -3293 3294 0
-3294 3317 0
-409 -3294 3295 0
-3295 3318 0
-410 -3295 3296 0
-3296 3319 0
-411 -3296 3297 0
-3297 3320 0
-412 -3297 3298 0
-3298 3321 0
-413 -3298 3299 0
-3299 3322 0
-414 -3299 3300 0
-3300 3323 0
-415 -3300 3301 0
-3301 3324 0
-416 -3301 3302 0
-3302 3325 0
-417 -3302 0
-395 3303 0
-3303 3326 0
-396 -3303 3304 0
-3304 3327 0
-397 -3304 3305 0
-3305 3328 0
-398 -3305 3306 0
-3306 3329 0
-399 -3306 3307 0
-3307 3330 0
-400 -3307 3308 0
-3308 3331 0
-401 -3308 3309 0
-3309 3332 0
-402 -3309 3310 0
-3310 3333 0
-403 -3310 3311 0
-3311 3334 0
-404 -3311 3312 0
-3312 3335 0
-405 -3312 3313 0
-3313 3336 0
-406 -3313 3314 0
-3314 3337 0
-407 -3314 3315 0
-3315 3338 0
-408 -3315 3316 0
-3316 3339 0
-409 -3316 3317 0
-3317 3340 0
-410 -3317 3318 0
-3318 3341 0
-411 -3318 3319 0
-3319 3342 0
-412 -3319 3320 0
-3320 3343 0
-413 -3320 3321 0
-3321 3344 0
-414 -3321 3322 0
-3322 3345 0
-415 -3322 3323 0
-3323 3346 0
-416 -3323 3324 0
-3324 3347 0
-417 -3324 3325 0
-3325 3348 0
-418 -3325 0
-396 3326 0
-3326 3349 0
-397 -3326 3327 0
-3327 3350 0
-398 -3327 3328 0
-3328 3351 0
-399 -3328 3329 0
-3329 3352 0
-400 -3329 3330 0
-3330 3353 0
-401 -3330 3331 0
-3331 3354 0
-402 -3331 3332 0
-3332 3355 0
-403 -3332 3333 0
-3333 3356 0
-404 -3333 3334 0
-3334 3357 0
-405 -3334 3335 0
-3335 3358 0
-406 -3335 3336 0
-3336 3359 0
-407 -3336 3337 0
-3337 3360 0
-408 -3337 3338 0
-3338 3361 0
-409 -3338 3339 0
-3339 3362 0
-410 -3339 3340 0
-3340 3363 0
-411 -3340 3341 0
-3341 3364 0
-412 -3341 3342 0
-3342 3365 0
-413 -3342 3343 0
-3343 3366 0
-414 -3343 3344 0
-3344 3367 0
-415 -3344 3345 0
-3345 3368 0
-416 -3345 3346 0
-3346 3369 0
-417 -3346 3347 0
-3347 3370 0
-418 -3347 3348 0
-3348 3371 0
-419 -3348 0
-397 3349 0
-3349 3372 0
-398 -3349 3350 0
-3350 3373 0
-399 -3350 3351 0
-3351 3374 0
-400 -3351 3352 0
-3352 3375 0
-401 -3352 3353 0
-3353 3376 0
-402 -3353 3354 0
-3354 3377 0
-403 -3354 3355 0
-3355 3378 0
-404 -3355 3356 0
-3356 3379 0
-405 -3356 3357 0
-3357 3380 0
-406 -3357 3358 0
-3358 3381 0
-407 -3358 3359 0
-3359 3382 0
-408 -3359 3360 0
-3360 3383 0
-409 -3360 3361 0
-3361 3384 0
-410 -3361 3362 0
-3362 3385 0
-411 -3362 3363 0
-3363 3386 0
-412 -3363 3364 0
-3364 3387 0
-413 -3364 3365 0
-3365 3388 0
-414 -3365 3366 0
-3366 3389 0
-415 -3366 3367 0
-3367 3390 0
-416 -3367 3368 0
-3368 3391 0
-417 -3368 3369 0
-3369 3392 0
-418 -3369 3370 0
-3370 3393 0
-419 -3370 3371 0
-3371 3394 0
-420 -3371 0
-398 3372 0
-3372 3395 0
-399 -3372 3373 0
-3373 3396 0
-400 -3373 3374 0
-3374 3397 0
-401 -3374 3375 0
-3375 3398 0
-402 -3375 3376 0
-3376 3399 0
-403 -3376 3377 0
-3377 3400 0
-404 -3377 3378 0
-3378 3401 0
-405 -3378 3379 0
-3379 3402 0
-406 -3379 3380 0
-3380 3403 0
-407 -3380 3381 0
-3381 3404 0
-408 -3381 3382 0
-3382 3405 0
-409 -3382 3383 0
-3383 3406 0
-410 -3383 3384 0
-3384 3407 0
-411 -3384 3385 0
-3385 3408 0
-412 -3385 3386 0
-3386 3409 0
-413 -3386 3387 0
-3387 3410 0
-414 -3387 3388 0
-3388 3411 0
-415 -3388 3389 0
-3389 3412 0
-416 -3389 3390 0
-3390 3413 0
-417 -3390 3391 0
-3391 3414 0
-418 -3391 3392 0
-3392 3415 0
-419 -3392 3393 0
-3393 3416 0
-420 -3393 3394 0
-3394 3417 0
-421 -3394 0
-399 3395 0
-3395 3418 0
-400 -3395 3396 0
-3396 3419 0
-401 -3396 3397 0
-3397 3420 0
-402 -3397 3398 0
-3398 3421 0
-403 -3398 3399 0
-3399 3422 0
-404 -3399 3400 0
-3400 3423 0
-405 -3400 3401 0
-3401 3424 0
-406 -3401 3402 0
-3402 3425 0
-407 -3402 3403 0
-3403 3426 0
-408 -3403 3404 0
-3404 3427 0
-409 -3404 3405 0
-3405 3428 0
-410 -3405 3406 0
-3406 3429 0
-411 -3406 3407 0
-3407 3430 0
-412 -3407 3408 0
-3408 3431 0
-413 -3408 3409 0
-3409 3432 0
-414 -3409 3410 0
-3410 3433 0
-415 -3410 3411 0
-3411 3434 0
-416 -3411 3412 0
-3412 3435 0
-417 -3412 3413 0
-3413 3436 0
-418 -3413 3414 0
-3414 3437 0
-419 -3414 3415 0
-3415 3438 0
-420 -3415 3416 0
-3416 3439 0
-421 -3416 3417 0
-3417 3440 0
-422 -3417 0
-400 3418 0
-3418 3441 0
-401 -3418 3419 0
-3419 3442 0
-402 -3419 3420 0
-3420 3443 0
-403 -3420 3421 0
-3421 3444 0
-404 -3421 3422 0
-3422 3445 0
-405 -3422 3423 0
-3423 3446 0
-406 -3423 3424 0
-3424 3447 0
-407 -3424 3425 0
-3425 3448 0
-408 -3425 3426 0
-3426 3449 0
-409 -3426 3427 0
-3427 3450 0
-410 -3427 3428 0
-3428 3451 0
-411 -3428 3429 0
-3429 3452 0
-412 -3429 3430 0
-3430 3453 0
-413 -3430 3431 0
-3431 3454 0
-414 -3431 3432 0
-3432 3455 0
-415 -3432 3433 0
-3433 3456 0
-416 -3433 3434 0
-3434 3457 0
-417 -3434 3435 0
-3435 3458 0
-418 -3435 3436 0
-3436 3459 0
-419 -3436 3437 0
-3437 3460 0
-420 -3437 3438 0
-3438 3461 0
-421 -3438 3439 0
-3439 3462 0
-422 -3439 3440 0
-3440 3463 0
-423 -3440 0
-401 3441 0
-3441 3464 0
-402 -3441 3442 0
-3442 3465 0
-403 -3442 3443 0
-3443 3466 0
-404 -3443 3444 0
-3444 3467 0
-405 -3444 3445 0
-3445 3468 0
-406 -3445 3446 0
-3446 3469 0
-407 -3446 3447 0
-3447 3470 0
-408 -3447 3448 0
-3448 3471 0
-409 -3448 3449 0
-3449 3472 0
-410 -3449 3450 0
-3450 3473 0
-411 -3450 3451 0
-3451 3474 0
-412 -3451 3452 0
-3452 3475 0
-413 -3452 3453 0
-3453 3476 0
-414 -3453 3454 0
-3454 3477 0
-415 -3454 3455 0
-3455 3478 0
-416 -3455 3456 0
-3456 3479 0
-417 -3456 3457 0
-3457 3480 0
-418 -3457 3458 0
-3458 3481 0
-419 -3458 3459 0
-3459 3482 0
-420 -3459 3460 0
-3460 3483 0
-421 -3460 3461 0
-3461 3484 0
-422 -3461 3462 0
-3462 3485 0
-423 -3462 3463 0
-3463 3486 0
-424 -3463 0
-402 3464 0
-3464 3487 0
-403 -3464 3465 0
-3465 3488 0
-404 -3465 3466 0
-3466 3489 0
-405 -3466 3467 0
-3467 3490 0
-406 -3467 3468 0
-3468 3491 0
-407 -3468 3469 0
-3469 3492 0
-408 -3469 3470 0
-3470 3493 0
-409 -3470 3471 0
-3471 3494 0
-410 -3471 3472 0
-3472 3495 0
-411 -3472 3473 0
-3473 3496 0
-412 -3473 3474 0
-3474 3497 0
-413 -3474 3475 0
-3475 3498 0
-414 -3475 3476 0
-3476 3499 0
-415 -3476 3477 0
-3477 3500 0
-416 -3477 3478 0
-3478 3501 0
-417 -3478 3479 0
-3479 3502 0
-418 -3479 3480 0
-3480 3503 0
-419 -3480 3481 0
-3481 3504 0
-420 -3481 3482 0
-3482 3505 0
-421 -3482 3483 0
-3483 3506 0
-422 -3483 3484 0
-3484 3507 0
-423 -3484 3485 0
-3485 3508 0
-424 -3485 3486 0
-3486 3509 0
-425 -3486 0
-403 3487 0
-3487 3510 0
-404 -3487 3488 0
-3488 3511 0
-405 -3488 3489 0
-3489 3512 0
-406 -3489 3490 0
-3490 3513 0
-407 -3490 3491 0
-3491 3514 0
-408 -3491 3492 0
-3492 3515 0
-409 -3492 3493 0
-3493 3516 0
-410 -3493 3494 0
-3494 3517 0
-411 -3494 3495 0
-3495 3518 0
-412 -3495 3496 0
-3496 3519 0
-413 -3496 3497 0
-3497 3520 0
-414 -3497 3498 0
-3498 3521 0
-415 -3498 3499 0
-3499 3522 0
-416 -3499 3500 0
-3500 3523 0
-417 -3500 3501 0
-3501 3524 0
-418 -3501 3502 0
-3502 3525 0
-419 -3502 3503 0
-3503 3526 0
-420 -3503 3504 0
-3504 3527 0
-421 -3504 3505 0
-3505 3528 0
-422 -3505 3506 0
-3506 3529 0
-423 -3506 3507 0
-3507 3530 0
-424 -3507 3508 0
-3508 3531 0
-425 -3508 3509 0
-3509 3532 0
-426 -3509 0
-404 3510 0
-3510 3533 0
-405 -3510 3511 0
-3511 3534 0
-406 -3511 3512 0
-3512 3535 0
-407 -3512 3513 0
-3513 3536 0
-408 -3513 3514 0
-3514 3537 0
-409 -3514 3515 0
-3515 3538 0
-410 -3515 3516 0
-3516 3539 0
-411 -3516 3517 0
-3517 3540 0
-412 -3517 3518 0
-3518 3541 0
-413 -3518 3519 0
-3519 3542 0
-414 -3519 3520 0
-3520 3543 0
-415 -3520 3521 0
-3521 3544 0
-416 -3521 3522 0
-3522 3545 0
-417 -3522 3523 0
-3523 3546 0
-418 -3523 3524 0
-3524 3547 0
-419 -3524 3525 0
-3525 3548 0
-420 -3525 3526 0
-3526 3549 0
-421 -3526 3527 0
-3527 3550 0
-422 -3527 3528 0
-3528 3551 0
-423 -3528 3529 0
-3529 3552 0
-424 -3529 3530 0
-3530 3553 0
-425 -3530 3531 0
-3531 3554 0
-426 -3531 3532 0
-3532 3555 0
-427 -3532 0
-405 3533 0
-3533 3556 0
-406 -3533 3534 0
-3534 3557 0
-407 -3534 3535 0
-3535 3558 0
-408 -3535 3536 0
-3536 3559 0
-409 -3536 3537 0
-3537 3560 0
-410 -3537 3538 0
-3538 3561 0
-411 -3538 3539 0
-3539 3562 0
-412 -3539 3540 0
-3540 3563 0
-413 -3540 3541 0
-3541 3564 0
-414 -3541 3542 0
-3542 3565 0
-415 -3542 3543 0
-3543 3566 0
-416 -3543 3544 0
-3544 3567 0
-417 -3544 3545 0
-3545 3568 0
-418 -3545 3546 0
-3546 3569 0
-419 -3546 3547 0
-3547 3570 0
-420 -3547 3548 0
-3548 3571 0
-421 -3548 3549 0
-3549 3572 0
-422 -3549 3550 0
-3550 3573 0
-423 -3550 3551 0
-3551 3574 0
-424 -3551 3552 0
-3552 3575 0
-425 -3552 3553 0
-3553 3576 0
-426 -3553 3554 0
-3554 3577 0
-427 -3554 3555 0
-3555 3578 0
-428 -3555 0
-406 3556 0
-3556 3579 0
-407 -3556 3557 0
-3557 3580 0
-408 -3557 3558 0
-3558 3581 0
-409 -3558 3559 0
-3559 3582 0
-410 -3559 3560 0
-3560 3583 0
-411 -3560 3561 0
-3561 3584 0
-412 -3561 3562 0
-3562 3585 0
-413 -3562 3563 0
-3563 3586 0
-414 -3563 3564 0
-3564 3587 0
-415 -3564 3565 0
-3565 3588 0
-416 -3565 3566 0
-3566 3589 0
-417 -3566 3567 0
-3567 3590 0
-418 -3567 3568 0
-3568 3591 0
-419 -3568 3569 0
-3569 3592 0
-420 -3569 3570 0
-3570 3593 0
-421 -3570 3571 0
-3571 3594 0
-422 -3571 3572 0
-3572 3595 0
-423 -3572 3573 0
-3573 3596 0
-424 -3573 3574 0
-3574 3597 0
-425 -3574 3575 0
-3575 3598 0
-426 -3575 3576 0
-3576 3599 0
-427 -3576 3577 0
-3577 3600 0
-428 -3577 3578 0
-3578 3601 0
-429 -3578 0
-407 3579 0
-3579 3602 0
-408 -3579 3580 0
-3580 3603 0
-409 -3580 3581 0
-3581 3604 0
-410 -3581 3582 0
-3582 3605 0
-411 -3582 3583 0
-3583 3606 0
-412 -3583 3584 0
-3584 3607 0
-413 -3584 3585 0
-3585 3608 0
-414 -3585 3586 0
-3586 3609 0
-415 -3586 3587 0
-3587 3610 0
-416 -3587 3588 0
-3588 3611 0
-417 -3588 3589 0
-3589 3612 0
-418 -3589 3590 0
-3590 3613 0
-419 -3590 3591 0
-3591 3614 0
-420 -3591 3592 0
-3592 3615 0
-421 -3592 3593 0
-3593 3616 0
-422 -3593 3594 0
-3594 3617 0
-423 -3594 3595 0
-3595 3618 0
-424 -3595 3596 0
-3596 3619 0
-425 -3596 3597 0
-3597 3620 0
-426 -3597 3598 0
-3598 3621 0
-427 -3598 3599 0
-3599 3622 0
-428 -3599 3600 0
-3600 3623 0
-429 -3600 3601 0
-3601 3624 0
-430 -3601 0
-408 3602 0
-3602 3625 0
-409 -3602 3603 0
-3603 3626 0
-410 -3603 3604 0
-3604 3627 0
-411 -3604 3605 0
-3605 3628 0
-412 -3605 3606 0
-3606 3629 0
-413 -3606 3607 0
-3607 3630 0
-414 -3607 3608 0
-3608 3631 0
-415 -3608 3609 0
-3609 3632 0
-416 -3609 3610 0
-3610 3633 0
-417 -3610 3611 0
-3611 3634 0
-418 -3611 3612 0
-3612 3635 0
-419 -3612 3613 0
-3613 3636 0
-420 -3613 3614 0
-3614 3637 0
-421 -3614 3615 0
-3615 3638 0
-422 -3615 3616 0
-3616 3639 0
-423 -3616 3617 0
-3617 3640 0
-424 -3617 3618 0
-3618 3641 0
-425 -3618 3619 0
-3619 3642 0
-426 -3619 3620 0
-3620 3643 0
-427 -3620 3621 0
-3621 3644 0
-428 -3621 3622 0
-3622 3645 0
-429 -3622 3623 0
-3623 3646 0
-430 -3623 3624 0
-3624 3647 0
-431 -3624 0
-409 3625 0
-3625 3648 0
-410 -3625 3626 0
-3626 3649 0
-411 -3626 3627 0
-3627 3650 0
-412 -3627 3628 0
-3628 3651 0
-413 -3628 3629 0
-3629 3652 0
-414 -3629 3630 0
-3630 3653 0
-415 -3630 3631 0
-3631 3654 0
-416 -3631 3632 0
-3632 3655 0
-417 -3632 3633 0
-3633 3656 0
-418 -3633 3634 0
-3634 3657 0
-419 -3634 3635 0
-3635 3658 0
-420 -3635 3636 0
-3636 3659 0
-421 -3636 3637 0
-3637 3660 0
-422 -3637 3638 0
-3638 3661 0
-423 -3638 3639 0
-3639 3662 0
-424 -3639 3640 0
-3640 3663 0
-425 -3640 3641 0
-3641 3664 0
-426 -3641 3642 0
-3642 3665 0
-427 -3642 3643 0
-3643 3666 0
-428 -3643 3644 0
-3644 3667 0
-429 -3644 3645 0
-3645 3668 0
-430 -3645 3646 0
-3646 3669 0
-431 -3646 3647 0
-3647 3670 0
-432 -3647 0
-410 3648 0
-3648 3671 0
-411 -3648 3649 0
-3649 3672 0
-412 -3649 3650 0
-3650 3673 0
-413 -3650 3651 0
-3651 3674 0
-414 -3651 3652 0
-3652 3675 0
-415 -3652 3653 0
-3653 3676 0
-416 -3653 3654 0
-3654 3677 0
-417 -3654 3655 0
-3655 3678 0
-418 -3655 3656 0
-3656 3679 0
-419 -3656 3657 0
-3657 3680 0
-420 -3657 3658 0
-3658 3681 0
-421 -3658 3659 0
-3659 3682 0
-422 -3659 3660 0
-3660 3683 0
-423 -3660 3661 0
-3661 3684 0
-424 -3661 3662 0
-3662 3685 0
-425 -3662 3663 0
-3663 3686 0
-426 -3663 3664 0
-3664 3687 0
-427 -3664 3665 0
-3665 3688 0
-428 -3665 3666 0
-3666 3689 0
-429 -3666 3667 0
-3667 3690 0
-430 -3667 3668 0
-3668 3691 0
-431 -3668 3669 0
-3669 3692 0
-432 -3669 3670 0
-3670 3693 0
-433 -3670 0
-411 3671 0
-3671 3694 0
-412 -3671 3672 0
-3672 3695 0
-413 -3672 3673 0
-3673 3696 0
-414 -3673 3674 0
-3674 3697 0
-415 -3674 3675 0
-3675 3698 0
-416 -3675 3676 0
-3676 3699 0
-417 -3676 3677 0
-3677 3700 0
-418 -3677 3678 0
-3678 3701 0
-419 -3678 3679 0
-3679 3702 0
-420 -3679 3680 0
-3680 3703 0
-421 -3680 3681 0
-3681 3704 0
-422 -3681 3682 0
-3682 3705 0
-423 -3682 3683 0
-3683 3706 0
-424 -3683 3684 0
-3684 3707 0
-425 -3684 3685 0
-3685 3708 0
-426 -3685 3686 0
-3686 3709 0
-427 -3686 3687 0
-3687 3710 0
-428 -3687 3688 0
-3688 3711 0
-429 -3688 3689 0
-3689 3712 0
-430 -3689 3690 0
-3690 3713 0
-431 -3690 3691 0
-3691 3714 0
-432 -3691 3692 0
-3692 3715 0
-433 -3692 3693 0
-3693 3716 0
-434 -3693 0
-412 3694 0
-3694 3717 0
-413 -3694 3695 0
-3695 3718 0
-414 -3695 3696 0
-3696 3719 0
-415 -3696 3697 0
-3697 3720 0
-416 -3697 3698 0
-3698 3721 0
-417 -3698 3699 0
-3699 3722 0
-418 -3699 3700 0
-3700 3723 0
-419 -3700 3701 0
-3701 3724 0
-420 -3701 3702 0
-3702 3725 0
-421 -3702 3703 0
-3703 3726 0
-422 -3703 3704 0
-3704 3727 0
-423 -3704 3705 0
-3705 3728 0
-424 -3705 3706 0
-3706 3729 0
-425 -3706 3707 0
-3707 3730 0
-426 -3707 3708 0
-3708 3731 0
-427 -3708 3709 0
-3709 3732 0
-428 -3709 3710 0
-3710 3733 0
-429 -3710 3711 0
-3711 3734 0
-430 -3711 3712 0
-3712 3735 0
-431 -3712 3713 0
-3713 3736 0
-432 -3713 3714 0
-3714 3737 0
-433 -3714 3715 0
-3715 3738 0
-434 -3715 3716 0
-3716 3739 0
-435 -3716 0
-413 3717 0
-3717 3740 0
-414 -3717 3718 0
-3718 3741 0
-415 -3718 3719 0
-3719 3742 0
-416 -3719 3720 0
-3720 3743 0
-417 -3720 3721 0
-3721 3744 0
-418 -3721 3722 0
-3722 3745 0
-419 -3722 3723 0
-3723 3746 0
-420 -3723 3724 0
-3724 3747 0
-421 -3724 3725 0
-3725 3748 0
-422 -3725 3726 0
-3726 3749 0
-423 -3726 3727 0
-3727 3750 0
-424 -3727 3728 0
-3728 3751 0
-425 -3728 3729 0
-3729 3752 0
-426 -3729 3730 0
-3730 3753 0
-427 -3730 3731 0
-3731 3754 0
-428 -3731 3732 0
-3732 3755 0
-429 -3732 3733 0
-3733 3756 0
-430 -3733 3734 0
-3734 3757 0
-431 -3734 3735 0
-3735 3758 0
-432 -3735 3736 0
-3736 3759 0
-433 -3736 3737 0
-3737 3760 0
-434 -3737 3738 0
-3738 3761 0
-435 -3738 3739 0
-3739 3762 0
-436 -3739 0
-414 3740 0
-3740 3763 0
-415 -3740 3741 0
-3741 3764 0
-416 -3741 3742 0
-3742 3765 0
-417 -3742 3743 0
-3743 3766 0
-418 -3743 3744 0
-3744 3767 0
-419 -3744 3745 0
-3745 3768 0
-420 -3745 3746 0
-3746 3769 0
-421 -3746 3747 0
-3747 3770 0
-422 -3747 3748 0
-3748 3771 0
-423 -3748 3749 0
-3749 3772 0
-424 -3749 3750 0
-3750 3773 0
-425 -3750 3751 0
-3751 3774 0
-426 -3751 3752 0
-3752 3775 0
-427 -3752 3753 0
-3753 3776 0
-428 -3753 3754 0
-3754 3777 0
-429 -3754 3755 0
-3755 3778 0
-430 -3755 3756 0
-3756 3779 0
-431 -3756 3757 0
-3757 3780 0
-432 -3757 3758 0
-3758 3781 0
-433 -3758 3759 0
-3759 3782 0
-434 -3759 3760 0
-3760 3783 0
-435 -3760 3761 0
-3761 3784 0
-436 -3761 3762 0
-3762 3785 0
-437 -3762 0
-415 3763 0
-3763 3786 0
-416 -3763 3764 0
-3764 3787 0
-417 -3764 3765 0
-3765 3788 0
-418 -3765 3766 0
-3766 3789 0
-419 -3766 3767 0
-3767 3790 0
-420 -3767 3768 0
-3768 3791 0
-421 -3768 3769 0
-3769 3792 0
-422 -3769 3770 0
-3770 3793 0
-423 -3770 3771 0
-3771 3794 0
-424 -3771 3772 0
-3772 3795 0
-425 -3772 3773 0
-3773 3796 0
-426 -3773 3774 0
-3774 3797 0
-427 -3774 3775 0
-3775 3798 0
-428 -3775 3776 0
-3776 3799 0
-429 -3776 3777 0
-3777 3800 0
-430 -3777 3778 0
-3778 3801 0
-431 -3778 3779 0
-3779 3802 0
-432 -3779 3780 0
-3780 3803 0
-433 -3780 3781 0
-3781 3804 0
-434 -3781 3782 0
-3782 3805 0
-435 -3782 3783 0
-3783 3806 0
-436 -3783 3784 0
-3784 3807 0
-437 -3784 3785 0
-3785 3808 0
-438 -3785 0
-416 3786 0
-3786 3809 0
-417 -3786 3787 0
-3787 3810 0
-418 -3787 3788 0
-3788 3811 0
-419 -3788 3789 0
-3789 3812 0
-420 -3789 3790 0
-3790 3813 0
-421 -3790 3791 0
-3791 3814 0
-422 -3791 3792 0
-3792 3815 0
-423 -3792 3793 0
-3793 3816 0
-424 -3793 3794 0
-3794 3817 0
-425 -3794 3795 0
-3795 3818 0
-426 -3795 3796 0
-3796 3819 0
-427 -3796 3797 0
-3797 3820 0
-428 -3797 3798 0
-3798 3821 0
-429 -3798 3799 0
-3799 3822 0
-430 -3799 3800 0
-3800 3823 0
-431 -3800 3801 0
-3801 3824 0
-432 -3801 3802 0
-3802 3825 0
-433 -3802 3803 0
-3803 3826 0
-434 -3803 3804 0
-3804 3827 0
-435 -3804 3805 0
-3805 3828 0
-436 -3805 3806 0
-3806 3829 0
-437 -3806 3807 0
-3807 3830 0
-438 -3807 3808 0
-3808 3831 0
-439 -3808 0
-417 3809 0
-3809 3832 0
-418 -3809 3810 0
-3810 3833 0
-419 -3810 3811 0
-3811 3834 0
-420 -3811 3812 0
-3812 3835 0
-421 -3812 3813 0
-3813 3836 0
-422 -3813 3814 0
-3814 3837 0
-423 -3814 3815 0
-3815 3838 0
-424 -3815 3816 0
-3816 3839 0
-425 -3816 3817 0
-3817 3840 0
-426 -3817 3818 0
-3818 3841 0
-427 -3818 3819 0
-3819 3842 0
-428 -3819 3820 0
-3820 3843 0
-429 -3820 3821 0
-3821 3844 0
-430 -3821 3822 0
-3822 3845 0
-431 -3822 3823 0
-3823 3846 0
-432 -3823 3824 0
-3824 3847 0
-433 -3824 3825 0
-3825 3848 0
-434 -3825 3826 0
-3826 3849 0
-435 -3826 3827 0
-3827 3850 0
-436 -3827 3828 0
-3828 3851 0
-437 -3828 3829 0
-3829 3852 0
-438 -3829 3830 0
-3830 3853 0
-439 -3830 3831 0
-3831 3854 0
-440 -3831 0
-418 3832 0
-3832 3855 0
-419 -3832 3833 0
-3833 3856 0
-420 -3833 3834 0
-3834 3857 0
-421 -3834 3835 0
-3835 3858 0
-422 -3835 3836 0
-3836 3859 0
-423 -3836 3837 0
-3837 3860 0
-424 -3837 3838 0
-3838 3861 0
-425 -3838 3839 0
-3839 3862 0
-426 -3839 3840 0
-3840 3863 0
-427 -3840 3841 0
-3841 3864 0
-428 -3841 3842 0
-3842 3865 0
-429 -3842 3843 0
-3843 3866 0
-430 -3843 3844 0
-3844 3867 0
-431 -3844 3845 0
-3845 3868 0
-432 -3845 3846 0
-3846 3869 0
-433 -3846 3847 0
-3847 3870 0
-434 -3847 3848 0
-3848 3871 0
-435 -3848 3849 0
-3849 3872 0
-436 -3849 3850 0
-3850 3873 0
-437 -3850 3851 0
-3851 3874 0
-438 -3851 3852 0
-3852 3875 0
-439 -3852 3853 0
-3853 3876 0
-440 -3853 3854 0
-3854 3877 0
-441 -3854 0
-419 3855 0
-3855 3878 0
-420 -3855 3856 0
-3856 3879 0
-421 -3856 3857 0
-3857 3880 0
-422 -3857 3858 0
-3858 3881 0
-423 -3858 3859 0
-3859 3882 0
-424 -3859 3860 0
-3860 3883 0
-425 -3860 3861 0
-3861 3884 0
-426 -3861 3862 0
-3862 3885 0
-427 -3862 3863 0
-3863 3886 0
-428 -3863 3864 0
-3864 3887 0
-429 -3864 3865 0
-3865 3888 0
-430 -3865 3866 0
-3866 3889 0
-431 -3866 3867 0
-3867 3890 0
-432 -3867 3868 0
-3868 3891 0
-433 -3868 3869 0
-3869 3892 0
-434 -3869 3870 0
-3870 3893 0
-435 -3870 3871 0
-3871 3894 0
-436 -3871 3872 0
-3872 3895 0
-437 -3872 3873 0
-3873 3896 0
-438 -3873 3874 0
-3874 3897 0
-439 -3874 3875 0
-3875 3898 0
-440 -3875 3876 0
-3876 3899 0
-441 -3876 3877 0
-3877 3900 0
-442 -3877 0
-420 3878 0
-3878 3901 0
-421 -3878 3879 0
-3879 3902 0
-422 -3879 3880 0
-3880 3903 0
-423 -3880 3881 0
-3881 3904 0
-424 -3881 3882 0
-3882 3905 0
-425 -3882 3883 0
-3883 3906 0
-426 -3883 3884 0
-3884 3907 0
-427 -3884 3885 0
-3885 3908 0
-428 -3885 3886 0
-3886 3909 0
-429 -3886 3887 0
-3887 3910 0
-430 -3887 3888 0
-3888 3911 0
-431 -3888 3889 0
-3889 3912 0
-432 -3889 3890 0
-3890 3913 0
-433 -3890 3891 0
-3891 3914 0
-434 -3891 3892 0
-3892 3915 0
-435 -3892 3893 0
-3893 3916 0
-436 -3893 3894 0
-3894 3917 0
-437 -3894 3895 0
-3895 3918 0
-438 -3895 3896 0
-3896 3919 0
-439 -3896 3897 0
-3897 3920 0
-440 -3897 3898 0
-3898 3921 0
-441 -3898 3899 0
-3899 3922 0
-442 -3899 3900 0
-3900 3923 0
-443 -3900 0
-421 3901 0
-3901 3924 0
-422 -3901 3902 0
-3902 3925 0
-423 -3902 3903 0
-3903 3926 0
-424 -3903 3904 0
-3904 3927 0
-425 -3904 3905 0
-3905 3928 0
-426 -3905 3906 0
-3906 3929 0
-427 -3906 3907 0
-3907 3930 0
-428 -3907 3908 0
-3908 3931 0
-429 -3908 3909 0
-3909 3932 0
-430 -3909 3910 0
-3910 3933 0
-431 -3910 3911 0
-3911 3934 0
-432 -3911 3912 0
-3912 3935 0
-433 -3912 3913 0
-3913 3936 0
-434 -3913 3914 0
-3914 3937 0
-435 -3914 3915 0
-3915 3938 0
-436 -3915 3916 0
-3916 3939 0
-437 -3916 3917 0
-3917 3940 0
-438 -3917 3918 0
-3918 3941 0
-439 -3918 3919 0
-3919 3942 0
-440 -3919 3920 0
-3920 3943 0
-441 -3920 3921 0
-3921 3944 0
-442 -3921 3922 0
-3922 3945 0
-443 -3922 3923 0
-3923 3946 0
-444 -3923 0
-422 3924 0
-3924 3947 0
-423 -3924 3925 0
-3925 3948 0
-424 -3925 3926 0
-3926 3949 0
-425 -3926 3927 0
-3927 3950 0
-426 -3927 3928 0
-3928 3951 0
-427 -3928 3929 0
-3929 3952 0
-428 -3929 3930 0
-3930 3953 0
-429 -3930 3931 0
-3931 3954 0
-430 -3931 3932 0
-3932 3955 0
-431 -3932 3933 0
-3933 3956 0
-432 -3933 3934 0
-3934 3957 0
-433 -3934 3935 0
-3935 3958 0
-434 -3935 3936 0
-3936 3959 0
-435 -3936 3937 0
-3937 3960 0
-436 -3937 3938 0
-3938 3961 0
-437 -3938 3939 0
-3939 3962 0
-438 -3939 3940 0
-3940 3963 0
-439 -3940 3941 0
-3941 3964 0
-440 -3941 3942 0
-3942 3965 0
-441 -3942 3943 0
-3943 3966 0
-442 -3943 3944 0
-3944 3967 0
-443 -3944 3945 0
-3945 3968 0
-444 -3945 3946 0
-3946 3969 0
-445 -3946 0
-423 3947 0
-3947 3970 0
-424 -3947 3948 0
-3948 3971 0
-425 -3948 3949 0
-3949 3972 0
-426 -3949 3950 0
-3950 3973 0
-427 -3950 3951 0
-3951 3974 0
-428 -3951 3952 0
-3952 3975 0
-429 -3952 3953 0
-3953 3976 0
-430 -3953 3954 0
-3954 3977 0
-431 -3954 3955 0
-3955 3978 0
-432 -3955 3956 0
-3956 3979 0
-433 -3956 3957 0
-3957 3980 0
-434 -3957 3958 0
-3958 3981 0
-435 -3958 3959 0
-3959 3982 0
-436 -3959 3960 0
-3960 3983 0
-437 -3960 3961 0
-3961 3984 0
-438 -3961 3962 0
-3962 3985 0
-439 -3962 3963 0
-3963 3986 0
-440 -3963 3964 0
-3964 3987 0
-441 -3964 3965 0
-3965 3988 0
-442 -3965 3966 0
-3966 3989 0
-443 -3966 3967 0
-3967 3990 0
-444 -3967 3968 0
-3968 3991 0
-445 -3968 3969 0
-3969 3992 0
-446 -3969 0
-424 3970 0
-3970 3993 0
-425 -3970 3971 0
-3971 3994 0
-426 -3971 3972 0
-3972 3995 0
-427 -3972 3973 0
-3973 3996 0
-428 -3973 3974 0
-3974 3997 0
-429 -3974 3975 0
-3975 3998 0
-430 -3975 3976 0
-3976 3999 0
-431 -3976 3977 0
-3977 4000 0
-432 -3977 3978 0
-3978 4001 0
-433 -3978 3979 0
-3979 4002 0
-434 -3979 3980 0
-3980 4003 0
-435 -3980 3981 0
-3981 4004 0
-436 -3981 3982 0
-3982 4005 0
-437 -3982 3983 0
-3983 4006 0
-438 -3983 3984 0
-3984 4007 0
-439 -3984 3985 0
-3985 4008 0
-440 -3985 3986 0
-3986 4009 0
-441 -3986 3987 0
-3987 4010 0
-442 -3987 3988 0
-3988 4011 0
-443 -3988 3989 0
-3989 4012 0
-444 -3989 3990 0
-3990 4013 0
-445 -3990 3991 0
-3991 4014 0
-446 -3991 3992 0
-3992 4015 0
-447 -3992 0
-425 3993 0
-3993 4016 0
-426 -3993 3994 0
-3994 4017 0
-427 -3994 3995 0
-3995 4018 0
-428 -3995 3996 0
-3996 4019 0
-429 -3996 3997 0
-3997 4020 0
-430 -3997 3998 0
-3998 4021 0
-431 -3998 3999 0
-3999 4022 0
-432 -3999 4000 0
-4000 4023 0
-433 -4000 4001 0
-4001 4024 0
-434 -4001 4002 0
-4002 4025 0
-435 -4002 4003 0
-4003 4026 0
-436 -4003 4004 0
-4004 4027 0
-437 -4004 4005 0
-4005 4028 0
-438 -4005 4006 0
-4006 4029 0
-439 -4006 4007 0
-4007 4030 0
-440 -4007 4008 0
-4008 4031 0
-441 -4008 4009 0
-4009 4032 0
-442 -4009 4010 0
-4010 4033 0
-443 -4010 4011 0
-4011 4034 0
-444 -4011 4012 0
-4012 4035 0
-445 -4012 4013 0
-4013 4036 0
-446 -4013 4014 0
-4014 4037 0
-447 -4014 4015 0
-4015 4038 0
-448 -4015 0
-426 4016 0
-4016 4039 0
-427 -4016 4017 0
-4017 4040 0
-428 -4017 4018 0
-4018 4041 0
-429 -4018 4019 0
-4019 4042 0
-430 -4019 4020 0
-4020 4043 0
-431 -4020 4021 0
-4021 4044 0
-432 -4021 4022 0
-4022 4045 0
-433 -4022 4023 0
-4023 4046 0
-434 -4023 4024 0
-4024 4047 0
-435 -4024 4025 0
-4025 4048 0
-436 -4025 4026 0
-4026 4049 0
-437 -4026 4027 0
-4027 4050 0
-438 -4027 4028 0
-4028 4051 0
-439 -4028 4029 0
-4029 4052 0
-440 -4029 4030 0
-4030 4053 0
-441 -4030 4031 0
-4031 4054 0
-442 -4031 4032 0
-4032 4055 0
-443 -4032 4033 0
-4033 4056 0
-444 -4033 4034 0
-4034 4057 0
-445 -4034 4035 0
-4035 4058 0
-446 -4035 4036 0
-4036 4059 0
-447 -4036 4037 0
-4037 4060 0
-448 -4037 4038 0
-4038 4061 0
-449 -4038 0
-427 4039 0
-4039 4062 0
-428 -4039 4040 0
-4040 4063 0
-429 -4040 4041 0
-4041 4064 0
-430 -4041 4042 0
-4042 4065 0
-431 -4042 4043 0
-4043 4066 0
-432 -4043 4044 0
-4044 4067 0
-433 -4044 4045 0
-4045 4068 0
-434 -4045 4046 0
-4046 4069 0
-435 -4046 4047 0
-4047 4070 0
-436 -4047 4048 0
-4048 4071 0
-437 -4048 4049 0
-4049 4072 0
-438 -4049 4050 0
-4050 4073 0
-439 -4050 4051 0
-4051 4074 0
-440 -4051 4052 0
-4052 4075 0
-441 -4052 4053 0
-4053 4076 0
-442 -4053 4054 0
-4054 4077 0
-443 -4054 4055 0
-4055 4078 0
-444 -4055 4056 0
-4056 4079 0
-445 -4056 4057 0
-4057 4080 0
-446 -4057 4058 0
-4058 4081 0
-447 -4058 4059 0
-4059 4082 0
-448 -4059 4060 0
-4060 4083 0
-449 -4060 4061 0
-4061 4084 0
-450 -4061 0
-428 4062 0
-4062 4085 0
-429 -4062 4063 0
-4063 4086 0
-430 -4063 4064 0
-4064 4087 0
-431 -4064 4065 0
-4065 4088 0
-432 -4065 4066 0
-4066 4089 0
-433 -4066 4067 0
-4067 4090 0
-434 -4067 4068 0
-4068 4091 0
-435 -4068 4069 0
-4069 4092 0
-436 -4069 4070 0
-4070 4093 0
-437 -4070 4071 0
-4071 4094 0
-438 -4071 4072 0
-4072 4095 0
-439 -4072 4073 0
-4073 4096 0
-440 -4073 4074 0
-4074 4097 0
-441 -4074 4075 0
-4075 4098 0
-442 -4075 4076 0
-4076 4099 0
-443 -4076 4077 0
-4077 4100 0
-444 -4077 4078 0
-4078 4101 0
-445 -4078 4079 0
-4079 4102 0
-446 -4079 4080 0
-4080 4103 0
-447 -4080 4081 0
-4081 4104 0
-448 -4081 4082 0
-4082 4105 0
-449 -4082 4083 0
-4083 4106 0
-450 -4083 4084 0
-4084 4107 0
-451 -4084 0
-429 4085 0
-4085 4108 0
-430 -4085 4086 0
-4086 4109 0
-431 -4086 4087 0
-4087 4110 0
-432 -4087 4088 0
-4088 4111 0
-433 -4088 4089 0
-4089 4112 0
-434 -4089 4090 0
-4090 4113 0
-435 -4090 4091 0
-4091 4114 0
-436 -4091 4092 0
-4092 4115 0
-437 -4092 4093 0
-4093 4116 0
-438 -4093 4094 0
-4094 4117 0
-439 -4094 4095 0
-4095 4118 0
-440 -4095 4096 0
-4096 4119 0
-441 -4096 4097 0
-4097 4120 0
-442 -4097 4098 0
-4098 4121 0
-443 -4098 4099 0
-4099 4122 0
-444 -4099 4100 0
-4100 4123 0
-445 -4100 4101 0
-4101 4124 0
-446 -4101 4102 0
-4102 4125 0
-447 -4102 4103 0
-4103 4126 0
-448 -4103 4104 0
-4104 4127 0
-449 -4104 4105 0
-4105 4128 0
-450 -4105 4106 0
-4106 4129 0
-451 -4106 4107 0
-4107 4130 0
-452 -4107 0
-430 4108 0
-4108 4131 0
-431 -4108 4109 0
-4109 4132 0
-432 -4109 4110 0
-4110 4133 0
-433 -4110 4111 0
-4111 4134 0
-434 -4111 4112 0
-4112 4135 0
-435 -4112 4113 0
-4113 4136 0
-436 -4113 4114 0
-4114 4137 0
-437 -4114 4115 0
-4115 4138 0
-438 -4115 4116 0
-4116 4139 0
-439 -4116 4117 0
-4117 4140 0
-440 -4117 4118 0
-4118 4141 0
-441 -4118 4119 0
-4119 4142 0
-442 -4119 4120 0
-4120 4143 0
-443 -4120 4121 0
-4121 4144 0
-444 -4121 4122 0
-4122 4145 0
-445 -4122 4123 0
-4123 4146 0
-446 -4123 4124 0
-4124 4147 0
-447 -4124 4125 0
-4125 4148 0
-448 -4125 4126 0
-4126 4149 0
-449 -4126 4127 0
-4127 4150 0
-450 -4127 4128 0
-4128 4151 0
-451 -4128 4129 0
-4129 4152 0
-452 -4129 4130 0
-4130 4153 0
-453 -4130 0
-431 4131 0
-4131 4154 0
-432 -4131 4132 0
-4132 4155 0
-433 -4132 4133 0
-4133 4156 0
-434 -4133 4134 0
-4134 4157 0
-435 -4134 4135 0
-4135 4158 0
-436 -4135 4136 0
-4136 4159 0
-437 -4136 4137 0
-4137 4160 0
-438 -4137 4138 0
-4138 4161 0
-439 -4138 4139 0
-4139 4162 0
-440 -4139 4140 0
-4140 4163 0
-441 -4140 4141 0
-4141 4164 0
-442 -4141 4142 0
-4142 4165 0
-443 -4142 4143 0
-4143 4166 0
-444 -4143 4144 0
-4144 4167 0
-445 -4144 4145 0
-4145 4168 0
-446 -4145 4146 0
-4146 4169 0
-447 -4146 4147 0
-4147 4170 0
-448 -4147 4148 0
-4148 4171 0
-449 -4148 4149 0
-4149 4172 0
-450 -4149 4150 0
-4150 4173 0
-451 -4150 4151 0
-4151 4174 0
-452 -4151 4152 0
-4152 4175 0
-453 -4152 4153 0
-4153 4176 0
-454 -4153 0
-432 4154 0
-4154 4177 0
-433 -4154 4155 0
-4155 4178 0
-434 -4155 4156 0
-4156 4179 0
-435 -4156 4157 0
-4157 4180 0
-436 -4157 4158 0
-4158 4181 0
-437 -4158 4159 0
-4159 4182 0
-438 -4159 4160 0
-4160 4183 0
-439 -4160 4161 0
-4161 4184 0
-440 -4161 4162 0
-4162 4185 0
-441 -4162 4163 0
-4163 4186 0
-442 -4163 4164 0
-4164 4187 0
-443 -4164 4165 0
-4165 4188 0
-444 -4165 4166 0
-4166 4189 0
-445 -4166 4167 0
-4167 4190 0
-446 -4167 4168 0
-4168 4191 0
-447 -4168 4169 0
-4169 4192 0
-448 -4169 4170 0
-4170 4193 0
-449 -4170 4171 0
-4171 4194 0
-450 -4171 4172 0
-4172 4195 0
-451 -4172 4173 0
-4173 4196 0
-452 -4173 4174 0
-4174 4197 0
-453 -4174 4175 0
-4175 4198 0
-454 -4175 4176 0
-4176 4199 0
-455 -4176 0
-433 4177 0
-4177 4200 0
-434 -4177 4178 0
-4178 4201 0
-435 -4178 4179 0
-4179 4202 0
-436 -4179 4180 0
-4180 4203 0
-437 -4180 4181 0
-4181 4204 0
-438 -4181 4182 0
-4182 4205 0
-439 -4182 4183 0
-4183 4206 0
-440 -4183 4184 0
-4184 4207 0
-441 -4184 4185 0
-4185 4208 0
-442 -4185 4186 0
-4186 4209 0
-443 -4186 4187 0
-4187 4210 0
-444 -4187 4188 0
-4188 4211 0
-445 -4188 4189 0
-4189 4212 0
-446 -4189 4190 0
-4190 4213 0
-447 -4190 4191 0
-4191 4214 0
-448 -4191 4192 0
-4192 4215 0
-449 -4192 4193 0
-4193 4216 0
-450 -4193 4194 0
-4194 4217 0
-451 -4194 4195 0
-4195 4218 0
-452 -4195 4196 0
-4196 4219 0
-453 -4196 4197 0
-4197 4220 0
-454 -4197 4198 0
-4198 4221 0
-455 -4198 4199 0
-4199 4222 0
-456 -4199 0
-434 4200 0
-4200 4223 0
-435 -4200 4201 0
-4201 4224 0
-436 -4201 4202 0
-4202 4225 0
-437 -4202 4203 0
-4203 4226 0
-438 -4203 4204 0
-4204 4227 0
-439 -4204 4205 0
-4205 4228 0
-440 -4205 4206 0
-4206 4229 0
-441 -4206 4207 0
-4207 4230 0
-442 -4207 4208 0
-4208 4231 0
-443 -4208 4209 0
-4209 4232 0
-444 -4209 4210 0
-4210 4233 0
-445 -4210 4211 0
-4211 4234 0
-446 -4211 4212 0
-4212 4235 0
-447 -4212 4213 0
-4213 4236 0
-448 -4213 4214 0
-4214 4237 0
-449 -4214 4215 0
-4215 4238 0
-450 -4215 4216 0
-4216 4239 0
-451 -4216 4217 0
-4217 4240 0
-452 -4217 4218 0
-4218 4241 0
-453 -4218 4219 0
-4219 4242 0
-454 -4219 4220 0
-4220 4243 0
-455 -4220 4221 0
-4221 4244 0
-456 -4221 4222 0
-4222 4245 0
-457 -4222 0
-435 4223 0
-4223 4246 0
-436 -4223 4224 0
-4224 4247 0
-437 -4224 4225 0
-4225 4248 0
-438 -4225 4226 0
-4226 4249 0
-439 -4226 4227 0
-4227 4250 0
-440 -4227 4228 0
-4228 4251 0
-441 -4228 4229 0
-4229 4252 0
-442 -4229 4230 0
-4230 4253 0
-443 -4230 4231 0
-4231 4254 0
-444 -4231 4232 0
-4232 4255 0
-445 -4232 4233 0
-4233 4256 0
-446 -4233 4234 0
-4234 4257 0
-447 -4234 4235 0
-4235 4258 0
-448 -4235 4236 0
-4236 4259 0
-449 -4236 4237 0
-4237 4260 0
-450 -4237 4238 0
-4238 4261 0
-451 -4238 4239 0
-4239 4262 0
-452 -4239 4240 0
-4240 4263 0
-453 -4240 4241 0
-4241 4264 0
-454 -4241 4242 0
-4242 4265 0
-455 -4242 4243 0
-4243 4266 0
-456 -4243 4244 0
-4244 4267 0
-457 -4244 4245 0
-4245 4268 0
-458 -4245 0
-436 4246 0
-4246 4269 0
-437 -4246 4247 0
-4247 4270 0
-438 -4247 4248 0
-4248 4271 0
-439 -4248 4249 0
-4249 4272 0
-440 -4249 4250 0
-4250 4273 0
-441 -4250 4251 0
-4251 4274 0
-442 -4251 4252 0
-4252 4275 0
-443 -4252 4253 0
-4253 4276 0
-444 -4253 4254 0
-4254 4277 0
-445 -4254 4255 0
-4255 4278 0
-446 -4255 4256 0
-4256 4279 0
-447 -4256 4257 0
-4257 4280 0
-448 -4257 4258 0
-4258 4281 0
-449 -4258 4259 0
-4259 4282 0
-450 -4259 4260 0
-4260 4283 0
-451 -4260 4261 0
-4261 4284 0
-452 -4261 4262 0
-4262 4285 0
-453 -4262 4263 0
-4263 4286 0
-454 -4263 4264 0
-4264 4287 0
-455 -4264 4265 0
-4265 4288 0
-456 -4265 4266 0
-4266 4289 0
-457 -4266 4267 0
-4267 4290 0
-458 -4267 4268 0
-4268 4291 0
-459 -4268 0
-437 4269 0
-4269 4292 0
-438 -4269 4270 0
-4270 4293 0
-439 -4270 4271 0
-4271 4294 0
-440 -4271 4272 0
-4272 4295 0
-441 -4272 4273 0
-4273 4296 0
-442 -4273 4274 0
-4274 4297 0
-443 -4274 4275 0
-4275 4298 0
-444 -4275 4276 0
-4276 4299 0
-445 -4276 4277 0
-4277 4300 0
-446 -4277 4278 0
-4278 4301 0
-447 -4278 4279 0
-4279 4302 0
-448 -4279 4280 0
-4280 4303 0
-449 -4280 4281 0
-4281 4304 0
-450 -4281 4282 0
-4282 4305 0
-451 -4282 4283 0
-4283 4306 0
-452 -4283 4284 0
-4284 4307 0
-453 -4284 4285 0
-4285 4308 0
-454 -4285 4286 0
-4286 4309 0
-455 -4286 4287 0
-4287 4310 0
-456 -4287 4288 0
-4288 4311 0
-457 -4288 4289 0
-4289 4312 0
-458 -4289 4290 0
-4290 4313 0
-459 -4290 4291 0
-4291 4314 0
-460 -4291 0
-438 4292 0
-4292 4315 0
-439 -4292 4293 0
-4293 4316 0
-440 -4293 4294 0
-4294 4317 0
-441 -4294 4295 0
-4295 4318 0
-442 -4295 4296 0
-4296 4319 0
-443 -4296 4297 0
-4297 4320 0
-444 -4297 4298 0
-4298 4321 0
-445 -4298 4299 0
-4299 4322 0
-446 -4299 4300 0
-4300 4323 0
-447 -4300 4301 0
-4301 4324 0
-448 -4301 4302 0
-4302 4325 0
-449 -4302 4303 0
-4303 4326 0
-450 -4303 4304 0
-4304 4327 0
-451 -4304 4305 0
-4305 4328 0
-452 -4305 4306 0
-4306 4329 0
-453 -4306 4307 0
-4307 4330 0
-454 -4307 4308 0
-4308 4331 0
-455 -4308 4309 0
-4309 4332 0
-456 -4309 4310 0
-4310 4333 0
-457 -4310 4311 0
-4311 4334 0
-458 -4311 4312 0
-4312 4335 0
-459 -4312 4313 0
-4313 4336 0
-460 -4313 4314 0
-4314 4337 0
-461 -4314 0
-439 4315 0
-4315 4338 0
-440 -4315 4316 0
-4316 4339 0
-441 -4316 4317 0
-4317 4340 0
-442 -4317 4318 0
-4318 4341 0
-443 -4318 4319 0
-4319 4342 0
-444 -4319 4320 0
-4320 4343 0
-445 -4320 4321 0
-4321 4344 0
-446 -4321 4322 0
-4322 4345 0
-447 -4322 4323 0
-4323 4346 0
-448 -4323 4324 0
-4324 4347 0
-449 -4324 4325 0
-4325 4348 0
-450 -4325 4326 0
-4326 4349 0
-451 -4326 4327 0
-4327 4350 0
-452 -4327 4328 0
-4328 4351 0
-453 -4328 4329 0
-4329 4352 0
-454 -4329 4330 0
-4330 4353 0
-455 -4330 4331 0
-4331 4354 0
-456 -4331 4332 0
-4332 4355 0
-457 -4332 4333 0
-4333 4356 0
-458 -4333 4334 0
-4334 4357 0
-459 -4334 4335 0
-4335 4358 0
-460 -4335 4336 0
-4336 4359 0
-461 -4336 4337 0
-4337 4360 0
-462 -4337 0
-440 4338 0
-4338 4361 0
-441 -4338 4339 0
-4339 4362 0
-442 -4339 4340 0
-4340 4363 0
-443 -4340 4341 0
-4341 4364 0
-444 -4341 4342 0
-4342 4365 0
-445 -4342 4343 0
-4343 4366 0
-446 -4343 4344 0
-4344 4367 0
-447 -4344 4345 0
-4345 4368 0
-448 -4345 4346 0
-4346 4369 0
-449 -4346 4347 0
-4347 4370 0
-450 -4347 4348 0
-4348 4371 0
-451 -4348 4349 0
-4349 4372 0
-452 -4349 4350 0
-4350 4373 0
-453 -4350 4351 0
-4351 4374 0
-454 -4351 4352 0
-4352 4375 0
-455 -4352 4353 0
-4353 4376 0
-456 -4353 4354 0
-4354 4377 0
-457 -4354 4355 0
-4355 4378 0
-458 -4355 4356 0
-4356 4379 0
-459 -4356 4357 0
-4357 4380 0
-460 -4357 4358 0
-4358 4381 0
-461 -4358 4359 0
-4359 4382 0
-462 -4359 4360 0
-4360 4383 0
-463 -4360 0
-441 4361 0
-4361 4384 0
-442 -4361 4362 0
-4362 4385 0
-443 -4362 4363 0
-4363 4386 0
-444 -4363 4364 0
-4364 4387 0
-445 -4364 4365 0
-4365 4388 0
-446 -4365 4366 0
-4366 4389 0
-447 -4366 4367 0
-4367 4390 0
-448 -4367 4368 0
-4368 4391 0
-449 -4368 4369 0
-4369 4392 0
-450 -4369 4370 0
-4370 4393 0
-451 -4370 4371 0
-4371 4394 0
-452 -4371 4372 0
-4372 4395 0
-453 -4372 4373 0
-4373 4396 0
-454 -4373 4374 0
-4374 4397 0
-455 -4374 4375 0
-4375 4398 0
-456 -4375 4376 0
-4376 4399 0
-457 -4376 4377 0
-4377 4400 0
-458 -4377 4378 0
-4378 4401 0
-459 -4378 4379 0
-4379 4402 0
-460 -4379 4380 0
-4380 4403 0
-461 -4380 4381 0
-4381 4404 0
-462 -4381 4382 0
-4382 4405 0
-463 -4382 4383 0
-4383 4406 0
-464 -4383 0
-442 4384 0
-4384 4407 0
-443 -4384 4385 0
-4385 4408 0
-444 -4385 4386 0
-4386 4409 0
-445 -4386 4387 0
-4387 4410 0
-446 -4387 4388 0
-4388 4411 0
-447 -4388 4389 0
-4389 4412 0
-448 -4389 4390 0
-4390 4413 0
-449 -4390 4391 0
-4391 4414 0
-450 -4391 4392 0
-4392 4415 0
-451 -4392 4393 0
-4393 4416 0
-452 -4393 4394 0
-4394 4417 0
-453 -4394 4395 0
-4395 4418 0
-454 -4395 4396 0
-4396 4419 0
-455 -4396 4397 0
-4397 4420 0
-456 -4397 4398 0
-4398 4421 0
-457 -4398 4399 0
-4399 4422 0
-458 -4399 4400 0
-4400 4423 0
-459 -4400 4401 0
-4401 4424 0
-460 -4401 4402 0
-4402 4425 0
-461 -4402 4403 0
-4403 4426 0
-462 -4403 4404 0
-4404 4427 0
-463 -4404 4405 0
-4405 4428 0
-464 -4405 4406 0
-4406 4429 0
-465 -4406 0
-443 4407 0
-4407 4430 0
-444 -4407 4408 0
-4408 4431 0
-445 -4408 4409 0
-4409 4432 0
-446 -4409 4410 0
-4410 4433 0
-447 -4410 4411 0
-4411 4434 0
-448 -4411 4412 0
-4412 4435 0
-449 -4412 4413 0
-4413 4436 0
-450 -4413 4414 0
-4414 4437 0
-451 -4414 4415 0
-4415 4438 0
-452 -4415 4416 0
-4416 4439 0
-453 -4416 4417 0
-4417 4440 0
-454 -4417 4418 0
-4418 4441 0
-455 -4418 4419 0
-4419 4442 0
-456 -4419 4420 0
-4420 4443 0
-457 -4420 4421 0
-4421 4444 0
-458 -4421 4422 0
-4422 4445 0
-459 -4422 4423 0
-4423 4446 0
-460 -4423 4424 0
-4424 4447 0
-461 -4424 4425 0
-4425 4448 0
-462 -4425 4426 0
-4426 4449 0
-463 -4426 4427 0
-4427 4450 0
-464 -4427 4428 0
-4428 4451 0
-465 -4428 4429 0
-4429 4452 0
-466 -4429 0
-444 4430 0
-4430 4453 0
-445 -4430 4431 0
-4431 4454 0
-446 -4431 4432 0
-4432 4455 0
-447 -4432 4433 0
-4433 4456 0
-448 -4433 4434 0
-4434 4457 0
-449 -4434 4435 0
-4435 4458 0
-450 -4435 4436 0
-4436 4459 0
-451 -4436 4437 0
-4437 4460 0
-452 -4437 4438 0
-4438 4461 0
-453 -4438 4439 0
-4439 4462 0
-454 -4439 4440 0
-4440 4463 0
-455 -4440 4441 0
-4441 4464 0
-456 -4441 4442 0
-4442 4465 0
-457 -4442 4443 0
-4443 4466 0
-458 -4443 4444 0
-4444 4467 0
-459 -4444 4445 0
-4445 4468 0
-460 -4445 4446 0
-4446 4469 0
-461 -4446 4447 0
-4447 4470 0
-462 -4447 4448 0
-4448 4471 0
-463 -4448 4449 0
-4449 4472 0
-464 -4449 4450 0
-4450 4473 0
-465 -4450 4451 0
-4451 4474 0
-466 -4451 4452 0
-4452 4475 0
-467 -4452 0
-445 4453 0
-4453 4476 0
-446 -4453 4454 0
-4454 4477 0
-447 -4454 4455 0
-4455 4478 0
-448 -4455 4456 0
-4456 4479 0
-449 -4456 4457 0
-4457 4480 0
-450 -4457 4458 0
-4458 4481 0
-451 -4458 4459 0
-4459 4482 0
-452 -4459 4460 0
-4460 4483 0
-453 -4460 4461 0
-4461 4484 0
-454 -4461 4462 0
-4462 4485 0
-455 -4462 4463 0
-4463 4486 0
-456 -4463 4464 0
-4464 4487 0
-457 -4464 4465 0
-4465 4488 0
-458 -4465 4466 0
-4466 4489 0
-459 -4466 4467 0
-4467 4490 0
-460 -4467 4468 0
-4468 4491 0
-461 -4468 4469 0
-4469 4492 0
-462 -4469 4470 0
-4470 4493 0
-463 -4470 4471 0
-4471 4494 0
-464 -4471 4472 0
-4472 4495 0
-465 -4472 4473 0
-4473 4496 0
-466 -4473 4474 0
-4474 4497 0
-467 -4474 4475 0
-4475 4498 0
-468 -4475 0
-446 4476 0
-4476 4499 0
-447 -4476 4477 0
-4477 4500 0
-448 -4477 4478 0
-4478 4501 0
-449 -4478 4479 0
-4479 4502 0
-450 -4479 4480 0
-4480 4503 0
-451 -4480 4481 0
-4481 4504 0
-452 -4481 4482 0
-4482 4505 0
-453 -4482 4483 0
-4483 4506 0
-454 -4483 4484 0
-4484 4507 0
-455 -4484 4485 0
-4485 4508 0
-456 -4485 4486 0
-4486 4509 0
-457 -4486 4487 0
-4487 4510 0
-458 -4487 4488 0
-4488 4511 0
-459 -4488 4489 0
-4489 4512 0
-460 -4489 4490 0
-4490 4513 0
-461 -4490 4491 0
-4491 4514 0
-462 -4491 4492 0
-4492 4515 0
-463 -4492 4493 0
-4493 4516 0
-464 -4493 4494 0
-4494 4517 0
-465 -4494 4495 0
-4495 4518 0
-466 -4495 4496 0
-4496 4519 0
-467 -4496 4497 0
-4497 4520 0
-468 -4497 4498 0
-4498 4521 0
-469 -4498 0
-447 4499 0
-4499 4522 0
-448 -4499 4500 0
-4500 4523 0
-449 -4500 4501 0
-4501 4524 0
-450 -4501 4502 0
-4502 4525 0
-451 -4502 4503 0
-4503 4526 0
-452 -4503 4504 0
-4504 4527 0
-453 -4504 4505 0
-4505 4528 0
-454 -4505 4506 0
-4506 4529 0
-455 -4506 4507 0
-4507 4530 0
-456 -4507 4508 0
-4508 4531 0
-457 -4508 4509 0
-4509 4532 0
-458 -4509 4510 0
-4510 4533 0
-459 -4510 4511 0
-4511 4534 0
-460 -4511 4512 0
-4512 4535 0
-461 -4512 4513 0
-4513 4536 0
-462 -4513 4514 0
-4514 4537 0
-463 -4514 4515 0
-4515 4538 0
-464 -4515 4516 0
-4516 4539 0
-465 -4516 4517 0
-4517 4540 0
-466 -4517 4518 0
-4518 4541 0
-467 -4518 4519 0
-4519 4542 0
-468 -4519 4520 0
-4520 4543 0
-469 -4520 4521 0
-4521 4544 0
-470 -4521 0
-448 4522 0
-4522 4545 0
-449 -4522 4523 0
-4523 4546 0
-450 -4523 4524 0
-4524 4547 0
-451 -4524 4525 0
-4525 4548 0
-452 -4525 4526 0
-4526 4549 0
-453 -4526 4527 0
-4527 4550 0
-454 -4527 4528 0
-4528 4551 0
-455 -4528 4529 0
-4529 4552 0
-456 -4529 4530 0
-4530 4553 0
-457 -4530 4531 0
-4531 4554 0
-458 -4531 4532 0
-4532 4555 0
-459 -4532 4533 0
-4533 4556 0
-460 -4533 4534 0
-4534 4557 0
-461 -4534 4535 0
-4535 4558 0
-462 -4535 4536 0
-4536 4559 0
-463 -4536 4537 0
-4537 4560 0
-464 -4537 4538 0
-4538 4561 0
-465 -4538 4539 0
-4539 4562 0
-466 -4539 4540 0
-4540 4563 0
-467 -4540 4541 0
-4541 4564 0
-468 -4541 4542 0
-4542 4565 0
-469 -4542 4543 0
-4543 4566 0
-470 -4543 4544 0
-4544 4567 0
-471 -4544 0
-449 4545 0
-4545 4568 0
-450 -4545 4546 0
-4546 4569 0
-451 -4546 4547 0
-4547 4570 0
-452 -4547 4548 0
-4548 4571 0
-453 -4548 4549 0
-4549 4572 0
-454 -4549 4550 0
-4550 4573 0
-455 -4550 4551 0
-4551 4574 0
-456 -4551 4552 0
-4552 4575 0
-457 -4552 4553 0
-4553 4576 0
-458 -4553 4554 0
-4554 4577 0
-459 -4554 4555 0
-4555 4578 0
-460 -4555 4556 0
-4556 4579 0
-461 -4556 4557 0
-4557 4580 0
-462 -4557 4558 0
-4558 4581 0
-463 -4558 4559 0
-4559 4582 0
-464 -4559 4560 0
-4560 4583 0
-465 -4560 4561 0
-4561 4584 0
-466 -4561 4562 0
-4562 4585 0
-467 -4562 4563 0
-4563 4586 0
-468 -4563 4564 0
-4564 4587 0
-469 -4564 4565 0
-4565 4588 0
-470 -4565 4566 0
-4566 4589 0
-471 -4566 4567 0
-4567 4590 0
-472 -4567 0
-450 4568 0
-4568 4591 0
-451 -4568 4569 0
-4569 4592 0
-452 -4569 4570 0
-4570 4593 0
-453 -4570 4571 0
-4571 4594 0
-454 -4571 4572 0
-4572 4595 0
-455 -4572 4573 0
-4573 4596 0
-456 -4573 4574 0
-4574 4597 0
-457 -4574 4575 0
-4575 4598 0
-458 -4575 4576 0
-4576 4599 0
-459 -4576 4577 0
-4577 4600 0
-460 -4577 4578 0
-4578 4601 0
-461 -4578 4579 0
-4579 4602 0
-462 -4579 4580 0
-4580 4603 0
-463 -4580 4581 0
-4581 4604 0
-464 -4581 4582 0
-4582 4605 0
-465 -4582 4583 0
-4583 4606 0
-466 -4583 4584 0
-4584 4607 0
-467 -4584 4585 0
-4585 4608 0
-468 -4585 4586 0
-4586 4609 0
-469 -4586 4587 0
-4587 4610 0
-470 -4587 4588 0
-4588 4611 0
-471 -4588 4589 0
-4589 4612 0
-472 -4589 4590 0
-4590 4613 0
-473 -4590 0
-451 4591 0
-4591 4614 0
-452 -4591 4592 0
-4592 4615 0
-453 -4592 4593 0
-4593 4616 0
-454 -4593 4594 0
-4594 4617 0
-455 -4594 4595 0
-4595 4618 0
-456 -4595 4596 0
-4596 4619 0
-457 -4596 4597 0
-4597 4620 0
-458 -4597 4598 0
-4598 4621 0
-459 -4598 4599 0
-4599 4622 0
-460 -4599 4600 0
-4600 4623 0
-461 -4600 4601 0
-4601 4624 0
-462 -4601 4602 0
-4602 4625 0
-463 -4602 4603 0
-4603 4626 0
-464 -4603 4604 0
-4604 4627 0
-465 -4604 4605 0
-4605 4628 0
-466 -4605 4606 0
-4606 4629 0
-467 -4606 4607 0
-4607 4630 0
-468 -4607 4608 0
-4608 4631 0
-469 -4608 4609 0
-4609 4632 0
-470 -4609 4610 0
-4610 4633 0
-471 -4610 4611 0
-4611 4634 0
-472 -4611 4612 0
-4612 4635 0
-473 -4612 4613 0
-4613 4636 0
-474 -4613 0
-452 4614 0
-4614 4637 0
-453 -4614 4615 0
-4615 4638 0
-454 -4615 4616 0
-4616 4639 0
-455 -4616 4617 0
-4617 4640 0
-456 -4617 4618 0
-4618 4641 0
-457 -4618 4619 0
-4619 4642 0
-458 -4619 4620 0
-4620 4643 0
-459 -4620 4621 0
-4621 4644 0
-460 -4621 4622 0
-4622 4645 0
-461 -4622 4623 0
-4623 4646 0
-462 -4623 4624 0
-4624 4647 0
-463 -4624 4625 0
-4625 4648 0
-464 -4625 4626 0
-4626 4649 0
-465 -4626 4627 0
-4627 4650 0
-466 -4627 4628 0
-4628 4651 0
-467 -4628 4629 0
-4629 4652 0
-468 -4629 4630 0
-4630 4653 0
-469 -4630 4631 0
-4631 4654 0
-470 -4631 4632 0
-4632 4655 0
-471 -4632 4633 0
-4633 4656 0
-472 -4633 4634 0
-4634 4657 0
-473 -4634 4635 0
-4635 4658 0
-474 -4635 4636 0
-4636 4659 0
-475 -4636 0
-453 4637 0
-4637 4660 0
-454 -4637 4638 0
-4638 4661 0
-455 -4638 4639 0
-4639 4662 0
-456 -4639 4640 0
-4640 4663 0
-457 -4640 4641 0
-4641 4664 0
-458 -4641 4642 0
-4642 4665 0
-459 -4642 4643 0
-4643 4666 0
-460 -4643 4644 0
-4644 4667 0
-461 -4644 4645 0
-4645 4668 0
-462 -4645 4646 0
-4646 4669 0
-463 -4646 4647 0
-4647 4670 0
-464 -4647 4648 0
-4648 4671 0
-465 -4648 4649 0
-4649 4672 0
-466 -4649 4650 0
-4650 4673 0
-467 -4650 4651 0
-4651 4674 0
-468 -4651 4652 0
-4652 4675 0
-469 -4652 4653 0
-4653 4676 0
-470 -4653 4654 0
-4654 4677 0
-471 -4654 4655 0
-4655 4678 0
-472 -4655 4656 0
-4656 4679 0
-473 -4656 4657 0
-4657 4680 0
-474 -4657 4658 0
-4658 4681 0
-475 -4658 4659 0
-4659 4682 0
-476 -4659 0
-454 4660 0
-4660 4683 0
-455 -4660 4661 0
-4661 4684 0
-456 -4661 4662 0
-4662 4685 0
-457 -4662 4663 0
-4663 4686 0
-458 -4663 4664 0
-4664 4687 0
-459 -4664 4665 0
-4665 4688 0
-460 -4665 4666 0
-4666 4689 0
-461 -4666 4667 0
-4667 4690 0
-462 -4667 4668 0
-4668 4691 0
-463 -4668 4669 0
-4669 4692 0
-464 -4669 4670 0
-4670 4693 0
-465 -4670 4671 0
-4671 4694 0
-466 -4671 4672 0
-4672 4695 0
-467 -4672 4673 0
-4673 4696 0
-468 -4673 4674 0
-4674 4697 0
-469 -4674 4675 0
-4675 4698 0
-470 -4675 4676 0
-4676 4699 0
-471 -4676 4677 0
-4677 4700 0
-472 -4677 4678 0
-4678 4701 0
-473 -4678 4679 0
-4679 4702 0
-474 -4679 4680 0
-4680 4703 0
-475 -4680 4681 0
-4681 4704 0
-476 -4681 4682 0
-4682 4705 0
-477 -4682 0
-455 4683 0
-4683 4706 0
-456 -4683 4684 0
-4684 4707 0
-457 -4684 4685 0
-4685 4708 0
-458 -4685 4686 0
-4686 4709 0
-459 -4686 4687 0
-4687 4710 0
-460 -4687 4688 0
-4688 4711 0
-461 -4688 4689 0
-4689 4712 0
-462 -4689 4690 0
-4690 4713 0
-463 -4690 4691 0
-4691 4714 0
-464 -4691 4692 0
-4692 4715 0
-465 -4692 4693 0
-4693 4716 0
-466 -4693 4694 0
-4694 4717 0
-467 -4694 4695 0
-4695 4718 0
-468 -4695 4696 0
-4696 4719 0
-469 -4696 4697 0
-4697 4720 0
-470 -4697 4698 0
-4698 4721 0
-471 -4698 4699 0
-4699 4722 0
-472 -4699 4700 0
-4700 4723 0
-473 -4700 4701 0
-4701 4724 0
-474 -4701 4702 0
-4702 4725 0
-475 -4702 4703 0
-4703 4726 0
-476 -4703 4704 0
-4704 4727 0
-477 -4704 4705 0
-4705 4728 0
-478 -4705 0
-456 4706 0
-4706 4729 0
-457 -4706 4707 0
-4707 4730 0
-458 -4707 4708 0
-4708 4731 0
-459 -4708 4709 0
-4709 4732 0
-460 -4709 4710 0
-4710 4733 0
-461 -4710 4711 0
-4711 4734 0
-462 -4711 4712 0
-4712 4735 0
-463 -4712 4713 0
-4713 4736 0
-464 -4713 4714 0
-4714 4737 0
-465 -4714 4715 0
-4715 4738 0
-466 -4715 4716 0
-4716 4739 0
-467 -4716 4717 0
-4717 4740 0
-468 -4717 4718 0
-4718 4741 0
-469 -4718 4719 0
-4719 4742 0
-470 -4719 4720 0
-4720 4743 0
-471 -4720 4721 0
-4721 4744 0
-472 -4721 4722 0
-4722 4745 0
-473 -4722 4723 0
-4723 4746 0
-474 -4723 4724 0
-4724 4747 0
-475 -4724 4725 0
-4725 4748 0
-476 -4725 4726 0
-4726 4749 0
-477 -4726 4727 0
-4727 4750 0
-478 -4727 4728 0
-4728 4751 0
-479 -4728 0
-457 4729 0
-4729 4752 0
-458 -4729 4730 0
-4730 4753 0
-459 -4730 4731 0
-4731 4754 0
-460 -4731 4732 0
-4732 4755 0
-461 -4732 4733 0
-4733 4756 0
-462 -4733 4734 0
-4734 4757 0
-463 -4734 4735 0
-4735 4758 0
-464 -4735 4736 0
-4736 4759 0
-465 -4736 4737 0
-4737 4760 0
-466 -4737 4738 0
-4738 4761 0
-467 -4738 4739 0
-4739 4762 0
-468 -4739 4740 0
-4740 4763 0
-469 -4740 4741 0
-4741 4764 0
-470 -4741 4742 0
-4742 4765 0
-471 -4742 4743 0
-4743 4766 0
-472 -4743 4744 0
-4744 4767 0
-473 -4744 4745 0
-4745 4768 0
-474 -4745 4746 0
-4746 4769 0
-475 -4746 4747 0
-4747 4770 0
-476 -4747 4748 0
-4748 4771 0
-477 -4748 4749 0
-4749 4772 0
-478 -4749 4750 0
-4750 4773 0
-479 -4750 4751 0
-4751 4774 0
-480 -4751 0
-458 4752 0
-4752 4775 0
-459 -4752 4753 0
-4753 4776 0
-460 -4753 4754 0
-4754 4777 0
-461 -4754 4755 0
-4755 4778 0
-462 -4755 4756 0
-4756 4779 0
-463 -4756 4757 0
-4757 4780 0
-464 -4757 4758 0
-4758 4781 0
-465 -4758 4759 0
-4759 4782 0
-466 -4759 4760 0
-4760 4783 0
-467 -4760 4761 0
-4761 4784 0
-468 -4761 4762 0
-4762 4785 0
-469 -4762 4763 0
-4763 4786 0
-470 -4763 4764 0
-4764 4787 0
-471 -4764 4765 0
-4765 4788 0
-472 -4765 4766 0
-4766 4789 0
-473 -4766 4767 0
-4767 4790 0
-474 -4767 4768 0
-4768 4791 0
-475 -4768 4769 0
-4769 4792 0
-476 -4769 4770 0
-4770 4793 0
-477 -4770 4771 0
-4771 4794 0
-478 -4771 4772 0
-4772 4795 0
-479 -4772 4773 0
-4773 4796 0
-480 -4773 4774 0
-4774 4797 0
-481 -4774 0
-459 4775 0
-4775 4798 0
-460 -4775 4776 0
-4776 4799 0
-461 -4776 4777 0
-4777 4800 0
-462 -4777 4778 0
-4778 4801 0
-463 -4778 4779 0
-4779 4802 0
-464 -4779 4780 0
-4780 4803 0
-465 -4780 4781 0
-4781 4804 0
-466 -4781 4782 0
-4782 4805 0
-467 -4782 4783 0
-4783 4806 0
-468 -4783 4784 0
-4784 4807 0
-469 -4784 4785 0
-4785 4808 0
-470 -4785 4786 0
-4786 4809 0
-471 -4786 4787 0
-4787 4810 0
-472 -4787 4788 0
-4788 4811 0
-473 -4788 4789 0
-4789 4812 0
-474 -4789 4790 0
-4790 4813 0
-475 -4790 4791 0
-4791 4814 0
-476 -4791 4792 0
-4792 4815 0
-477 -4792 4793 0
-4793 4816 0
-478 -4793 4794 0
-4794 4817 0
-479 -4794 4795 0
-4795 4818 0
-480 -4795 4796 0
-4796 4819 0
-481 -4796 4797 0
-4797 4820 0
-482 -4797 0
-460 4798 0
-4798 4821 0
-461 -4798 4799 0
-4799 4822 0
-462 -4799 4800 0
-4800 4823 0
-463 -4800 4801 0
-4801 4824 0
-464 -4801 4802 0
-4802 4825 0
-465 -4802 4803 0
-4803 4826 0
-466 -4803 4804 0
-4804 4827 0
-467 -4804 4805 0
-4805 4828 0
-468 -4805 4806 0
-4806 4829 0
-469 -4806 4807 0
-4807 4830 0
-470 -4807 4808 0
-4808 4831 0
-471 -4808 4809 0
-4809 4832 0
-472 -4809 4810 0
-4810 4833 0
-473 -4810 4811 0
-4811 4834 0
-474 -4811 4812 0
-4812 4835 0
-475 -4812 4813 0
-4813 4836 0
-476 -4813 4814 0
-4814 4837 0
-477 -4814 4815 0
-4815 4838 0
-478 -4815 4816 0
-4816 4839 0
-479 -4816 4817 0
-4817 4840 0
-480 -4817 4818 0
-4818 4841 0
-481 -4818 4819 0
-4819 4842 0
-482 -4819 4820 0
-4820 4843 0
-483 -4820 0
-461 4821 0
-4821 4844 0
-462 -4821 4822 0
-4822 4845 0
-463 -4822 4823 0
-4823 4846 0
-464 -4823 4824 0
-4824 4847 0
-465 -4824 4825 0
-4825 4848 0
-466 -4825 4826 0
-4826 4849 0
-467 -4826 4827 0
-4827 4850 0
-468 -4827 4828 0
-4828 4851 0
-469 -4828 4829 0
-4829 4852 0
-470 -4829 4830 0
-4830 4853 0
-471 -4830 4831 0
-4831 4854 0
-472 -4831 4832 0
-4832 4855 0
-473 -4832 4833 0
-4833 4856 0
-474 -4833 4834 0
-4834 4857 0
-475 -4834 4835 0
-4835 4858 0
-476 -4835 4836 0
-4836 4859 0
-477 -4836 4837 0
-4837 4860 0
-478 -4837 4838 0
-4838 4861 0
-479 -4838 4839 0
-4839 4862 0
-480 -4839 4840 0
-4840 4863 0
-481 -4840 4841 0
-4841 4864 0
-482 -4841 4842 0
-4842 4865 0
-483 -4842 4843 0
-4843 4866 0
-484 -4843 0
-462 4844 0
-4844 4867 0
-463 -4844 4845 0
-4845 4868 0
-464 -4845 4846 0
-4846 4869 0
-465 -4846 4847 0
-4847 4870 0
-466 -4847 4848 0
-4848 4871 0
-467 -4848 4849 0
-4849 4872 0
-468 -4849 4850 0
-4850 4873 0
-469 -4850 4851 0
-4851 4874 0
-470 -4851 4852 0
-4852 4875 0
-471 -4852 4853 0
-4853 4876 0
-472 -4853 4854 0
-4854 4877 0
-473 -4854 4855 0
-4855 4878 0
-474 -4855 4856 0
-4856 4879 0
-475 -4856 4857 0
-4857 4880 0
-476 -4857 4858 0
-4858 4881 0
-477 -4858 4859 0
-4859 4882 0
-478 -4859 4860 0
-4860 4883 0
-479 -4860 4861 0
-4861 4884 0
-480 -4861 4862 0
-4862 4885 0
-481 -4862 4863 0
-4863 4886 0
-482 -4863 4864 0
-4864 4887 0
-483 -4864 4865 0
-4865 4888 0
-484 -4865 4866 0
-4866 4889 0
-485 -4866 0
-463 4867 0
-4867 4890 0
-464 -4867 4868 0
-4868 4891 0
-465 -4868 4869 0
-4869 4892 0
-466 -4869 4870 0
-4870 4893 0
-467 -4870 4871 0
-4871 4894 0
-468 -4871 4872 0
-4872 4895 0
-469 -4872 4873 0
-4873 4896 0
-470 -4873 4874 0
-4874 4897 0
-471 -4874 4875 0
-4875 4898 0
-472 -4875 4876 0
-4876 4899 0
-473 -4876 4877 0
-4877 4900 0
-474 -4877 4878 0
-4878 4901 0
-475 -4878 4879 0
-4879 4902 0
-476 -4879 4880 0
-4880 4903 0
-477 -4880 4881 0
-4881 4904 0
-478 -4881 4882 0
-4882 4905 0
-479 -4882 4883 0
-4883 4906 0
-480 -4883 4884 0
-4884 4907 0
-481 -4884 4885 0
-4885 4908 0
-482 -4885 4886 0
-4886 4909 0
-483 -4886 4887 0
-4887 4910 0
-484 -4887 4888 0
-4888 4911 0
-485 -4888 4889 0
-4889 4912 0
-486 -4889 0
-464 4890 0
-4890 4913 0
-465 -4890 4891 0
-4891 4914 0
-466 -4891 4892 0
-4892 4915 0
-467 -4892 4893 0
-4893 4916 0
-468 -4893 4894 0
-4894 4917 0
-469 -4894 4895 0
-4895 4918 0
-470 -4895 4896 0
-4896 4919 0
-471 -4896 4897 0
-4897 4920 0
-472 -4897 4898 0
-4898 4921 0
-473 -4898 4899 0
-4899 4922 0
-474 -4899 4900 0
-4900 4923 0
-475 -4900 4901 0
-4901 4924 0
-476 -4901 4902 0
-4902 4925 0
-477 -4902 4903 0
-4903 4926 0
-478 -4903 4904 0
-4904 4927 0
-479 -4904 4905 0
-4905 4928 0
-480 -4905 4906 0
-4906 4929 0
-481 -4906 4907 0
-4907 4930 0
-482 -4907 4908 0
-4908 4931 0
-483 -4908 4909 0
-4909 4932 0
-484 -4909 4910 0
-4910 4933 0
-485 -4910 4911 0
-4911 4934 0
-486 -4911 4912 0
-4912 4935 0
-487 -4912 0
-465 4913 0
-4913 4936 0
-466 -4913 4914 0
-4914 4937 0
-467 -4914 4915 0
-4915 4938 0
-468 -4915 4916 0
-4916 4939 0
-469 -4916 4917 0
-4917 4940 0
-470 -4917 4918 0
-4918 4941 0
-471 -4918 4919 0
-4919 4942 0
-472 -4919 4920 0
-4920 4943 0
-473 -4920 4921 0
-4921 4944 0
-474 -4921 4922 0
-4922 4945 0
-475 -4922 4923 0
-4923 4946 0
-476 -4923 4924 0
-4924 4947 0
-477 -4924 4925 0
-4925 4948 0
-478 -4925 4926 0
-4926 4949 0
-479 -4926 4927 0
-4927 4950 0
-480 -4927 4928 0
-4928 4951 0
-481 -4928 4929 0
-4929 4952 0
-482 -4929 4930 0
-4930 4953 0
-483 -4930 4931 0
-4931 4954 0
-484 -4931 4932 0
-4932 4955 0
-485 -4932 4933 0
-4933 4956 0
-486 -4933 4934 0
-4934 4957 0
-487 -4934 4935 0
-4935 4958 0
-488 -4935 0
-466 4936 0
-4936 4959 0
-467 -4936 4937 0
-4937 4960 0
-468 -4937 4938 0
-4938 4961 0
-469 -4938 4939 0
-4939 4962 0
-470 -4939 4940 0
-4940 4963 0
-471 -4940 4941 0
-4941 4964 0
-472 -4941 4942 0
-4942 4965 0
-473 -4942 4943 0
-4943 4966 0
-474 -4943 4944 0
-4944 4967 0
-475 -4944 4945 0
-4945 4968 0
-476 -4945 4946 0
-4946 4969 0
-477 -4946 4947 0
-4947 4970 0
-478 -4947 4948 0
-4948 4971 0
-479 -4948 4949 0
-4949 4972 0
-480 -4949 4950 0
-4950 4973 0
-481 -4950 4951 0
-4951 4974 0
-482 -4951 4952 0
-4952 4975 0
-483 -4952 4953 0
-4953 4976 0
-484 -4953 4954 0
-4954 4977 0
-485 -4954 4955 0
-4955 4978 0
-486 -4955 4956 0
-4956 4979 0
-487 -4956 4957 0
-4957 4980 0
-488 -4957 4958 0
-4958 4981 0
-489 -4958 0
-467 4959 0
-4959 4982 0
-468 -4959 4960 0
-4960 4983 0
-469 -4960 4961 0
-4961 4984 0
-470 -4961 4962 0
-4962 4985 0
-471 -4962 4963 0
-4963 4986 0
-472 -4963 4964 0
-4964 4987 0
-473 -4964 4965 0
-4965 4988 0
-474 -4965 4966 0
-4966 4989 0
-475 -4966 4967 0
-4967 4990 0
-476 -4967 4968 0
-4968 4991 0
-477 -4968 4969 0
-4969 4992 0
-478 -4969 4970 0
-4970 4993 0
-479 -4970 4971 0
-4971 4994 0
-480 -4971 4972 0
-4972 4995 0
-481 -4972 4973 0
-4973 4996 0
-482 -4973 4974 0
-4974 4997 0
-483 -4974 4975 0
-4975 4998 0
-484 -4975 4976 0
-4976 4999 0
-485 -4976 4977 0
-4977 5000 0
-486 -4977 4978 0
-4978 5001 0
-487 -4978 4979 0
-4979 5002 0
-488 -4979 4980 0
-4980 5003 0
-489 -4980 4981 0
-4981 5004 0
-490 -4981 0
-468 4982 0
-4982 5005 0
-469 -4982 4983 0
-4983 5006 0
-470 -4983 4984 0
-4984 5007 0
-471 -4984 4985 0
-4985 5008 0
-472 -4985 4986 0
-4986 5009 0
-473 -4986 4987 0
-4987 5010 0
-474 -4987 4988 0
-4988 5011 0
-475 -4988 4989 0
-4989 5012 0
-476 -4989 4990 0
-4990 5013 0
-477 -4990 4991 0
-4991 5014 0
-478 -4991 4992 0
-4992 5015 0
-479 -4992 4993 0
-4993 5016 0
-480 -4993 4994 0
-4994 5017 0
-481 -4994 4995 0
-4995 5018 0
-482 -4995 4996 0
-4996 5019 0
-483 -4996 4997 0
-4997 5020 0
-484 -4997 4998 0
-4998 5021 0
-485 -4998 4999 0
-4999 5022 0
-486 -4999 5000 0
-5000 5023 0
-487 -5000 5001 0
-5001 5024 0
-488 -5001 5002 0
-5002 5025 0
-489 -5002 5003 0
-5003 5026 0
-490 -5003 5004 0
-5004 5027 0
-491 -5004 0
-469 5005 0
-5005 5028 0
-470 -5005 5006 0
-5006 5029 0
-471 -5006 5007 0
-5007 5030 0
-472 -5007 5008 0
-5008 5031 0
-473 -5008 5009 0
-5009 5032 0
-474 -5009 5010 0
-5010 5033 0
-475 -5010 5011 0
-5011 5034 0
-476 -5011 5012 0
-5012 5035 0
-477 -5012 5013 0
-5013 5036 0
-478 -5013 5014 0
-5014 5037 0
-479 -5014 5015 0
-5015 5038 0
-480 -5015 5016 0
-5016 5039 0
-481 -5016 5017 0
-5017 5040 0
-482 -5017 5018 0
-5018 5041 0
-483 -5018 5019 0
-5019 5042 0
-484 -5019 5020 0
-5020 5043 0
-485 -5020 5021 0
-5021 5044 0
-486 -5021 5022 0
-5022 5045 0
-487 -5022 5023 0
-5023 5046 0
-488 -5023 5024 0
-5024 5047 0
-489 -5024 5025 0
-5025 5048 0
-490 -5025 5026 0
-5026 5049 0
-491 -5026 5027 0
-5027 5050 0
-492 -5027 0
-470 5028 0
-5028 5051 0
-471 -5028 5029 0
-5029 5052 0
-472 -5029 5030 0
-5030 5053 0
-473 -5030 5031 0
-5031 5054 0
-474 -5031 5032 0
-5032 5055 0
-475 -5032 5033 0
-5033 5056 0
-476 -5033 5034 0
-5034 5057 0
-477 -5034 5035 0
-5035 5058 0
-478 -5035 5036 0
-5036 5059 0
-479 -5036 5037 0
-5037 5060 0
-480 -5037 5038 0
-5038 5061 0
-481 -5038 5039 0
-5039 5062 0
-482 -5039 5040 0
-5040 5063 0
-483 -5040 5041 0
-5041 5064 0
-484 -5041 5042 0
-5042 5065 0
-485 -5042 5043 0
-5043 5066 0
-486 -5043 5044 0
-5044 5067 0
-487 -5044 5045 0
-5045 5068 0
-488 -5045 5046 0
-5046 5069 0
-489 -5046 5047 0
-5047 5070 0
-490 -5047 5048 0
-5048 5071 0
-491 -5048 5049 0
-5049 5072 0
-492 -5049 5050 0
-5050 5073 0
-493 -5050 0
-471 5051 0
-5051 5074 0
-472 -5051 5052 0
-5052 5075 0
-473 -5052 5053 0
-5053 5076 0
-474 -5053 5054 0
-5054 5077 0
-475 -5054 5055 0
-5055 5078 0
-476 -5055 5056 0
-5056 5079 0
-477 -5056 5057 0
-5057 5080 0
-478 -5057 5058 0
-5058 5081 0
-479 -5058 5059 0
-5059 5082 0
-480 -5059 5060 0
-5060 5083 0
-481 -5060 5061 0
-5061 5084 0
-482 -5061 5062 0
-5062 5085 0
-483 -5062 5063 0
-5063 5086 0
-484 -5063 5064 0
-5064 5087 0
-485 -5064 5065 0
-5065 5088 0
-486 -5065 5066 0
-5066 5089 0
-487 -5066 5067 0
-5067 5090 0
-488 -5067 5068 0
-5068 5091 0
-489 -5068 5069 0
-5069 5092 0
-490 -5069 5070 0
-5070 5093 0
-491 -5070 5071 0
-5071 5094 0
-492 -5071 5072 0
-5072 5095 0
-493 -5072 5073 0
-5073 5096 0
-494 -5073 0
-472 5074 0
-5074 5097 0
-473 -5074 5075 0
-5075 5098 0
-474 -5075 5076 0
-5076 5099 0
-475 -5076 5077 0
-5077 5100 0
-476 -5077 5078 0
-5078 5101 0
-477 -5078 5079 0
-5079 5102 0
-478 -5079 5080 0
-5080 5103 0
-479 -5080 5081 0
-5081 5104 0
-480 -5081 5082 0
-5082 5105 0
-481 -5082 5083 0
-5083 5106 0
-482 -5083 5084 0
-5084 5107 0
-483 -5084 5085 0
-5085 5108 0
-484 -5085 5086 0
-5086 5109 0
-485 -5086 5087 0
-5087 5110 0
-486 -5087 5088 0
-5088 5111 0
-487 -5088 5089 0
-5089 5112 0
-488 -5089 5090 0
-5090 5113 0
-489 -5090 5091 0
-5091 5114 0
-490 -5091 5092 0
-5092 5115 0
-491 -5092 5093 0
-5093 5116 0
-492 -5093 5094 0
-5094 5117 0
-493 -5094 5095 0
-5095 5118 0
-494 -5095 5096 0
-5096 5119 0
-495 -5096 0
-473 5097 0
-5097 5120 0
-474 -5097 5098 0
-5098 5121 0
-475 -5098 5099 0
-5099 5122 0
-476 -5099 5100 0
-5100 5123 0
-477 -5100 5101 0
-5101 5124 0
-478 -5101 5102 0
-5102 5125 0
-479 -5102 5103 0
-5103 5126 0
-480 -5103 5104 0
-5104 5127 0
-481 -5104 5105 0
-5105 5128 0
-482 -5105 5106 0
-5106 5129 0
-483 -5106 5107 0
-5107 5130 0
-484 -5107 5108 0
-5108 5131 0
-485 -5108 5109 0
-5109 5132 0
-486 -5109 5110 0
-5110 5133 0
-487 -5110 5111 0
-5111 5134 0
-488 -5111 5112 0
-5112 5135 0
-489 -5112 5113 0
-5113 5136 0
-490 -5113 5114 0
-5114 5137 0
-491 -5114 5115 0
-5115 5138 0
-492 -5115 5116 0
-5116 5139 0
-493 -5116 5117 0
-5117 5140 0
-494 -5117 5118 0
-5118 5141 0
-495 -5118 5119 0
-5119 5142 0
-496 -5119 0
-474 5120 0
-5120 5143 0
-475 -5120 5121 0
-5121 5144 0
-476 -5121 5122 0
-5122 5145 0
-477 -5122 5123 0
-5123 5146 0
-478 -5123 5124 0
-5124 5147 0
-479 -5124 5125 0
-5125 5148 0
-480 -5125 5126 0
-5126 5149 0
-481 -5126 5127 0
-5127 5150 0
-482 -5127 5128 0
-5128 5151 0
-483 -5128 5129 0
-5129 5152 0
-484 -5129 5130 0
-5130 5153 0
-485 -5130 5131 0
-5131 5154 0
-486 -5131 5132 0
-5132 5155 0
-487 -5132 5133 0
-5133 5156 0
-488 -5133 5134 0
-5134 5157 0
-489 -5134 5135 0
-5135 5158 0
-490 -5135 5136 0
-5136 5159 0
-491 -5136 5137 0
-5137 5160 0
-492 -5137 5138 0
-5138 5161 0
-493 -5138 5139 0
-5139 5162 0
-494 -5139 5140 0
-5140 5163 0
-495 -5140 5141 0
-5141 5164 0
-496 -5141 5142 0
-5142 5165 0
-497 -5142 0
-475 5143 0
-5143 5166 0
-476 -5143 5144 0
-5144 5167 0
-477 -5144 5145 0
-5145 5168 0
-478 -5145 5146 0
-5146 5169 0
-479 -5146 5147 0
-5147 5170 0
-480 -5147 5148 0
-5148 5171 0
-481 -5148 5149 0
-5149 5172 0
-482 -5149 5150 0
-5150 5173 0
-483 -5150 5151 0
-5151 5174 0
-484 -5151 5152 0
-5152 5175 0
-485 -5152 5153 0
-5153 5176 0
-486 -5153 5154 0
-5154 5177 0
-487 -5154 5155 0
-5155 5178 0
-488 -5155 5156 0
-5156 5179 0
-489 -5156 5157 0
-5157 5180 0
-490 -5157 5158 0
-5158 5181 0
-491 -5158 5159 0
-5159 5182 0
-492 -5159 5160 0
-5160 5183 0
-493 -5160 5161 0
-5161 5184 0
-494 -5161 5162 0
-5162 5185 0
-495 -5162 5163 0
-5163 5186 0
-496 -5163 5164 0
-5164 5187 0
-497 -5164 5165 0
-5165 5188 0
-498 -5165 0
-476 5166 0
-5166 5189 0
-477 -5166 5167 0
-5167 5190 0
-478 -5167 5168 0
-5168 5191 0
-479 -5168 5169 0
-5169 5192 0
-480 -5169 5170 0
-5170 5193 0
-481 -5170 5171 0
-5171 5194 0
-482 -5171 5172 0
-5172 5195 0
-483 -5172 5173 0
-5173 5196 0
-484 -5173 5174 0
-5174 5197 0
-485 -5174 5175 0
-5175 5198 0
-486 -5175 5176 0
-5176 5199 0
-487 -5176 5177 0
-5177 5200 0
-488 -5177 5178 0
-5178 5201 0
-489 -5178 5179 0
-5179 5202 0
-490 -5179 5180 0
-5180 5203 0
-491 -5180 5181 0
-5181 5204 0
-492 -5181 5182 0
-5182 5205 0
-493 -5182 5183 0
-5183 5206 0
-494 -5183 5184 0
-5184 5207 0
-495 -5184 5185 0
-5185 5208 0
-496 -5185 5186 0
-5186 5209 0
-497 -5186 5187 0
-5187 5210 0
-498 -5187 5188 0
-5188 5211 0
-499 -5188 0
-477 5189 0
-5189 5212 0
-478 -5189 5190 0
-5190 5213 0
-479 -5190 5191 0
-5191 5214 0
-480 -5191 5192 0
-5192 5215 0
-481 -5192 5193 0
-5193 5216 0
-482 -5193 5194 0
-5194 5217 0
-483 -5194 5195 0
-5195 5218 0
-484 -5195 5196 0
-5196 5219 0
-485 -5196 5197 0
-5197 5220 0
-486 -5197 5198 0
-5198 5221 0
-487 -5198 5199 0
-5199 5222 0
-488 -5199 5200 0
-5200 5223 0
-489 -5200 5201 0
-5201 5224 0
-490 -5201 5202 0
-5202 5225 0
-491 -5202 5203 0
-5203 5226 0
-492 -5203 5204 0
-5204 5227 0
-493 -5204 5205 0
-5205 5228 0
-494 -5205 5206 0
-5206 5229 0
-495 -5206 5207 0
-5207 5230 0
-496 -5207 5208 0
-5208 5231 0
-497 -5208 5209 0
-5209 5232 0
-498 -5209 5210 0
-5210 5233 0
-499 -5210 5211 0
-5211 5234 0
-500 -5211 0
-478 5212 0
-5212 5235 0
-479 -5212 5213 0
-5213 5236 0
-480 -5213 5214 0
-5214 5237 0
-481 -5214 5215 0
-5215 5238 0
-482 -5215 5216 0
-5216 5239 0
-483 -5216 5217 0
-5217 5240 0
-484 -5217 5218 0
-5218 5241 0
-485 -5218 5219 0
-5219 5242 0
-486 -5219 5220 0
-5220 5243 0
-487 -5220 5221 0
-5221 5244 0
-488 -5221 5222 0
-5222 5245 0
-489 -5222 5223 0
-5223 5246 0
-490 -5223 5224 0
-5224 5247 0
-491 -5224 5225 0
-5225 5248 0
-492 -5225 5226 0
-5226 5249 0
-493 -5226 5227 0
-5227 5250 0
-494 -5227 5228 0
-5228 5251 0
-495 -5228 5229 0
-5229 5252 0
-496 -5229 5230 0
-5230 5253 0
-497 -5230 5231 0
-5231 5254 0
-498 -5231 5232 0
-5232 5255 0
-499 -5232 5233 0
-5233 5256 0
-500 -5233 5234 0
-5234 5257 0
-501 -5234 0
-479 5235 0
-5235 5258 0
-480 -5235 5236 0
-5236 5259 0
-481 -5236 5237 0
-5237 5260 0
-482 -5237 5238 0
-5238 5261 0
-483 -5238 5239 0
-5239 5262 0
-484 -5239 5240 0
-5240 5263 0
-485 -5240 5241 0
-5241 5264 0
-486 -5241 5242 0
-5242 5265 0
-487 -5242 5243 0
-5243 5266 0
-488 -5243 5244 0
-5244 5267 0
-489 -5244 5245 0
-5245 5268 0
-490 -5245 5246 0
-5246 5269 0
-491 -5246 5247 0
-5247 5270 0
-492 -5247 5248 0
-5248 5271 0
-493 -5248 5249 0
-5249 5272 0
-494 -5249 5250 0
-5250 5273 0
-495 -5250 5251 0
-5251 5274 0
-496 -5251 5252 0
-5252 5275 0
-497 -5252 5253 0
-5253 5276 0
-498 -5253 5254 0
-5254 5277 0
-499 -5254 5255 0
-5255 5278 0
-500 -5255 5256 0
-5256 5279 0
-501 -5256 5257 0
-5257 5280 0
-502 -5257 0
-480 5258 0
-5258 5281 0
-481 -5258 5259 0
-5259 5282 0
-482 -5259 5260 0
-5260 5283 0
-483 -5260 5261 0
-5261 5284 0
-484 -5261 5262 0
-5262 5285 0
-485 -5262 5263 0
-5263 5286 0
-486 -5263 5264 0
-5264 5287 0
-487 -5264 5265 0
-5265 5288 0
-488 -5265 5266 0
-5266 5289 0
-489 -5266 5267 0
-5267 5290 0
-490 -5267 5268 0
-5268 5291 0
-491 -5268 5269 0
-5269 5292 0
-492 -5269 5270 0
-5270 5293 0
-493 -5270 5271 0
-5271 5294 0
-494 -5271 5272 0
-5272 5295 0
-495 -5272 5273 0
-5273 5296 0
-496 -5273 5274 0
-5274 5297 0
-497 -5274 5275 0
-5275 5298 0
-498 -5275 5276 0
-5276 5299 0
-499 -5276 5277 0
-5277 5300 0
-500 -5277 5278 0
-5278 5301 0
-501 -5278 5279 0
-5279 5302 0
-502 -5279 5280 0
-5280 5303 0
-503 -5280 0
-481 5281 0
-5281 5304 0
-482 -5281 5282 0
-5282 5305 0
-483 -5282 5283 0
-5283 5306 0
-484 -5283 5284 0
-5284 5307 0
-485 -5284 5285 0
-5285 5308 0
-486 -5285 5286 0
-5286 5309 0
-487 -5286 5287 0
-5287 5310 0
-488 -5287 5288 0
-5288 5311 0
-489 -5288 5289 0
-5289 5312 0
-490 -5289 5290 0
-5290 5313 0
-491 -5290 5291 0
-5291 5314 0
-492 -5291 5292 0
-5292 5315 0
-493 -5292 5293 0
-5293 5316 0
-494 -5293 5294 0
-5294 5317 0
-495 -5294 5295 0
-5295 5318 0
-496 -5295 5296 0
-5296 5319 0
-497 -5296 5297 0
-5297 5320 0
-498 -5297 5298 0
-5298 5321 0
-499 -5298 5299 0
-5299 5322 0
-500 -5299 5300 0
-5300 5323 0
-501 -5300 5301 0
-5301 5324 0
-502 -5301 5302 0
-5302 5325 0
-503 -5302 5303 0
-5303 5326 0
-504 -5303 0
-482 5304 0
-5304 5327 0
-483 -5304 5305 0
-5305 5328 0
-484 -5305 5306 0
-5306 5329 0
-485 -5306 5307 0
-5307 5330 0
-486 -5307 5308 0
-5308 5331 0
-487 -5308 5309 0
-5309 5332 0
-488 -5309 5310 0
-5310 5333 0
-489 -5310 5311 0
-5311 5334 0
-490 -5311 5312 0
-5312 5335 0
-491 -5312 5313 0
-5313 5336 0
-492 -5313 5314 0
-5314 5337 0
-493 -5314 5315 0
-5315 5338 0
-494 -5315 5316 0
-5316 5339 0
-495 -5316 5317 0
-5317 5340 0
-496 -5317 5318 0
-5318 5341 0
-497 -5318 5319 0
-5319 5342 0
-498 -5319 5320 0
-5320 5343 0
-499 -5320 5321 0
-5321 5344 0
-500 -5321 5322 0
-5322 5345 0
-501 -5322 5323 0
-5323 5346 0
-502 -5323 5324 0
-5324 5347 0
-503 -5324 5325 0
-5325 5348 0
-504 -5325 5326 0
-5326 5349 0
-505 -5326 0
-483 5327 0
-5327 5350 0
-484 -5327 5328 0
-5328 5351 0
-485 -5328 5329 0
-5329 5352 0
-486 -5329 5330 0
-5330 5353 0
-487 -5330 5331 0
-5331 5354 0
-488 -5331 5332 0
-5332 5355 0
-489 -5332 5333 0
-5333 5356 0
-490 -5333 5334 0
-5334 5357 0
-491 -5334 5335 0
-5335 5358 0
-492 -5335 5336 0
-5336 5359 0
-493 -5336 5337 0
-5337 5360 0
-494 -5337 5338 0
-5338 5361 0
-495 -5338 5339 0
-5339 5362 0
-496 -5339 5340 0
-5340 5363 0
-497 -5340 5341 0
-5341 5364 0
-498 -5341 5342 0
-5342 5365 0
-499 -5342 5343 0
-5343 5366 0
-500 -5343 5344 0
-5344 5367 0
-501 -5344 5345 0
-5345 5368 0
-502 -5345 5346 0
-5346 5369 0
-503 -5346 5347 0
-5347 5370 0
-504 -5347 5348 0
-5348 5371 0
-505 -5348 5349 0
-5349 5372 0
-506 -5349 0
-484 5350 0
-5350 5373 0
-485 -5350 5351 0
-5351 5374 0
-486 -5351 5352 0
-5352 5375 0
-487 -5352 5353 0
-5353 5376 0
-488 -5353 5354 0
-5354 5377 0
-489 -5354 5355 0
-5355 5378 0
-490 -5355 5356 0
-5356 5379 0
-491 -5356 5357 0
-5357 5380 0
-492 -5357 5358 0
-5358 5381 0
-493 -5358 5359 0
-5359 5382 0
-494 -5359 5360 0
-5360 5383 0
-495 -5360 5361 0
-5361 5384 0
-496 -5361 5362 0
-5362 5385 0
-497 -5362 5363 0
-5363 5386 0
-498 -5363 5364 0
-5364 5387 0
-499 -5364 5365 0
-5365 5388 0
-500 -5365 5366 0
-5366 5389 0
-501 -5366 5367 0
-5367 5390 0
-502 -5367 5368 0
-5368 5391 0
-503 -5368 5369 0
-5369 5392 0
-504 -5369 5370 0
-5370 5393 0
-505 -5370 5371 0
-5371 5394 0
-506 -5371 5372 0
-5372 5395 0
-507 -5372 0
-485 5373 0
-5373 5396 0
-486 -5373 5374 0
-5374 5397 0
-487 -5374 5375 0
-5375 5398 0
-488 -5375 5376 0
-5376 5399 0
-489 -5376 5377 0
-5377 5400 0
-490 -5377 5378 0
-5378 5401 0
-491 -5378 5379 0
-5379 5402 0
-492 -5379 5380 0
-5380 5403 0
-493 -5380 5381 0
-5381 5404 0
-494 -5381 5382 0
-5382 5405 0
-495 -5382 5383 0
-5383 5406 0
-496 -5383 5384 0
-5384 5407 0
-497 -5384 5385 0
-5385 5408 0
-498 -5385 5386 0
-5386 5409 0
-499 -5386 5387 0
-5387 5410 0
-500 -5387 5388 0
-5388 5411 0
-501 -5388 5389 0
-5389 5412 0
-502 -5389 5390 0
-5390 5413 0
-503 -5390 5391 0
-5391 5414 0
-504 -5391 5392 0
-5392 5415 0
-505 -5392 5393 0
-5393 5416 0
-506 -5393 5394 0
-5394 5417 0
-507 -5394 5395 0
-5395 5418 0
-508 -5395 0
-486 5396 0
-5396 5419 0
-487 -5396 5397 0
-5397 5420 0
-488 -5397 5398 0
-5398 5421 0
-489 -5398 5399 0
-5399 5422 0
-490 -5399 5400 0
-5400 5423 0
-491 -5400 5401 0
-5401 5424 0
-492 -5401 5402 0
-5402 5425 0
-493 -5402 5403 0
-5403 5426 0
-494 -5403 5404 0
-5404 5427 0
-495 -5404 5405 0
-5405 5428 0
-496 -5405 5406 0
-5406 5429 0
-497 -5406 5407 0
-5407 5430 0
-498 -5407 5408 0
-5408 5431 0
-499 -5408 5409 0
-5409 5432 0
-500 -5409 5410 0
-5410 5433 0
-501 -5410 5411 0
-5411 5434 0
-502 -5411 5412 0
-5412 5435 0
-503 -5412 5413 0
-5413 5436 0
-504 -5413 5414 0
-5414 5437 0
-505 -5414 5415 0
-5415 5438 0
-506 -5415 5416 0
-5416 5439 0
-507 -5416 5417 0
-5417 5440 0
-508 -5417 5418 0
-5418 5441 0
-509 -5418 0
-487 5419 0
-5419 5442 0
-488 -5419 5420 0
-5420 5443 0
-489 -5420 5421 0
-5421 5444 0
-490 -5421 5422 0
-5422 5445 0
-491 -5422 5423 0
-5423 5446 0
-492 -5423 5424 0
-5424 5447 0
-493 -5424 5425 0
-5425 5448 0
-494 -5425 5426 0
-5426 5449 0
-495 -5426 5427 0
-5427 5450 0
-496 -5427 5428 0
-5428 5451 0
-497 -5428 5429 0
-5429 5452 0
-498 -5429 5430 0
-5430 5453 0
-499 -5430 5431 0
-5431 5454 0
-500 -5431 5432 0
-5432 5455 0
-501 -5432 5433 0
-5433 5456 0
-502 -5433 5434 0
-5434 5457 0
-503 -5434 5435 0
-5435 5458 0
-504 -5435 5436 0
-5436 5459 0
-505 -5436 5437 0
-5437 5460 0
-506 -5437 5438 0
-5438 5461 0
-507 -5438 5439 0
-5439 5462 0
-508 -5439 5440 0
-5440 5463 0
-509 -5440 5441 0
-5441 5464 0
-510 -5441 0
-488 5442 0
-5442 5465 0
-489 -5442 5443 0
-5443 5466 0
-490 -5443 5444 0
-5444 5467 0
-491 -5444 5445 0
-5445 5468 0
-492 -5445 5446 0
-5446 5469 0
-493 -5446 5447 0
-5447 5470 0
-494 -5447 5448 0
-5448 5471 0
-495 -5448 5449 0
-5449 5472 0
-496 -5449 5450 0
-5450 5473 0
-497 -5450 5451 0
-5451 5474 0
-498 -5451 5452 0
-5452 5475 0
-499 -5452 5453 0
-5453 5476 0
-500 -5453 5454 0
-5454 5477 0
-501 -5454 5455 0
-5455 5478 0
-502 -5455 5456 0
-5456 5479 0
-503 -5456 5457 0
-5457 5480 0
-504 -5457 5458 0
-5458 5481 0
-505 -5458 5459 0
-5459 5482 0
-506 -5459 5460 0
-5460 5483 0
-507 -5460 5461 0
-5461 5484 0
-508 -5461 5462 0
-5462 5485 0
-509 -5462 5463 0
-5463 5486 0
-510 -5463 5464 0
-5464 5487 0
-511 -5464 0
-489 5465 0
-5465 5488 0
-490 -5465 5466 0
-5466 5489 0
-491 -5466 5467 0
-5467 5490 0
-492 -5467 5468 0
-5468 5491 0
-493 -5468 5469 0
-5469 5492 0
-494 -5469 5470 0
-5470 5493 0
-495 -5470 5471 0
-5471 5494 0
-496 -5471 5472 0
-5472 5495 0
-497 -5472 5473 0
-5473 5496 0
-498 -5473 5474 0
-5474 5497 0
-499 -5474 5475 0
-5475 5498 0
-500 -5475 5476 0
-5476 5499 0
-501 -5476 5477 0
-5477 5500 0
-502 -5477 5478 0
-5478 5501 0
-503 -5478 5479 0
-5479 5502 0
-504 -5479 5480 0
-5480 5503 0
-505 -5480 5481 0
-5481 5504 0
-506 -5481 5482 0
-5482 5505 0
-507 -5482 5483 0
-5483 5506 0
-508 -5483 5484 0
-5484 5507 0
-509 -5484 5485 0
-5485 5508 0
-510 -5485 5486 0
-5486 5509 0
-511 -5486 5487 0
-5487 5510 0
-512 -5487 0
-490 5488 0
-5488 5511 0
-491 -5488 5489 0
-5489 5512 0
-492 -5489 5490 0
-5490 5513 0
-493 -5490 5491 0
-5491 5514 0
-494 -5491 5492 0
-5492 5515 0
-495 -5492 5493 0
-5493 5516 0
-496 -5493 5494 0
-5494 5517 0
-497 -5494 5495 0
-5495 5518 0
-498 -5495 5496 0
-5496 5519 0
-499 -5496 5497 0
-5497 5520 0
-500 -5497 5498 0
-5498 5521 0
-501 -5498 5499 0
-5499 5522 0
-502 -5499 5500 0
-5500 5523 0
-503 -5500 5501 0
-5501 5524 0
-504 -5501 5502 0
-5502 5525 0
-505 -5502 5503 0
-5503 5526 0
-506 -5503 5504 0
-5504 5527 0
-507 -5504 5505 0
-5505 5528 0
-508 -5505 5506 0
-5506 5529 0
-509 -5506 5507 0
-5507 5530 0
-510 -5507 5508 0
-5508 5531 0
-511 -5508 5509 0
-5509 5532 0
-512 -5509 5510 0
-5510 5533 0
-513 -5510 0
-491 5511 0
-5511 5534 0
-492 -5511 5512 0
-5512 5535 0
-493 -5512 5513 0
-5513 5536 0
-494 -5513 5514 0
-5514 5537 0
-495 -5514 5515 0
-5515 5538 0
-496 -5515 5516 0
-5516 5539 0
-497 -5516 5517 0
-5517 5540 0
-498 -5517 5518 0
-5518 5541 0
-499 -5518 5519 0
-5519 5542 0
-500 -5519 5520 0
-5520 5543 0
-501 -5520 5521 0
-5521 5544 0
-502 -5521 5522 0
-5522 5545 0
-503 -5522 5523 0
-5523 5546 0
-504 -5523 5524 0
-5524 5547 0
-505 -5524 5525 0
-5525 5548 0
-506 -5525 5526 0
-5526 5549 0
-507 -5526 5527 0
-5527 5550 0
-508 -5527 5528 0
-5528 5551 0
-509 -5528 5529 0
-5529 5552 0
-510 -5529 5530 0
-5530 5553 0
-511 -5530 5531 0
-5531 5554 0
-512 -5531 5532 0
-5532 5555 0
-513 -5532 5533 0
-5533 5556 0
-514 -5533 0
-492 5534 0
-5534 5557 0
-493 -5534 5535 0
-5535 5558 0
-494 -5535 5536 0
-5536 5559 0
-495 -5536 5537 0
-5537 5560 0
-496 -5537 5538 0
-5538 5561 0
-497 -5538 5539 0
-5539 5562 0
-498 -5539 5540 0
-5540 5563 0
-499 -5540 5541 0
-5541 5564 0
-500 -5541 5542 0
-5542 5565 0
-501 -5542 5543 0
-5543 5566 0
-502 -5543 5544 0
-5544 5567 0
-503 -5544 5545 0
-5545 5568 0
-504 -5545 5546 0
-5546 5569 0
-505 -5546 5547 0
-5547 5570 0
-506 -5547 5548 0
-5548 5571 0
-507 -5548 5549 0
-5549 5572 0
-508 -5549 5550 0
-5550 5573 0
-509 -5550 5551 0
-5551 5574 0
-510 -5551 5552 0
-5552 5575 0
-511 -5552 5553 0
-5553 5576 0
-512 -5553 5554 0
-5554 5577 0
-513 -5554 5555 0
-5555 5578 0
-514 -5555 5556 0
-5556 5579 0
-515 -5556 0
-493 5557 0
-5557 5580 0
-494 -5557 5558 0
-5558 5581 0
-495 -5558 5559 0
-5559 5582 0
-496 -5559 5560 0
-5560 5583 0
-497 -5560 5561 0
-5561 5584 0
-498 -5561 5562 0
-5562 5585 0
-499 -5562 5563 0
-5563 5586 0
-500 -5563 5564 0
-5564 5587 0
-501 -5564 5565 0
-5565 5588 0
-502 -5565 5566 0
-5566 5589 0
-503 -5566 5567 0
-5567 5590 0
-504 -5567 5568 0
-5568 5591 0
-505 -5568 5569 0
-5569 5592 0
-506 -5569 5570 0
-5570 5593 0
-507 -5570 5571 0
-5571 5594 0
-508 -5571 5572 0
-5572 5595 0
-509 -5572 5573 0
-5573 5596 0
-510 -5573 5574 0
-5574 5597 0
-511 -5574 5575 0
-5575 5598 0
-512 -5575 5576 0
-5576 5599 0
-513 -5576 5577 0
-5577 5600 0
-514 -5577 5578 0
-5578 5601 0
-515 -5578 5579 0
-5579 5602 0
-516 -5579 0
-494 5580 0
-5580 5603 0
-495 -5580 5581 0
-5581 5604 0
-496 -5581 5582 0
-5582 5605 0
-497 -5582 5583 0
-5583 5606 0
-498 -5583 5584 0
-5584 5607 0
-499 -5584 5585 0
-5585 5608 0
-500 -5585 5586 0
-5586 5609 0
-501 -5586 5587 0
-5587 5610 0
-502 -5587 5588 0
-5588 5611 0
-503 -5588 5589 0
-5589 5612 0
-504 -5589 5590 0
-5590 5613 0
-505 -5590 5591 0
-5591 5614 0
-506 -5591 5592 0
-5592 5615 0
-507 -5592 5593 0
-5593 5616 0
-508 -5593 5594 0
-5594 5617 0
-509 -5594 5595 0
-5595 5618 0
-510 -5595 5596 0
-5596 5619 0
-511 -5596 5597 0
-5597 5620 0
-512 -5597 5598 0
-5598 5621 0
-513 -5598 5599 0
-5599 5622 0
-514 -5599 5600 0
-5600 5623 0
-515 -5600 5601 0
-5601 5624 0
-516 -5601 5602 0
-5602 5625 0
-517 -5602 0
-495 5603 0
-5603 5626 0
-496 -5603 5604 0
-5604 5627 0
-497 -5604 5605 0
-5605 5628 0
-498 -5605 5606 0
-5606 5629 0
-499 -5606 5607 0
-5607 5630 0
-500 -5607 5608 0
-5608 5631 0
-501 -5608 5609 0
-5609 5632 0
-502 -5609 5610 0
-5610 5633 0
-503 -5610 5611 0
-5611 5634 0
-504 -5611 5612 0
-5612 5635 0
-505 -5612 5613 0
-5613 5636 0
-506 -5613 5614 0
-5614 5637 0
-507 -5614 5615 0
-5615 5638 0
-508 -5615 5616 0
-5616 5639 0
-509 -5616 5617 0
-5617 5640 0
-510 -5617 5618 0
-5618 5641 0
-511 -5618 5619 0
-5619 5642 0
-512 -5619 5620 0
-5620 5643 0
-513 -5620 5621 0
-5621 5644 0
-514 -5621 5622 0
-5622 5645 0
-515 -5622 5623 0
-5623 5646 0
-516 -5623 5624 0
-5624 5647 0
-517 -5624 5625 0
-5625 5648 0
-518 -5625 0
-496 5626 0
-5626 5649 0
-497 -5626 5627 0
-5627 5650 0
-498 -5627 5628 0
-5628 5651 0
-499 -5628 5629 0
-5629 5652 0
-500 -5629 5630 0
-5630 5653 0
-501 -5630 5631 0
-5631 5654 0
-502 -5631 5632 0
-5632 5655 0
-503 -5632 5633 0
-5633 5656 0
-504 -5633 5634 0
-5634 5657 0
-505 -5634 5635 0
-5635 5658 0
-506 -5635 5636 0
-5636 5659 0
-507 -5636 5637 0
-5637 5660 0
-508 -5637 5638 0
-5638 5661 0
-509 -5638 5639 0
-5639 5662 0
-510 -5639 5640 0
-5640 5663 0
-511 -5640 5641 0
-5641 5664 0
-512 -5641 5642 0
-5642 5665 0
-513 -5642 5643 0
-5643 5666 0
-514 -5643 5644 0
-5644 5667 0
-515 -5644 5645 0
-5645 5668 0
-516 -5645 5646 0
-5646 5669 0
-517 -5646 5647 0
-5647 5670 0
-518 -5647 5648 0
-5648 5671 0
-519 -5648 0
-497 5649 0
-5649 5672 0
-498 -5649 5650 0
-5650 5673 0
-499 -5650 5651 0
-5651 5674 0
-500 -5651 5652 0
-5652 5675 0
-501 -5652 5653 0
-5653 5676 0
-502 -5653 5654 0
-5654 5677 0
-503 -5654 5655 0
-5655 5678 0
-504 -5655 5656 0
-5656 5679 0
-505 -5656 5657 0
-5657 5680 0
-506 -5657 5658 0
-5658 5681 0
-507 -5658 5659 0
-5659 5682 0
-508 -5659 5660 0
-5660 5683 0
-509 -5660 5661 0
-5661 5684 0
-510 -5661 5662 0
-5662 5685 0
-511 -5662 5663 0
-5663 5686 0
-512 -5663 5664 0
-5664 5687 0
-513 -5664 5665 0
-5665 5688 0
-514 -5665 5666 0
-5666 5689 0
-515 -5666 5667 0
-5667 5690 0
-516 -5667 5668 0
-5668 5691 0
-517 -5668 5669 0
-5669 5692 0
-518 -5669 5670 0
-5670 5693 0
-519 -5670 5671 0
-5671 5694 0
-520 -5671 0
-498 5672 0
-5672 5695 0
-499 -5672 5673 0
-5673 5696 0
-500 -5673 5674 0
-5674 5697 0
-501 -5674 5675 0
-5675 5698 0
-502 -5675 5676 0
-5676 5699 0
-503 -5676 5677 0
-5677 5700 0
-504 -5677 5678 0
-5678 5701 0
-505 -5678 5679 0
-5679 5702 0
-506 -5679 5680 0
-5680 5703 0
-507 -5680 5681 0
-5681 5704 0
-508 -5681 5682 0
-5682 5705 0
-509 -5682 5683 0
-5683 5706 0
-510 -5683 5684 0
-5684 5707 0
-511 -5684 5685 0
-5685 5708 0
-512 -5685 5686 0
-5686 5709 0
-513 -5686 5687 0
-5687 5710 0
-514 -5687 5688 0
-5688 5711 0
-515 -5688 5689 0
-5689 5712 0
-516 -5689 5690 0
-5690 5713 0
-517 -5690 5691 0
-5691 5714 0
-518 -5691 5692 0
-5692 5715 0
-519 -5692 5693 0
-5693 5716 0
-520 -5693 5694 0
-5694 5717 0
-521 -5694 0
-499 5695 0
-5695 5718 0
-500 -5695 5696 0
-5696 5719 0
-501 -5696 5697 0
-5697 5720 0
-502 -5697 5698 0
-5698 5721 0
-503 -5698 5699 0
-5699 5722 0
-504 -5699 5700 0
-5700 5723 0
-505 -5700 5701 0
-5701 5724 0
-506 -5701 5702 0
-5702 5725 0
-507 -5702 5703 0
-5703 5726 0
-508 -5703 5704 0
-5704 5727 0
-509 -5704 5705 0
-5705 5728 0
-510 -5705 5706 0
-5706 5729 0
-511 -5706 5707 0
-5707 5730 0
-512 -5707 5708 0
-5708 5731 0
-513 -5708 5709 0
-5709 5732 0
-514 -5709 5710 0
-5710 5733 0
-515 -5710 5711 0
-5711 5734 0
-516 -5711 5712 0
-5712 5735 0
-517 -5712 5713 0
-5713 5736 0
-518 -5713 5714 0
-5714 5737 0
-519 -5714 5715 0
-5715 5738 0
-520 -5715 5716 0
-5716 5739 0
-521 -5716 5717 0
-5717 5740 0
-522 -5717 0
-500 5718 0
-5718 5741 0
-501 -5718 5719 0
-5719 5742 0
-502 -5719 5720 0
-5720 5743 0
-503 -5720 5721 0
-5721 5744 0
-504 -5721 5722 0
-5722 5745 0
-505 -5722 5723 0
-5723 5746 0
-506 -5723 5724 0
-5724 5747 0
-507 -5724 5725 0
-5725 5748 0
-508 -5725 5726 0
-5726 5749 0
-509 -5726 5727 0
-5727 5750 0
-510 -5727 5728 0
-5728 5751 0
-511 -5728 5729 0
-5729 5752 0
-512 -5729 5730 0
-5730 5753 0
-513 -5730 5731 0
-5731 5754 0
-514 -5731 5732 0
-5732 5755 0
-515 -5732 5733 0
-5733 5756 0
-516 -5733 5734 0
-5734 5757 0
-517 -5734 5735 0
-5735 5758 0
-518 -5735 5736 0
-5736 5759 0
-519 -5736 5737 0
-5737 5760 0
-520 -5737 5738 0
-5738 5761 0
-521 -5738 5739 0
-5739 5762 0
-522 -5739 5740 0
-5740 5763 0
-523 -5740 0
-501 5741 0
-5741 5764 0
-502 -5741 5742 0
-5742 5765 0
-503 -5742 5743 0
-5743 5766 0
-504 -5743 5744 0
-5744 5767 0
-505 -5744 5745 0
-5745 5768 0
-506 -5745 5746 0
-5746 5769 0
-507 -5746 5747 0
-5747 5770 0
-508 -5747 5748 0
-5748 5771 0
-509 -5748 5749 0
-5749 5772 0
-510 -5749 5750 0
-5750 5773 0
-511 -5750 5751 0
-5751 5774 0
-512 -5751 5752 0
-5752 5775 0
-513 -5752 5753 0
-5753 5776 0
-514 -5753 5754 0
-5754 5777 0
-515 -5754 5755 0
-5755 5778 0
-516 -5755 5756 0
-5756 5779 0
-517 -5756 5757 0
-5757 5780 0
-518 -5757 5758 0
-5758 5781 0
-519 -5758 5759 0
-5759 5782 0
-520 -5759 5760 0
-5760 5783 0
-521 -5760 5761 0
-5761 5784 0
-522 -5761 5762 0
-5762 5785 0
-523 -5762 5763 0
-5763 5786 0
-524 -5763 0
-502 5764 0
-5764 5787 0
-503 -5764 5765 0
-5765 5788 0
-504 -5765 5766 0
-5766 5789 0
-505 -5766 5767 0
-5767 5790 0
-506 -5767 5768 0
-5768 5791 0
-507 -5768 5769 0
-5769 5792 0
-508 -5769 5770 0
-5770 5793 0
-509 -5770 5771 0
-5771 5794 0
-510 -5771 5772 0
-5772 5795 0
-511 -5772 5773 0
-5773 5796 0
-512 -5773 5774 0
-5774 5797 0
-513 -5774 5775 0
-5775 5798 0
-514 -5775 5776 0
-5776 5799 0
-515 -5776 5777 0
-5777 5800 0
-516 -5777 5778 0
-5778 5801 0
-517 -5778 5779 0
-5779 5802 0
-518 -5779 5780 0
-5780 5803 0
-519 -5780 5781 0
-5781 5804 0
-520 -5781 5782 0
-5782 5805 0
-521 -5782 5783 0
-5783 5806 0
-522 -5783 5784 0
-5784 5807 0
-523 -5784 5785 0
-5785 5808 0
-524 -5785 5786 0
-5786 5809 0
-525 -5786 0
-503 5787 0
-5787 5810 0
-504 -5787 5788 0
-5788 5811 0
-505 -5788 5789 0
-5789 5812 0
-506 -5789 5790 0
-5790 5813 0
-507 -5790 5791 0
-5791 5814 0
-508 -5791 5792 0
-5792 5815 0
-509 -5792 5793 0
-5793 5816 0
-510 -5793 5794 0
-5794 5817 0
-511 -5794 5795 0
-5795 5818 0
-512 -5795 5796 0
-5796 5819 0
-513 -5796 5797 0
-5797 5820 0
-514 -5797 5798 0
-5798 5821 0
-515 -5798 5799 0
-5799 5822 0
-516 -5799 5800 0
-5800 5823 0
-517 -5800 5801 0
-5801 5824 0
-518 -5801 5802 0
-5802 5825 0
-519 -5802 5803 0
-5803 5826 0
-520 -5803 5804 0
-5804 5827 0
-521 -5804 5805 0
-5805 5828 0
-522 -5805 5806 0
-5806 5829 0
-523 -5806 5807 0
-5807 5830 0
-524 -5807 5808 0
-5808 5831 0
-525 -5808 5809 0
-5809 5832 0
-526 -5809 0
-504 5810 0
-5810 5833 0
-505 -5810 5811 0
-5811 5834 0
-506 -5811 5812 0
-5812 5835 0
-507 -5812 5813 0
-5813 5836 0
-508 -5813 5814 0
-5814 5837 0
-509 -5814 5815 0
-5815 5838 0
-510 -5815 5816 0
-5816 5839 0
-511 -5816 5817 0
-5817 5840 0
-512 -5817 5818 0
-5818 5841 0
-513 -5818 5819 0
-5819 5842 0
-514 -5819 5820 0
-5820 5843 0
-515 -5820 5821 0
-5821 5844 0
-516 -5821 5822 0
-5822 5845 0
-517 -5822 5823 0
-5823 5846 0
-518 -5823 5824 0
-5824 5847 0
-519 -5824 5825 0
-5825 5848 0
-520 -5825 5826 0
-5826 5849 0
-521 -5826 5827 0
-5827 5850 0
-522 -5827 5828 0
-5828 5851 0
-523 -5828 5829 0
-5829 5852 0
-524 -5829 5830 0
-5830 5853 0
-525 -5830 5831 0
-5831 5854 0
-526 -5831 5832 0
-5832 5855 0
-527 -5832 0
-505 5833 0
-5833 5856 0
-506 -5833 5834 0
-5834 5857 0
-507 -5834 5835 0
-5835 5858 0
-508 -5835 5836 0
-5836 5859 0
-509 -5836 5837 0
-5837 5860 0
-510 -5837 5838 0
-5838 5861 0
-511 -5838 5839 0
-5839 5862 0
-512 -5839 5840 0
-5840 5863 0
-513 -5840 5841 0
-5841 5864 0
-514 -5841 5842 0
-5842 5865 0
-515 -5842 5843 0
-5843 5866 0
-516 -5843 5844 0
-5844 5867 0
-517 -5844 5845 0
-5845 5868 0
-518 -5845 5846 0
-5846 5869 0
-519 -5846 5847 0
-5847 5870 0
-520 -5847 5848 0
-5848 5871 0
-521 -5848 5849 0
-5849 5872 0
-522 -5849 5850 0
-5850 5873 0
-523 -5850 5851 0
-5851 5874 0
-524 -5851 5852 0
-5852 5875 0
-525 -5852 5853 0
-5853 5876 0
-526 -5853 5854 0
-5854 5877 0
-527 -5854 5855 0
-5855 5878 0
-528 -5855 0
-506 5856 0
-5856 5879 0
-507 -5856 5857 0
-5857 5880 0
-508 -5857 5858 0
-5858 5881 0
-509 -5858 5859 0
-5859 5882 0
-510 -5859 5860 0
-5860 5883 0
-511 -5860 5861 0
-5861 5884 0
-512 -5861 5862 0
-5862 5885 0
-513 -5862 5863 0
-5863 5886 0
-514 -5863 5864 0
-5864 5887 0
-515 -5864 5865 0
-5865 5888 0
-516 -5865 5866 0
-5866 5889 0
-517 -5866 5867 0
-5867 5890 0
-518 -5867 5868 0
-5868 5891 0
-519 -5868 5869 0
-5869 5892 0
-520 -5869 5870 0
-5870 5893 0
-521 -5870 5871 0
-5871 5894 0
-522 -5871 5872 0
-5872 5895 0
-523 -5872 5873 0
-5873 5896 0
-524 -5873 5874 0
-5874 5897 0
-525 -5874 5875 0
-5875 5898 0
-526 -5875 5876 0
-5876 5899 0
-527 -5876 5877 0
-5877 5900 0
-528 -5877 5878 0
-5878 5901 0
-529 -5878 0
-507 5879 0
-5879 5902 0
-508 -5879 5880 0
-5880 5903 0
-509 -5880 5881 0
-5881 5904 0
-510 -5881 5882 0
-5882 5905 0
-511 -5882 5883 0
-5883 5906 0
-512 -5883 5884 0
-5884 5907 0
-513 -5884 5885 0
-5885 5908 0
-514 -5885 5886 0
-5886 5909 0
-515 -5886 5887 0
-5887 5910 0
-516 -5887 5888 0
-5888 5911 0
-517 -5888 5889 0
-5889 5912 0
-518 -5889 5890 0
-5890 5913 0
-519 -5890 5891 0
-5891 5914 0
-520 -5891 5892 0
-5892 5915 0
-521 -5892 5893 0
-5893 5916 0
-522 -5893 5894 0
-5894 5917 0
-523 -5894 5895 0
-5895 5918 0
-524 -5895 5896 0
-5896 5919 0
-525 -5896 5897 0
-5897 5920 0
-526 -5897 5898 0
-5898 5921 0
-527 -5898 5899 0
-5899 5922 0
-528 -5899 5900 0
-5900 5923 0
-529 -5900 5901 0
-5901 5924 0
-530 -5901 0
-508 5902 0
-5902 5925 0
-509 -5902 5903 0
-5903 5926 0
-510 -5903 5904 0
-5904 5927 0
-511 -5904 5905 0
-5905 5928 0
-512 -5905 5906 0
-5906 5929 0
-513 -5906 5907 0
-5907 5930 0
-514 -5907 5908 0
-5908 5931 0
-515 -5908 5909 0
-5909 5932 0
-516 -5909 5910 0
-5910 5933 0
-517 -5910 5911 0
-5911 5934 0
-518 -5911 5912 0
-5912 5935 0
-519 -5912 5913 0
-5913 5936 0
-520 -5913 5914 0
-5914 5937 0
-521 -5914 5915 0
-5915 5938 0
-522 -5915 5916 0
-5916 5939 0
-523 -5916 5917 0
-5917 5940 0
-524 -5917 5918 0
-5918 5941 0
-525 -5918 5919 0
-5919 5942 0
-526 -5919 5920 0
-5920 5943 0
-527 -5920 5921 0
-5921 5944 0
-528 -5921 5922 0
-5922 5945 0
-529 -5922 5923 0
-5923 5946 0
-530 -5923 5924 0
-5924 5947 0
-531 -5924 0
-509 5925 0
-5925 5948 0
-510 -5925 5926 0
-5926 5949 0
-511 -5926 5927 0
-5927 5950 0
-512 -5927 5928 0
-5928 5951 0
-513 -5928 5929 0
-5929 5952 0
-514 -5929 5930 0
-5930 5953 0
-515 -5930 5931 0
-5931 5954 0
-516 -5931 5932 0
-5932 5955 0
-517 -5932 5933 0
-5933 5956 0
-518 -5933 5934 0
-5934 5957 0
-519 -5934 5935 0
-5935 5958 0
-520 -5935 5936 0
-5936 5959 0
-521 -5936 5937 0
-5937 5960 0
-522 -5937 5938 0
-5938 5961 0
-523 -5938 5939 0
-5939 5962 0
-524 -5939 5940 0
-5940 5963 0
-525 -5940 5941 0
-5941 5964 0
-526 -5941 5942 0
-5942 5965 0
-527 -5942 5943 0
-5943 5966 0
-528 -5943 5944 0
-5944 5967 0
-529 -5944 5945 0
-5945 5968 0
-530 -5945 5946 0
-5946 5969 0
-531 -5946 5947 0
-5947 5970 0
-532 -5947 0
-510 5948 0
-5948 5971 0
-511 -5948 5949 0
-5949 5972 0
-512 -5949 5950 0
-5950 5973 0
-513 -5950 5951 0
-5951 5974 0
-514 -5951 5952 0
-5952 5975 0
-515 -5952 5953 0
-5953 5976 0
-516 -5953 5954 0
-5954 5977 0
-517 -5954 5955 0
-5955 5978 0
-518 -5955 5956 0
-5956 5979 0
-519 -5956 5957 0
-5957 5980 0
-520 -5957 5958 0
-5958 5981 0
-521 -5958 5959 0
-5959 5982 0
-522 -5959 5960 0
-5960 5983 0
-523 -5960 5961 0
-5961 5984 0
-524 -5961 5962 0
-5962 5985 0
-525 -5962 5963 0
-5963 5986 0
-526 -5963 5964 0
-5964 5987 0
-527 -5964 5965 0
-5965 5988 0
-528 -5965 5966 0
-5966 5989 0
-529 -5966 5967 0
-5967 5990 0
-530 -5967 5968 0
-5968 5991 0
-531 -5968 5969 0
-5969 5992 0
-532 -5969 5970 0
-5970 5993 0
-533 -5970 0
-511 5971 0
-5971 5994 0
-512 -5971 5972 0
-5972 5995 0
-513 -5972 5973 0
-5973 5996 0
-514 -5973 5974 0
-5974 5997 0
-515 -5974 5975 0
-5975 5998 0
-516 -5975 5976 0
-5976 5999 0
-517 -5976 5977 0
-5977 6000 0
-518 -5977 5978 0
-5978 6001 0
-519 -5978 5979 0
-5979 6002 0
-520 -5979 5980 0
-5980 6003 0
-521 -5980 5981 0
-5981 6004 0
-522 -5981 5982 0
-5982 6005 0
-523 -5982 5983 0
-5983 6006 0
-524 -5983 5984 0
-5984 6007 0
-525 -5984 5985 0
-5985 6008 0
-526 -5985 5986 0
-5986 6009 0
-527 -5986 5987 0
-5987 6010 0
-528 -5987 5988 0
-5988 6011 0
-529 -5988 5989 0
-5989 6012 0
-530 -5989 5990 0
-5990 6013 0
-531 -5990 5991 0
-5991 6014 0
-532 -5991 5992 0
-5992 6015 0
-533 -5992 5993 0
-5993 6016 0
-534 -5993 0
-512 5994 0
-5994 6017 0
-513 -5994 5995 0
-5995 6018 0
-514 -5995 5996 0
-5996 6019 0
-515 -5996 5997 0
-5997 6020 0
-516 -5997 5998 0
-5998 6021 0
-517 -5998 5999 0
-5999 6022 0
-518 -5999 6000 0
-6000 6023 0
-519 -6000 6001 0
-6001 6024 0
-520 -6001 6002 0
-6002 6025 0
-521 -6002 6003 0
-6003 6026 0
-522 -6003 6004 0
-6004 6027 0
-523 -6004 6005 0
-6005 6028 0
-524 -6005 6006 0
-6006 6029 0
-525 -6006 6007 0
-6007 6030 0
-526 -6007 6008 0
-6008 6031 0
-527 -6008 6009 0
-6009 6032 0
-528 -6009 6010 0
-6010 6033 0
-529 -6010 6011 0
-6011 6034 0
-530 -6011 6012 0
-6012 6035 0
-531 -6012 6013 0
-6013 6036 0
-532 -6013 6014 0
-6014 6037 0
-533 -6014 6015 0
-6015 6038 0
-534 -6015 6016 0
-6016 6039 0
-535 -6016 0
-513 6017 0
-6017 6040 0
-514 -6017 6018 0
-6018 6041 0
-515 -6018 6019 0
-6019 6042 0
-516 -6019 6020 0
-6020 6043 0
-517 -6020 6021 0
-6021 6044 0
-518 -6021 6022 0
-6022 6045 0
-519 -6022 6023 0
-6023 6046 0
-520 -6023 6024 0
-6024 6047 0
-521 -6024 6025 0
-6025 6048 0
-522 -6025 6026 0
-6026 6049 0
-523 -6026 6027 0
-6027 6050 0
-524 -6027 6028 0
-6028 6051 0
-525 -6028 6029 0
-6029 6052 0
-526 -6029 6030 0
-6030 6053 0
-527 -6030 6031 0
-6031 6054 0
-528 -6031 6032 0
-6032 6055 0
-529 -6032 6033 0
-6033 6056 0
-530 -6033 6034 0
-6034 6057 0
-531 -6034 6035 0
-6035 6058 0
-532 -6035 6036 0
-6036 6059 0
-533 -6036 6037 0
-6037 6060 0
-534 -6037 6038 0
-6038 6061 0
-535 -6038 6039 0
-6039 6062 0
-536 -6039 0
-514 6040 0
-6040 6063 0
-515 -6040 6041 0
-6041 6064 0
-516 -6041 6042 0
-6042 6065 0
-517 -6042 6043 0
-6043 6066 0
-518 -6043 6044 0
-6044 6067 0
-519 -6044 6045 0
-6045 6068 0
-520 -6045 6046 0
-6046 6069 0
-521 -6046 6047 0
-6047 6070 0
-522 -6047 6048 0
-6048 6071 0
-523 -6048 6049 0
-6049 6072 0
-524 -6049 6050 0
-6050 6073 0
-525 -6050 6051 0
-6051 6074 0
-526 -6051 6052 0
-6052 6075 0
-527 -6052 6053 0
-6053 6076 0
-528 -6053 6054 0
-6054 6077 0
-529 -6054 6055 0
-6055 6078 0
-530 -6055 6056 0
-6056 6079 0
-531 -6056 6057 0
-6057 6080 0
-532 -6057 6058 0
-6058 6081 0
-533 -6058 6059 0
-6059 6082 0
-534 -6059 6060 0
-6060 6083 0
-535 -6060 6061 0
-6061 6084 0
-536 -6061 6062 0
-6062 6085 0
-537 -6062 0
-515 6063 0
-6063 6086 0
-516 -6063 6064 0
-6064 6087 0
-517 -6064 6065 0
-6065 6088 0
-518 -6065 6066 0
-6066 6089 0
-519 -6066 6067 0
-6067 6090 0
-520 -6067 6068 0
-6068 6091 0
-521 -6068 6069 0
-6069 6092 0
-522 -6069 6070 0
-6070 6093 0
-523 -6070 6071 0
-6071 6094 0
-524 -6071 6072 0
-6072 6095 0
-525 -6072 6073 0
-6073 6096 0
-526 -6073 6074 0
-6074 6097 0
-527 -6074 6075 0
-6075 6098 0
-528 -6075 6076 0
-6076 6099 0
-529 -6076 6077 0
-6077 6100 0
-530 -6077 6078 0
-6078 6101 0
-531 -6078 6079 0
-6079 6102 0
-532 -6079 6080 0
-6080 6103 0
-533 -6080 6081 0
-6081 6104 0
-534 -6081 6082 0
-6082 6105 0
-535 -6082 6083 0
-6083 6106 0
-536 -6083 6084 0
-6084 6107 0
-537 -6084 6085 0
-6085 6108 0
-538 -6085 0
-516 6086 0
-6086 6109 0
-517 -6086 6087 0
-6087 6110 0
-518 -6087 6088 0
-6088 6111 0
-519 -6088 6089 0
-6089 6112 0
-520 -6089 6090 0
-6090 6113 0
-521 -6090 6091 0
-6091 6114 0
-522 -6091 6092 0
-6092 6115 0
-523 -6092 6093 0
-6093 6116 0
-524 -6093 6094 0
-6094 6117 0
-525 -6094 6095 0
-6095 6118 0
-526 -6095 6096 0
-6096 6119 0
-527 -6096 6097 0
-6097 6120 0
-528 -6097 6098 0
-6098 6121 0
-529 -6098 6099 0
-6099 6122 0
-530 -6099 6100 0
-6100 6123 0
-531 -6100 6101 0
-6101 6124 0
-532 -6101 6102 0
-6102 6125 0
-533 -6102 6103 0
-6103 6126 0
-534 -6103 6104 0
-6104 6127 0
-535 -6104 6105 0
-6105 6128 0
-536 -6105 6106 0
-6106 6129 0
-537 -6106 6107 0
-6107 6130 0
-538 -6107 6108 0
-6108 6131 0
-539 -6108 0
-517 6109 0
-6109 6132 0
-518 -6109 6110 0
-6110 6133 0
-519 -6110 6111 0
-6111 6134 0
-520 -6111 6112 0
-6112 6135 0
-521 -6112 6113 0
-6113 6136 0
-522 -6113 6114 0
-6114 6137 0
-523 -6114 6115 0
-6115 6138 0
-524 -6115 6116 0
-6116 6139 0
-525 -6116 6117 0
-6117 6140 0
-526 -6117 6118 0
-6118 6141 0
-527 -6118 6119 0
-6119 6142 0
-528 -6119 6120 0
-6120 6143 0
-529 -6120 6121 0
-6121 6144 0
-530 -6121 6122 0
-6122 6145 0
-531 -6122 6123 0
-6123 6146 0
-532 -6123 6124 0
-6124 6147 0
-533 -6124 6125 0
-6125 6148 0
-534 -6125 6126 0
-6126 6149 0
-535 -6126 6127 0
-6127 6150 0
-536 -6127 6128 0
-6128 6151 0
-537 -6128 6129 0
-6129 6152 0
-538 -6129 6130 0
-6130 6153 0
-539 -6130 6131 0
-6131 6154 0
-540 -6131 0
-518 6132 0
-6132 6155 0
-519 -6132 6133 0
-6133 6156 0
-520 -6133 6134 0
-6134 6157 0
-521 -6134 6135 0
-6135 6158 0
-522 -6135 6136 0
-6136 6159 0
-523 -6136 6137 0
-6137 6160 0
-524 -6137 6138 0
-6138 6161 0
-525 -6138 6139 0
-6139 6162 0
-526 -6139 6140 0
-6140 6163 0
-527 -6140 6141 0
-6141 6164 0
-528 -6141 6142 0
-6142 6165 0
-529 -6142 6143 0
-6143 6166 0
-530 -6143 6144 0
-6144 6167 0
-531 -6144 6145 0
-6145 6168 0
-532 -6145 6146 0
-6146 6169 0
-533 -6146 6147 0
-6147 6170 0
-534 -6147 6148 0
-6148 6171 0
-535 -6148 6149 0
-6149 6172 0
-536 -6149 6150 0
-6150 6173 0
-537 -6150 6151 0
-6151 6174 0
-538 -6151 6152 0
-6152 6175 0
-539 -6152 6153 0
-6153 6176 0
-540 -6153 6154 0
-6154 6177 0
-541 -6154 0
-519 6155 0
-6155 6178 0
-520 -6155 6156 0
-6156 6179 0
-521 -6156 6157 0
-6157 6180 0
-522 -6157 6158 0
-6158 6181 0
-523 -6158 6159 0
-6159 6182 0
-524 -6159 6160 0
-6160 6183 0
-525 -6160 6161 0
-6161 6184 0
-526 -6161 6162 0
-6162 6185 0
-527 -6162 6163 0
-6163 6186 0
-528 -6163 6164 0
-6164 6187 0
-529 -6164 6165 0
-6165 6188 0
-530 -6165 6166 0
-6166 6189 0
-531 -6166 6167 0
-6167 6190 0
-532 -6167 6168 0
-6168 6191 0
-533 -6168 6169 0
-6169 6192 0
-534 -6169 6170 0
-6170 6193 0
-535 -6170 6171 0
-6171 6194 0
-536 -6171 6172 0
-6172 6195 0
-537 -6172 6173 0
-6173 6196 0
-538 -6173 6174 0
-6174 6197 0
-539 -6174 6175 0
-6175 6198 0
-540 -6175 6176 0
-6176 6199 0
-541 -6176 6177 0
-6177 6200 0
-542 -6177 0
-520 6178 0
-6178 6201 0
-521 -6178 6179 0
-6179 6202 0
-522 -6179 6180 0
-6180 6203 0
-523 -6180 6181 0
-6181 6204 0
-524 -6181 6182 0
-6182 6205 0
-525 -6182 6183 0
-6183 6206 0
-526 -6183 6184 0
-6184 6207 0
-527 -6184 6185 0
-6185 6208 0
-528 -6185 6186 0
-6186 6209 0
-529 -6186 6187 0
-6187 6210 0
-530 -6187 6188 0
-6188 6211 0
-531 -6188 6189 0
-6189 6212 0
-532 -6189 6190 0
-6190 6213 0
-533 -6190 6191 0
-6191 6214 0
-534 -6191 6192 0
-6192 6215 0
-535 -6192 6193 0
-6193 6216 0
-536 -6193 6194 0
-6194 6217 0
-537 -6194 6195 0
-6195 6218 0
-538 -6195 6196 0
-6196 6219 0
-539 -6196 6197 0
-6197 6220 0
-540 -6197 6198 0
-6198 6221 0
-541 -6198 6199 0
-6199 6222 0
-542 -6199 6200 0
-6200 6223 0
-543 -6200 0
-521 6201 0
-6201 6224 0
-522 -6201 6202 0
-6202 6225 0
-523 -6202 6203 0
-6203 6226 0
-524 -6203 6204 0
-6204 6227 0
-525 -6204 6205 0
-6205 6228 0
-526 -6205 6206 0
-6206 6229 0
-527 -6206 6207 0
-6207 6230 0
-528 -6207 6208 0
-6208 6231 0
-529 -6208 6209 0
-6209 6232 0
-530 -6209 6210 0
-6210 6233 0
-531 -6210 6211 0
-6211 6234 0
-532 -6211 6212 0
-6212 6235 0
-533 -6212 6213 0
-6213 6236 0
-534 -6213 6214 0
-6214 6237 0
-535 -6214 6215 0
-6215 6238 0
-536 -6215 6216 0
-6216 6239 0
-537 -6216 6217 0
-6217 6240 0
-538 -6217 6218 0
-6218 6241 0
-539 -6218 6219 0
-6219 6242 0
-540 -6219 6220 0
-6220 6243 0
-541 -6220 6221 0
-6221 6244 0
-542 -6221 6222 0
-6222 6245 0
-543 -6222 6223 0
-6223 6246 0
-544 -6223 0
-522 6224 0
-6224 6247 0
-523 -6224 6225 0
-6225 6248 0
-524 -6225 6226 0
-6226 6249 0
-525 -6226 6227 0
-6227 6250 0
-526 -6227 6228 0
-6228 6251 0
-527 -6228 6229 0
-6229 6252 0
-528 -6229 6230 0
-6230 6253 0
-529 -6230 6231 0
-6231 6254 0
-530 -6231 6232 0
-6232 6255 0
-531 -6232 6233 0
-6233 6256 0
-532 -6233 6234 0
-6234 6257 0
-533 -6234 6235 0
-6235 6258 0
-534 -6235 6236 0
-6236 6259 0
-535 -6236 6237 0
-6237 6260 0
-536 -6237 6238 0
-6238 6261 0
-537 -6238 6239 0
-6239 6262 0
-538 -6239 6240 0
-6240 6263 0
-539 -6240 6241 0
-6241 6264 0
-540 -6241 6242 0
-6242 6265 0
-541 -6242 6243 0
-6243 6266 0
-542 -6243 6244 0
-6244 6267 0
-543 -6244 6245 0
-6245 6268 0
-544 -6245 6246 0
-6246 6269 0
-545 -6246 0
-523 6247 0
-6247 6270 0
-524 -6247 6248 0
-6248 6271 0
-525 -6248 6249 0
-6249 6272 0
-526 -6249 6250 0
-6250 6273 0
-527 -6250 6251 0
-6251 6274 0
-528 -6251 6252 0
-6252 6275 0
-529 -6252 6253 0
-6253 6276 0
-530 -6253 6254 0
-6254 6277 0
-531 -6254 6255 0
-6255 6278 0
-532 -6255 6256 0
-6256 6279 0
-533 -6256 6257 0
-6257 6280 0
-534 -6257 6258 0
-6258 6281 0
-535 -6258 6259 0
-6259 6282 0
-536 -6259 6260 0
-6260 6283 0
-537 -6260 6261 0
-6261 6284 0
-538 -6261 6262 0
-6262 6285 0
-539 -6262 6263 0
-6263 6286 0
-540 -6263 6264 0
-6264 6287 0
-541 -6264 6265 0
-6265 6288 0
-542 -6265 6266 0
-6266 6289 0
-543 -6266 6267 0
-6267 6290 0
-544 -6267 6268 0
-6268 6291 0
-545 -6268 6269 0
-6269 6292 0
-546 -6269 0
-524 6270 0
-6270 6293 0
-525 -6270 6271 0
-6271 6294 0
-526 -6271 6272 0
-6272 6295 0
-527 -6272 6273 0
-6273 6296 0
-528 -6273 6274 0
-6274 6297 0
-529 -6274 6275 0
-6275 6298 0
-530 -6275 6276 0
-6276 6299 0
-531 -6276 6277 0
-6277 6300 0
-532 -6277 6278 0
-6278 6301 0
-533 -6278 6279 0
-6279 6302 0
-534 -6279 6280 0
-6280 6303 0
-535 -6280 6281 0
-6281 6304 0
-536 -6281 6282 0
-6282 6305 0
-537 -6282 6283 0
-6283 6306 0
-538 -6283 6284 0
-6284 6307 0
-539 -6284 6285 0
-6285 6308 0
-540 -6285 6286 0
-6286 6309 0
-541 -6286 6287 0
-6287 6310 0
-542 -6287 6288 0
-6288 6311 0
-543 -6288 6289 0
-6289 6312 0
-544 -6289 6290 0
-6290 6313 0
-545 -6290 6291 0
-6291 6314 0
-546 -6291 6292 0
-6292 6315 0
-547 -6292 0
-525 6293 0
-6293 6316 0
-526 -6293 6294 0
-6294 6317 0
-527 -6294 6295 0
-6295 6318 0
-528 -6295 6296 0
-6296 6319 0
-529 -6296 6297 0
-6297 6320 0
-530 -6297 6298 0
-6298 6321 0
-531 -6298 6299 0
-6299 6322 0
-532 -6299 6300 0
-6300 6323 0
-533 -6300 6301 0
-6301 6324 0
-534 -6301 6302 0
-6302 6325 0
-535 -6302 6303 0
-6303 6326 0
-536 -6303 6304 0
-6304 6327 0
-537 -6304 6305 0
-6305 6328 0
-538 -6305 6306 0
-6306 6329 0
-539 -6306 6307 0
-6307 6330 0
-540 -6307 6308 0
-6308 6331 0
-541 -6308 6309 0
-6309 6332 0
-542 -6309 6310 0
-6310 6333 0
-543 -6310 6311 0
-6311 6334 0
-544 -6311 6312 0
-6312 6335 0
-545 -6312 6313 0
-6313 6336 0
-546 -6313 6314 0
-6314 6337 0
-547 -6314 6315 0
-6315 6338 0
-548 -6315 0
-526 6316 0
-6316 6339 0
-527 -6316 6317 0
-6317 6340 0
-528 -6317 6318 0
-6318 6341 0
-529 -6318 6319 0
-6319 6342 0
-530 -6319 6320 0
-6320 6343 0
-531 -6320 6321 0
-6321 6344 0
-532 -6321 6322 0
-6322 6345 0
-533 -6322 6323 0
-6323 6346 0
-534 -6323 6324 0
-6324 6347 0
-535 -6324 6325 0
-6325 6348 0
-536 -6325 6326 0
-6326 6349 0
-537 -6326 6327 0
-6327 6350 0
-538 -6327 6328 0
-6328 6351 0
-539 -6328 6329 0
-6329 6352 0
-540 -6329 6330 0
-6330 6353 0
-541 -6330 6331 0
-6331 6354 0
-542 -6331 6332 0
-6332 6355 0
-543 -6332 6333 0
-6333 6356 0
-544 -6333 6334 0
-6334 6357 0
-545 -6334 6335 0
-6335 6358 0
-546 -6335 6336 0
-6336 6359 0
-547 -6336 6337 0
-6337 6360 0
-548 -6337 6338 0
-6338 6361 0
-549 -6338 0
-527 6339 0
-6339 6362 0
-528 -6339 6340 0
-6340 6363 0
-529 -6340 6341 0
-6341 6364 0
-530 -6341 6342 0
-6342 6365 0
-531 -6342 6343 0
-6343 6366 0
-532 -6343 6344 0
-6344 6367 0
-533 -6344 6345 0
-6345 6368 0
-534 -6345 6346 0
-6346 6369 0
-535 -6346 6347 0
-6347 6370 0
-536 -6347 6348 0
-6348 6371 0
-537 -6348 6349 0
-6349 6372 0
-538 -6349 6350 0
-6350 6373 0
-539 -6350 6351 0
-6351 6374 0
-540 -6351 6352 0
-6352 6375 0
-541 -6352 6353 0
-6353 6376 0
-542 -6353 6354 0
-6354 6377 0
-543 -6354 6355 0
-6355 6378 0
-544 -6355 6356 0
-6356 6379 0
-545 -6356 6357 0
-6357 6380 0
-546 -6357 6358 0
-6358 6381 0
-547 -6358 6359 0
-6359 6382 0
-548 -6359 6360 0
-6360 6383 0
-549 -6360 6361 0
-6361 6384 0
-550 -6361 0
-528 6362 0
-6362 6385 0
-529 -6362 6363 0
-6363 6386 0
-530 -6363 6364 0
-6364 6387 0
-531 -6364 6365 0
-6365 6388 0
-532 -6365 6366 0
-6366 6389 0
-533 -6366 6367 0
-6367 6390 0
-534 -6367 6368 0
-6368 6391 0
-535 -6368 6369 0
-6369 6392 0
-536 -6369 6370 0
-6370 6393 0
-537 -6370 6371 0
-6371 6394 0
-538 -6371 6372 0
-6372 6395 0
-539 -6372 6373 0
-6373 6396 0
-540 -6373 6374 0
-6374 6397 0
-541 -6374 6375 0
-6375 6398 0
-542 -6375 6376 0
-6376 6399 0
-543 -6376 6377 0
-6377 6400 0
-544 -6377 6378 0
-6378 6401 0
-545 -6378 6379 0
-6379 6402 0
-546 -6379 6380 0
-6380 6403 0
-547 -6380 6381 0
-6381 6404 0
-548 -6381 6382 0
-6382 6405 0
-549 -6382 6383 0
-6383 6406 0
-550 -6383 6384 0
-6384 6407 0
-551 -6384 0
-529 6385 0
-6385 6408 0
-530 -6385 6386 0
-6386 6409 0
-531 -6386 6387 0
-6387 6410 0
-532 -6387 6388 0
-6388 6411 0
-533 -6388 6389 0
-6389 6412 0
-534 -6389 6390 0
-6390 6413 0
-535 -6390 6391 0
-6391 6414 0
-536 -6391 6392 0
-6392 6415 0
-537 -6392 6393 0
-6393 6416 0
-538 -6393 6394 0
-6394 6417 0
-539 -6394 6395 0
-6395 6418 0
-540 -6395 6396 0
-6396 6419 0
-541 -6396 6397 0
-6397 6420 0
-542 -6397 6398 0
-6398 6421 0
-543 -6398 6399 0
-6399 6422 0
-544 -6399 6400 0
-6400 6423 0
-545 -6400 6401 0
-6401 6424 0
-546 -6401 6402 0
-6402 6425 0
-547 -6402 6403 0
-6403 6426 0
-548 -6403 6404 0
-6404 6427 0
-549 -6404 6405 0
-6405 6428 0
-550 -6405 6406 0
-6406 6429 0
-551 -6406 6407 0
-6407 6430 0
-552 -6407 0
-530 6408 0
-6408 6431 0
-531 -6408 6409 0
-6409 6432 0
-532 -6409 6410 0
-6410 6433 0
-533 -6410 6411 0
-6411 6434 0
-534 -6411 6412 0
-6412 6435 0
-535 -6412 6413 0
-6413 6436 0
-536 -6413 6414 0
-6414 6437 0
-537 -6414 6415 0
-6415 6438 0
-538 -6415 6416 0
-6416 6439 0
-539 -6416 6417 0
-6417 6440 0
-540 -6417 6418 0
-6418 6441 0
-541 -6418 6419 0
-6419 6442 0
-542 -6419 6420 0
-6420 6443 0
-543 -6420 6421 0
-6421 6444 0
-544 -6421 6422 0
-6422 6445 0
-545 -6422 6423 0
-6423 6446 0
-546 -6423 6424 0
-6424 6447 0
-547 -6424 6425 0
-6425 6448 0
-548 -6425 6426 0
-6426 6449 0
-549 -6426 6427 0
-6427 6450 0
-550 -6427 6428 0
-6428 6451 0
-551 -6428 6429 0
-6429 6452 0
-552 -6429 6430 0
-6430 6453 0
-553 -6430 0
-531 6431 0
-6431 6454 0
-532 -6431 6432 0
-6432 6455 0
-533 -6432 6433 0
-6433 6456 0
-534 -6433 6434 0
-6434 6457 0
-535 -6434 6435 0
-6435 6458 0
-536 -6435 6436 0
-6436 6459 0
-537 -6436 6437 0
-6437 6460 0
-538 -6437 6438 0
-6438 6461 0
-539 -6438 6439 0
-6439 6462 0
-540 -6439 6440 0
-6440 6463 0
-541 -6440 6441 0
-6441 6464 0
-542 -6441 6442 0
-6442 6465 0
-543 -6442 6443 0
-6443 6466 0
-544 -6443 6444 0
-6444 6467 0
-545 -6444 6445 0
-6445 6468 0
-546 -6445 6446 0
-6446 6469 0
-547 -6446 6447 0
-6447 6470 0
-548 -6447 6448 0
-6448 6471 0
-549 -6448 6449 0
-6449 6472 0
-550 -6449 6450 0
-6450 6473 0
-551 -6450 6451 0
-6451 6474 0
-552 -6451 6452 0
-6452 6475 0
-553 -6452 6453 0
-6453 6476 0
-554 -6453 0
-532 6454 0
-6454 6477 0
-533 -6454 6455 0
-6455 6478 0
-534 -6455 6456 0
-6456 6479 0
-535 -6456 6457 0
-6457 6480 0
-536 -6457 6458 0
-6458 6481 0
-537 -6458 6459 0
-6459 6482 0
-538 -6459 6460 0
-6460 6483 0
-539 -6460 6461 0
-6461 6484 0
-540 -6461 6462 0
-6462 6485 0
-541 -6462 6463 0
-6463 6486 0
-542 -6463 6464 0
-6464 6487 0
-543 -6464 6465 0
-6465 6488 0
-544 -6465 6466 0
-6466 6489 0
-545 -6466 6467 0
-6467 6490 0
-546 -6467 6468 0
-6468 6491 0
-547 -6468 6469 0
-6469 6492 0
-548 -6469 6470 0
-6470 6493 0
-549 -6470 6471 0
-6471 6494 0
-550 -6471 6472 0
-6472 6495 0
-551 -6472 6473 0
-6473 6496 0
-552 -6473 6474 0
-6474 6497 0
-553 -6474 6475 0
-6475 6498 0
-554 -6475 6476 0
-6476 6499 0
-555 -6476 0
-533 6477 0
-6477 6500 0
-534 -6477 6478 0
-6478 6501 0
-535 -6478 6479 0
-6479 6502 0
-536 -6479 6480 0
-6480 6503 0
-537 -6480 6481 0
-6481 6504 0
-538 -6481 6482 0
-6482 6505 0
-539 -6482 6483 0
-6483 6506 0
-540 -6483 6484 0
-6484 6507 0
-541 -6484 6485 0
-6485 6508 0
-542 -6485 6486 0
-6486 6509 0
-543 -6486 6487 0
-6487 6510 0
-544 -6487 6488 0
-6488 6511 0
-545 -6488 6489 0
-6489 6512 0
-546 -6489 6490 0
-6490 6513 0
-547 -6490 6491 0
-6491 6514 0
-548 -6491 6492 0
-6492 6515 0
-549 -6492 6493 0
-6493 6516 0
-550 -6493 6494 0
-6494 6517 0
-551 -6494 6495 0
-6495 6518 0
-552 -6495 6496 0
-6496 6519 0
-553 -6496 6497 0
-6497 6520 0
-554 -6497 6498 0
-6498 6521 0
-555 -6498 6499 0
-6499 6522 0
-556 -6499 0
-534 6500 0
-6500 6523 0
-535 -6500 6501 0
-6501 6524 0
-536 -6501 6502 0
-6502 6525 0
-537 -6502 6503 0
-6503 6526 0
-538 -6503 6504 0
-6504 6527 0
-539 -6504 6505 0
-6505 6528 0
-540 -6505 6506 0
-6506 6529 0
-541 -6506 6507 0
-6507 6530 0
-542 -6507 6508 0
-6508 6531 0
-543 -6508 6509 0
-6509 6532 0
-544 -6509 6510 0
-6510 6533 0
-545 -6510 6511 0
-6511 6534 0
-546 -6511 6512 0
-6512 6535 0
-547 -6512 6513 0
-6513 6536 0
-548 -6513 6514 0
-6514 6537 0
-549 -6514 6515 0
-6515 6538 0
-550 -6515 6516 0
-6516 6539 0
-551 -6516 6517 0
-6517 6540 0
-552 -6517 6518 0
-6518 6541 0
-553 -6518 6519 0
-6519 6542 0
-554 -6519 6520 0
-6520 6543 0
-555 -6520 6521 0
-6521 6544 0
-556 -6521 6522 0
-6522 6545 0
-557 -6522 0
-535 6523 0
-6523 6546 0
-536 -6523 6524 0
-6524 6547 0
-537 -6524 6525 0
-6525 6548 0
-538 -6525 6526 0
-6526 6549 0
-539 -6526 6527 0
-6527 6550 0
-540 -6527 6528 0
-6528 6551 0
-541 -6528 6529 0
-6529 6552 0
-542 -6529 6530 0
-6530 6553 0
-543 -6530 6531 0
-6531 6554 0
-544 -6531 6532 0
-6532 6555 0
-545 -6532 6533 0
-6533 6556 0
-546 -6533 6534 0
-6534 6557 0
-547 -6534 6535 0
-6535 6558 0
-548 -6535 6536 0
-6536 6559 0
-549 -6536 6537 0
-6537 6560 0
-550 -6537 6538 0
-6538 6561 0
-551 -6538 6539 0
-6539 6562 0
-552 -6539 6540 0
-6540 6563 0
-553 -6540 6541 0
-6541 6564 0
-554 -6541 6542 0
-6542 6565 0
-555 -6542 6543 0
-6543 6566 0
-556 -6543 6544 0
-6544 6567 0
-557 -6544 6545 0
-6545 6568 0
-558 -6545 0
-536 6546 0
-6546 6569 0
-537 -6546 6547 0
-6547 6570 0
-538 -6547 6548 0
-6548 6571 0
-539 -6548 6549 0
-6549 6572 0
-540 -6549 6550 0
-6550 6573 0
-541 -6550 6551 0
-6551 6574 0
-542 -6551 6552 0
-6552 6575 0
-543 -6552 6553 0
-6553 6576 0
-544 -6553 6554 0
-6554 6577 0
-545 -6554 6555 0
-6555 6578 0
-546 -6555 6556 0
-6556 6579 0
-547 -6556 6557 0
-6557 6580 0
-548 -6557 6558 0
-6558 6581 0
-549 -6558 6559 0
-6559 6582 0
-550 -6559 6560 0
-6560 6583 0
-551 -6560 6561 0
-6561 6584 0
-552 -6561 6562 0
-6562 6585 0
-553 -6562 6563 0
-6563 6586 0
-554 -6563 6564 0
-6564 6587 0
-555 -6564 6565 0
-6565 6588 0
-556 -6565 6566 0
-6566 6589 0
-557 -6566 6567 0
-6567 6590 0
-558 -6567 6568 0
-6568 6591 0
-559 -6568 0
-537 6569 0
-538 -6569 6570 0
-539 -6570 6571 0
-540 -6571 6572 0
-541 -6572 6573 0
-542 -6573 6574 0
-543 -6574 6575 0
-544 -6575 6576 0
-545 -6576 6577 0
-546 -6577 6578 0
-547 -6578 6579 0
-548 -6579 6580 0
-549 -6580 6581 0
-550 -6581 6582 0
-551 -6582 6583 0
-552 -6583 6584 0
-553 -6584 6585 0
-554 -6585 6586 0
-555 -6586 6587 0
-556 -6587 6588 0
-557 -6588 6589 0
-558 -6589 6590 0
-559 -6590 6591 0
-560 -6591 0
-10 -42 -40 -38 -72 -148 -190 -158 -86 -12 0
-9 -59 -143 -177 -129 -81 -39 -37 -45 -11 0
