p cnf 6119 17068
-1 -2 -3 0
-1 -2 -4 0
-1 -3 -4 0
-2 -3 -4 0
2 3 4 0
1 3 4 0
1 2 4 0
1 2 3 0
-5 -6 -7 0
-5 -6 -8 0
-5 -7 -8 0
-6 -7 -8 0
6 7 8 0
5 7 8 0
5 6 8 0
5 6 7 0
-9 -10 -11 0
-9 -10 -12 0
-9 -11 -12 0
-10 -11 -12 0
10 11 12 0
9 11 12 0
9 10 12 0
9 10 11 0
-13 -14 -15 0
-13 -14 -16 0
-13 -15 -16 0
-14 -15 -16 0
14 15 16 0
13 15 16 0
13 14 16 0
13 14 15 0
-17 -18 -19 0
-17 -18 -20 0
-17 -19 -20 0
-18 -19 -20 0
18 19 20 0
17 19 20 0
17 18 20 0
17 18 19 0
-21 -22 -23 0
-21 -22 -24 0
-21 -23 -24 0
-22 -23 -24 0
22 23 24 0
21 23 24 0
21 22 24 0
21 22 23 0
-25 -26 -27 0
-25 -26 -28 0
-25 -27 -28 0
-26 -27 -28 0
26 27 28 0
25 27 28 0
25 26 28 0
25 26 27 0
-29 -30 -31 0
-29 -30 -32 0
-29 -31 -32 0
-30 -31 -32 0
30 31 32 0
29 31 32 0
29 30 32 0
29 30 31 0
-33 -34 -35 0
-33 -34 -36 0
-33 -35 -36 0
-34 -35 -36 0
34 35 36 0
33 35 36 0
33 34 36 0
33 34 35 0
-37 -38 -39 0
-37 -38 -40 0
-37 -39 -40 0
-38 -39 -40 0
38 39 40 0
37 39 40 0
37 38 40 0
37 38 39 0
-10 -33 -41 0
-10 -33 -42 0
-10 -33 -43 0
-10 -33 -44 0
-10 -41 -42 0
-10 -41 -43 0
-10 -41 -44 0
-10 -42 -43 0
-10 -42 -44 0
-10 -43 -44 0
-33 -41 -42 0
-33 -41 -43 0
-33 -41 -44 0
-33 -42 -43 0
-33 -42 -44 0
-33 -43 -44 0
-41 -42 -43 0
-41 -42 -44 0
-41 -43 -44 0
-42 -43 -44 0
33 41 42 43 44 0
10 41 42 43 44 0
10 33 42 43 44 0
10 33 41 43 44 0
10 33 41 42 44 0
10 33 41 42 43 0
-14 -37 -45 0
-14 -37 -46 0
-14 -37 -47 0
-14 -37 -48 0
-14 -45 -46 0
-14 -45 -47 0
-14 -45 -48 0
-14 -46 -47 0
-14 -46 -48 0
-14 -47 -48 0
-37 -45 -46 0
-37 -45 -47 0
-37 -45 -48 0
-37 -46 -47 0
-37 -46 -48 0
-37 -47 -48 0
-45 -46 -47 0
-45 -46 -48 0
-45 -47 -48 0
-46 -47 -48 0
37 45 46 47 48 0
14 45 46 47 48 0
14 37 46 47 48 0
14 37 45 47 48 0
14 37 45 46 48 0
14 37 45 46 47 0
-1 -18 -49 0
-1 -18 -50 0
-1 -18 -51 0
-1 -18 -52 0
-1 -49 -50 0
-1 -49 -51 0
-1 -49 -52 0
-1 -50 -51 0
-1 -50 -52 0
-1 -51 -52 0
-18 -49 -50 0
-18 -49 -51 0
-18 -49 -52 0
-18 -50 -51 0
-18 -50 -52 0
-18 -51 -52 0
-49 -50 -51 0
-49 -50 -52 0
-49 -51 -52 0
-50 -51 -52 0
18 49 50 51 52 0
1 49 50 51 52 0
1 18 50 51 52 0
1 18 49 51 52 0
1 18 49 50 52 0
1 18 49 50 51 0
-5 -22 -53 0
-5 -22 -54 0
-5 -22 -55 0
-5 -22 -56 0
-5 -53 -54 0
-5 -53 -55 0
-5 -53 -56 0
-5 -54 -55 0
-5 -54 -56 0
-5 -55 -56 0
-22 -53 -54 0
-22 -53 -55 0
-22 -53 -56 0
-22 -54 -55 0
-22 -54 -56 0
-22 -55 -56 0
-53 -54 -55 0
-53 -54 -56 0
-53 -55 -56 0
-54 -55 -56 0
22 53 54 55 56 0
5 53 54 55 56 0
5 22 54 55 56 0
5 22 53 55 56 0
5 22 53 54 56 0
5 22 53 54 55 0
-9 -26 -57 0
-9 -26 -58 0
-9 -26 -59 0
-9 -26 -60 0
-9 -57 -58 0
-9 -57 -59 0
-9 -57 -60 0
-9 -58 -59 0
-9 -58 -60 0
-9 -59 -60 0
-26 -57 -58 0
-26 -57 -59 0
-26 -57 -60 0
-26 -58 -59 0
-26 -58 -60 0
-26 -59 -60 0
-57 -58 -59 0
-57 -58 -60 0
-57 -59 -60 0
-58 -59 -60 0
26 57 58 59 60 0
9 57 58 59 60 0
9 26 58 59 60 0
9 26 57 59 60 0
9 26 57 58 60 0
9 26 57 58 59 0
-13 -30 -61 0
-13 -30 -62 0
-13 -30 -63 0
-13 -30 -64 0
-13 -61 -62 0
-13 -61 -63 0
-13 -61 -64 0
-13 -62 -63 0
-13 -62 -64 0
-13 -63 -64 0
-30 -61 -62 0
-30 -61 -63 0
-30 -61 -64 0
-30 -62 -63 0
-30 -62 -64 0
-30 -63 -64 0
-61 -62 -63 0
-61 -62 -64 0
-61 -63 -64 0
-62 -63 -64 0
30 61 62 63 64 0
13 61 62 63 64 0
13 30 62 63 64 0
13 30 61 63 64 0
13 30 61 62 64 0
13 30 61 62 63 0
-17 -34 -65 0
-17 -34 -66 0
-17 -34 -67 0
-17 -34 -68 0
-17 -65 -66 0
-17 -65 -67 0
-17 -65 -68 0
-17 -66 -67 0
-17 -66 -68 0
-17 -67 -68 0
-34 -65 -66 0
-34 -65 -67 0
-34 -65 -68 0
-34 -66 -67 0
-34 -66 -68 0
-34 -67 -68 0
-65 -66 -67 0
-65 -66 -68 0
-65 -67 -68 0
-66 -67 -68 0
34 65 66 67 68 0
17 65 66 67 68 0
17 34 66 67 68 0
17 34 65 67 68 0
17 34 65 66 68 0
17 34 65 66 67 0
-21 -38 -69 0
-21 -38 -70 0
-21 -38 -71 0
-21 -38 -72 0
-21 -69 -70 0
-21 -69 -71 0
-21 -69 -72 0
-21 -70 -71 0
-21 -70 -72 0
-21 -71 -72 0
-38 -69 -70 0
-38 -69 -71 0
-38 -69 -72 0
-38 -70 -71 0
-38 -70 -72 0
-38 -71 -72 0
-69 -70 -71 0
-69 -70 -72 0
-69 -71 -72 0
-70 -71 -72 0
38 69 70 71 72 0
21 69 70 71 72 0
21 38 70 71 72 0
21 38 69 71 72 0
21 38 69 70 72 0
21 38 69 70 71 0
-2 -25 -73 0
-2 -25 -74 0
-2 -25 -75 0
-2 -25 -76 0
-2 -73 -74 0
-2 -73 -75 0
-2 -73 -76 0
-2 -74 -75 0
-2 -74 -76 0
-2 -75 -76 0
-25 -73 -74 0
-25 -73 -75 0
-25 -73 -76 0
-25 -74 -75 0
-25 -74 -76 0
-25 -75 -76 0
-73 -74 -75 0
-73 -74 -76 0
-73 -75 -76 0
-74 -75 -76 0
25 73 74 75 76 0
2 73 74 75 76 0
2 25 74 75 76 0
2 25 73 75 76 0
2 25 73 74 76 0
2 25 73 74 75 0
-6 -29 -77 0
-6 -29 -78 0
-6 -29 -79 0
-6 -29 -80 0
-6 -77 -78 0
-6 -77 -79 0
-6 -77 -80 0
-6 -78 -79 0
-6 -78 -80 0
-6 -79 -80 0
-29 -77 -78 0
-29 -77 -79 0
-29 -77 -80 0
-29 -78 -79 0
-29 -78 -80 0
-29 -79 -80 0
-77 -78 -79 0
-77 -78 -80 0
-77 -79 -80 0
-78 -79 -80 0
29 77 78 79 80 0
6 77 78 79 80 0
6 29 78 79 80 0
6 29 77 79 80 0
6 29 77 78 80 0
6 29 77 78 79 0
-8 -39 -50 0
-8 -39 -73 0
-8 -39 -81 0
-8 -39 -82 0
-8 -39 -83 0
-8 -39 -84 0
-8 -50 -73 0
-8 -50 -81 0
-8 -50 -82 0
-8 -50 -83 0
-8 -50 -84 0
-8 -73 -81 0
-8 -73 -82 0
-8 -73 -83 0
-8 -73 -84 0
-8 -81 -82 0
-8 -81 -83 0
-8 -81 -84 0
-8 -82 -83 0
-8 -82 -84 0
-8 -83 -84 0
-39 -50 -73 0
-39 -50 -81 0
-39 -50 -82 0
-39 -50 -83 0
-39 -50 -84 0
-39 -73 -81 0
-39 -73 -82 0
-39 -73 -83 0
-39 -73 -84 0
-39 -81 -82 0
-39 -81 -83 0
-39 -81 -84 0
-39 -82 -83 0
-39 -82 -84 0
-39 -83 -84 0
-50 -73 -81 0
-50 -73 -82 0
-50 -73 -83 0
-50 -73 -84 0
-50 -81 -82 0
-50 -81 -83 0
-50 -81 -84 0
-50 -82 -83 0
-50 -82 -84 0
-50 -83 -84 0
-73 -81 -82 0
-73 -81 -83 0
-73 -81 -84 0
-73 -82 -83 0
-73 -82 -84 0
-73 -83 -84 0
-81 -82 -83 0
-81 -82 -84 0
-81 -83 -84 0
-82 -83 -84 0
39 50 73 81 82 83 84 0
8 50 73 81 82 83 84 0
8 39 73 81 82 83 84 0
8 39 50 81 82 83 84 0
8 39 50 73 82 83 84 0
8 39 50 73 81 83 84 0
8 39 50 73 81 82 84 0
8 39 50 73 81 82 83 0
-3 -12 -54 0
-3 -12 -77 0
-3 -12 -85 0
-3 -12 -86 0
-3 -12 -87 0
-3 -12 -88 0
-3 -54 -77 0
-3 -54 -85 0
-3 -54 -86 0
-3 -54 -87 0
-3 -54 -88 0
-3 -77 -85 0
-3 -77 -86 0
-3 -77 -87 0
-3 -77 -88 0
-3 -85 -86 0
-3 -85 -87 0
-3 -85 -88 0
-3 -86 -87 0
-3 -86 -88 0
-3 -87 -88 0
-12 -54 -77 0
-12 -54 -85 0
-12 -54 -86 0
-12 -54 -87 0
-12 -54 -88 0
-12 -77 -85 0
-12 -77 -86 0
-12 -77 -87 0
-12 -77 -88 0
-12 -85 -86 0
-12 -85 -87 0
-12 -85 -88 0
-12 -86 -87 0
-12 -86 -88 0
-12 -87 -88 0
-54 -77 -85 0
-54 -77 -86 0
-54 -77 -87 0
-54 -77 -88 0
-54 -85 -86 0
-54 -85 -87 0
-54 -85 -88 0
-54 -86 -87 0
-54 -86 -88 0
-54 -87 -88 0
-77 -85 -86 0
-77 -85 -87 0
-77 -85 -88 0
-77 -86 -87 0
-77 -86 -88 0
-77 -87 -88 0
-85 -86 -87 0
-85 -86 -88 0
-85 -87 -88 0
-86 -87 -88 0
12 54 77 85 86 87 88 0
3 54 77 85 86 87 88 0
3 12 77 85 86 87 88 0
3 12 54 85 86 87 88 0
3 12 54 77 86 87 88 0
3 12 54 77 85 87 88 0
3 12 54 77 85 86 88 0
3 12 54 77 85 86 87 0
-7 -16 -41 0
-7 -16 -58 0
-7 -16 -89 0
-7 -16 -90 0
-7 -16 -91 0
-7 -16 -92 0
-7 -41 -58 0
-7 -41 -89 0
-7 -41 -90 0
-7 -41 -91 0
-7 -41 -92 0
-7 -58 -89 0
-7 -58 -90 0
-7 -58 -91 0
-7 -58 -92 0
-7 -89 -90 0
-7 -89 -91 0
-7 -89 -92 0
-7 -90 -91 0
-7 -90 -92 0
-7 -91 -92 0
-16 -41 -58 0
-16 -41 -89 0
-16 -41 -90 0
-16 -41 -91 0
-16 -41 -92 0
-16 -58 -89 0
-16 -58 -90 0
-16 -58 -91 0
-16 -58 -92 0
-16 -89 -90 0
-16 -89 -91 0
-16 -89 -92 0
-16 -90 -91 0
-16 -90 -92 0
-16 -91 -92 0
-41 -58 -89 0
-41 -58 -90 0
-41 -58 -91 0
-41 -58 -92 0
-41 -89 -90 0
-41 -89 -91 0
-41 -89 -92 0
-41 -90 -91 0
-41 -90 -92 0
-41 -91 -92 0
-58 -89 -90 0
-58 -89 -91 0
-58 -89 -92 0
-58 -90 -91 0
-58 -90 -92 0
-58 -91 -92 0
-89 -90 -91 0
-89 -90 -92 0
-89 -91 -92 0
-90 -91 -92 0
16 41 58 89 90 91 92 0
7 41 58 89 90 91 92 0
7 16 58 89 90 91 92 0
7 16 41 89 90 91 92 0
7 16 41 58 90 91 92 0
7 16 41 58 89 91 92 0
7 16 41 58 89 90 92 0
7 16 41 58 89 90 91 0
-11 -20 -45 0
-11 -20 -62 0
-11 -20 -93 0
-11 -20 -94 0
-11 -20 -95 0
-11 -20 -96 0
-11 -45 -62 0
-11 -45 -93 0
-11 -45 -94 0
-11 -45 -95 0
-11 -45 -96 0
-11 -62 -93 0
-11 -62 -94 0
-11 -62 -95 0
-11 -62 -96 0
-11 -93 -94 0
-11 -93 -95 0
-11 -93 -96 0
-11 -94 -95 0
-11 -94 -96 0
-11 -95 -96 0
-20 -45 -62 0
-20 -45 -93 0
-20 -45 -94 0
-20 -45 -95 0
-20 -45 -96 0
-20 -62 -93 0
-20 -62 -94 0
-20 -62 -95 0
-20 -62 -96 0
-20 -93 -94 0
-20 -93 -95 0
-20 -93 -96 0
-20 -94 -95 0
-20 -94 -96 0
-20 -95 -96 0
-45 -62 -93 0
-45 -62 -94 0
-45 -62 -95 0
-45 -62 -96 0
-45 -93 -94 0
-45 -93 -95 0
-45 -93 -96 0
-45 -94 -95 0
-45 -94 -96 0
-45 -95 -96 0
-62 -93 -94 0
-62 -93 -95 0
-62 -93 -96 0
-62 -94 -95 0
-62 -94 -96 0
-62 -95 -96 0
-93 -94 -95 0
-93 -94 -96 0
-93 -95 -96 0
-94 -95 -96 0
20 45 62 93 94 95 96 0
11 45 62 93 94 95 96 0
11 20 62 93 94 95 96 0
11 20 45 93 94 95 96 0
11 20 45 62 94 95 96 0
11 20 45 62 93 95 96 0
11 20 45 62 93 94 96 0
11 20 45 62 93 94 95 0
-15 -24 -49 0
-15 -24 -66 0
-15 -24 -97 0
-15 -24 -98 0
-15 -24 -99 0
-15 -24 -100 0
-15 -49 -66 0
-15 -49 -97 0
-15 -49 -98 0
-15 -49 -99 0
-15 -49 -100 0
-15 -66 -97 0
-15 -66 -98 0
-15 -66 -99 0
-15 -66 -100 0
-15 -97 -98 0
-15 -97 -99 0
-15 -97 -100 0
-15 -98 -99 0
-15 -98 -100 0
-15 -99 -100 0
-24 -49 -66 0
-24 -49 -97 0
-24 -49 -98 0
-24 -49 -99 0
-24 -49 -100 0
-24 -66 -97 0
-24 -66 -98 0
-24 -66 -99 0
-24 -66 -100 0
-24 -97 -98 0
-24 -97 -99 0
-24 -97 -100 0
-24 -98 -99 0
-24 -98 -100 0
-24 -99 -100 0
-49 -66 -97 0
-49 -66 -98 0
-49 -66 -99 0
-49 -66 -100 0
-49 -97 -98 0
-49 -97 -99 0
-49 -97 -100 0
-49 -98 -99 0
-49 -98 -100 0
-49 -99 -100 0
-66 -97 -98 0
-66 -97 -99 0
-66 -97 -100 0
-66 -98 -99 0
-66 -98 -100 0
-66 -99 -100 0
-97 -98 -99 0
-97 -98 -100 0
-97 -99 -100 0
-98 -99 -100 0
24 49 66 97 98 99 100 0
15 49 66 97 98 99 100 0
15 24 66 97 98 99 100 0
15 24 49 97 98 99 100 0
15 24 49 66 98 99 100 0
15 24 49 66 97 99 100 0
15 24 49 66 97 98 100 0
15 24 49 66 97 98 99 0
-19 -28 -53 0
-19 -28 -70 0
-19 -28 -101 0
-19 -28 -102 0
-19 -28 -103 0
-19 -28 -104 0
-19 -53 -70 0
-19 -53 -101 0
-19 -53 -102 0
-19 -53 -103 0
-19 -53 -104 0
-19 -70 -101 0
-19 -70 -102 0
-19 -70 -103 0
-19 -70 -104 0
-19 -101 -102 0
-19 -101 -103 0
-19 -101 -104 0
-19 -102 -103 0
-19 -102 -104 0
-19 -103 -104 0
-28 -53 -70 0
-28 -53 -101 0
-28 -53 -102 0
-28 -53 -103 0
-28 -53 -104 0
-28 -70 -101 0
-28 -70 -102 0
-28 -70 -103 0
-28 -70 -104 0
-28 -101 -102 0
-28 -101 -103 0
-28 -101 -104 0
-28 -102 -103 0
-28 -102 -104 0
-28 -103 -104 0
-53 -70 -101 0
-53 -70 -102 0
-53 -70 -103 0
-53 -70 -104 0
-53 -101 -102 0
-53 -101 -103 0
-53 -101 -104 0
-53 -102 -103 0
-53 -102 -104 0
-53 -103 -104 0
-70 -101 -102 0
-70 -101 -103 0
-70 -101 -104 0
-70 -102 -103 0
-70 -102 -104 0
-70 -103 -104 0
-101 -102 -103 0
-101 -102 -104 0
-101 -103 -104 0
-102 -103 -104 0
28 53 70 101 102 103 104 0
19 53 70 101 102 103 104 0
19 28 70 101 102 103 104 0
19 28 53 101 102 103 104 0
19 28 53 70 102 103 104 0
19 28 53 70 101 103 104 0
19 28 53 70 101 102 104 0
19 28 53 70 101 102 103 0
-23 -32 -57 0
-23 -32 -74 0
-23 -32 -105 0
-23 -32 -106 0
-23 -32 -107 0
-23 -32 -108 0
-23 -57 -74 0
-23 -57 -105 0
-23 -57 -106 0
-23 -57 -107 0
-23 -57 -108 0
-23 -74 -105 0
-23 -74 -106 0
-23 -74 -107 0
-23 -74 -108 0
-23 -105 -106 0
-23 -105 -107 0
-23 -105 -108 0
-23 -106 -107 0
-23 -106 -108 0
-23 -107 -108 0
-32 -57 -74 0
-32 -57 -105 0
-32 -57 -106 0
-32 -57 -107 0
-32 -57 -108 0
-32 -74 -105 0
-32 -74 -106 0
-32 -74 -107 0
-32 -74 -108 0
-32 -105 -106 0
-32 -105 -107 0
-32 -105 -108 0
-32 -106 -107 0
-32 -106 -108 0
-32 -107 -108 0
-57 -74 -105 0
-57 -74 -106 0
-57 -74 -107 0
-57 -74 -108 0
-57 -105 -106 0
-57 -105 -107 0
-57 -105 -108 0
-57 -106 -107 0
-57 -106 -108 0
-57 -107 -108 0
-74 -105 -106 0
-74 -105 -107 0
-74 -105 -108 0
-74 -106 -107 0
-74 -106 -108 0
-74 -107 -108 0
-105 -106 -107 0
-105 -106 -108 0
-105 -107 -108 0
-106 -107 -108 0
32 57 74 105 106 107 108 0
23 57 74 105 106 107 108 0
23 32 74 105 106 107 108 0
23 32 57 105 106 107 108 0
23 32 57 74 106 107 108 0
23 32 57 74 105 107 108 0
23 32 57 74 105 106 108 0
23 32 57 74 105 106 107 0
-27 -36 -61 0
-27 -36 -78 0
-27 -36 -109 0
-27 -36 -110 0
-27 -36 -111 0
-27 -36 -112 0
-27 -61 -78 0
-27 -61 -109 0
-27 -61 -110 0
-27 -61 -111 0
-27 -61 -112 0
-27 -78 -109 0
-27 -78 -110 0
-27 -78 -111 0
-27 -78 -112 0
-27 -109 -110 0
-27 -109 -111 0
-27 -109 -112 0
-27 -110 -111 0
-27 -110 -112 0
-27 -111 -112 0
-36 -61 -78 0
-36 -61 -109 0
-36 -61 -110 0
-36 -61 -111 0
-36 -61 -112 0
-36 -78 -109 0
-36 -78 -110 0
-36 -78 -111 0
-36 -78 -112 0
-36 -109 -110 0
-36 -109 -111 0
-36 -109 -112 0
-36 -110 -111 0
-36 -110 -112 0
-36 -111 -112 0
-61 -78 -109 0
-61 -78 -110 0
-61 -78 -111 0
-61 -78 -112 0
-61 -109 -110 0
-61 -109 -111 0
-61 -109 -112 0
-61 -110 -111 0
-61 -110 -112 0
-61 -111 -112 0
-78 -109 -110 0
-78 -109 -111 0
-78 -109 -112 0
-78 -110 -111 0
-78 -110 -112 0
-78 -111 -112 0
-109 -110 -111 0
-109 -110 -112 0
-109 -111 -112 0
-110 -111 -112 0
36 61 78 109 110 111 112 0
27 61 78 109 110 111 112 0
27 36 78 109 110 111 112 0
27 36 61 109 110 111 112 0
27 36 61 78 110 111 112 0
27 36 61 78 109 111 112 0
27 36 61 78 109 110 112 0
27 36 61 78 109 110 111 0
-31 -40 -42 0
-31 -40 -65 0
-31 -40 -113 0
-31 -40 -114 0
-31 -40 -115 0
-31 -40 -116 0
-31 -42 -65 0
-31 -42 -113 0
-31 -42 -114 0
-31 -42 -115 0
-31 -42 -116 0
-31 -65 -113 0
-31 -65 -114 0
-31 -65 -115 0
-31 -65 -116 0
-31 -113 -114 0
-31 -113 -115 0
-31 -113 -116 0
-31 -114 -115 0
-31 -114 -116 0
-31 -115 -116 0
-40 -42 -65 0
-40 -42 -113 0
-40 -42 -114 0
-40 -42 -115 0
-40 -42 -116 0
-40 -65 -113 0
-40 -65 -114 0
-40 -65 -115 0
-40 -65 -116 0
-40 -113 -114 0
-40 -113 -115 0
-40 -113 -116 0
-40 -114 -115 0
-40 -114 -116 0
-40 -115 -116 0
-42 -65 -113 0
-42 -65 -114 0
-42 -65 -115 0
-42 -65 -116 0
-42 -113 -114 0
-42 -113 -115 0
-42 -113 -116 0
-42 -114 -115 0
-42 -114 -116 0
-42 -115 -116 0
-65 -113 -114 0
-65 -113 -115 0
-65 -113 -116 0
-65 -114 -115 0
-65 -114 -116 0
-65 -115 -116 0
-113 -114 -115 0
-113 -114 -116 0
-113 -115 -116 0
-114 -115 -116 0
40 42 65 113 114 115 116 0
31 42 65 113 114 115 116 0
31 40 65 113 114 115 116 0
31 40 42 113 114 115 116 0
31 40 42 65 114 115 116 0
31 40 42 65 113 115 116 0
31 40 42 65 113 114 116 0
31 40 42 65 113 114 115 0
-4 -35 -46 0
-4 -35 -69 0
-4 -35 -117 0
-4 -35 -118 0
-4 -35 -119 0
-4 -35 -120 0
-4 -46 -69 0
-4 -46 -117 0
-4 -46 -118 0
-4 -46 -119 0
-4 -46 -120 0
-4 -69 -117 0
-4 -69 -118 0
-4 -69 -119 0
-4 -69 -120 0
-4 -117 -118 0
-4 -117 -119 0
-4 -117 -120 0
-4 -118 -119 0
-4 -118 -120 0
-4 -119 -120 0
-35 -46 -69 0
-35 -46 -117 0
-35 -46 -118 0
-35 -46 -119 0
-35 -46 -120 0
-35 -69 -117 0
-35 -69 -118 0
-35 -69 -119 0
-35 -69 -120 0
-35 -117 -118 0
-35 -117 -119 0
-35 -117 -120 0
-35 -118 -119 0
-35 -118 -120 0
-35 -119 -120 0
-46 -69 -117 0
-46 -69 -118 0
-46 -69 -119 0
-46 -69 -120 0
-46 -117 -118 0
-46 -117 -119 0
-46 -117 -120 0
-46 -118 -119 0
-46 -118 -120 0
-46 -119 -120 0
-69 -117 -118 0
-69 -117 -119 0
-69 -117 -120 0
-69 -118 -119 0
-69 -118 -120 0
-69 -119 -120 0
-117 -118 -119 0
-117 -118 -120 0
-117 -119 -120 0
-118 -119 -120 0
35 46 69 117 118 119 120 0
4 46 69 117 118 119 120 0
4 35 69 117 118 119 120 0
4 35 46 117 118 119 120 0
4 35 46 69 118 119 120 0
4 35 46 69 117 119 120 0
4 35 46 69 117 118 120 0
4 35 46 69 117 118 119 0
-48 -79 -90 0
-48 -79 -113 0
-48 -79 -121 0
-48 -79 -122 0
-48 -79 -123 0
-48 -79 -124 0
-48 -90 -113 0
-48 -90 -121 0
-48 -90 -122 0
-48 -90 -123 0
-48 -90 -124 0
-48 -113 -121 0
-48 -113 -122 0
-48 -113 -123 0
-48 -113 -124 0
-48 -121 -122 0
-48 -121 -123 0
-48 -121 -124 0
-48 -122 -123 0
-48 -122 -124 0
-48 -123 -124 0
-79 -90 -113 0
-79 -90 -121 0
-79 -90 -122 0
-79 -90 -123 0
-79 -90 -124 0
-79 -113 -121 0
-79 -113 -122 0
-79 -113 -123 0
-79 -113 -124 0
-79 -121 -122 0
-79 -121 -123 0
-79 -121 -124 0
-79 -122 -123 0
-79 -122 -124 0
-79 -123 -124 0
-90 -113 -121 0
-90 -113 -122 0
-90 -113 -123 0
-90 -113 -124 0
-90 -121 -122 0
-90 -121 -123 0
-90 -121 -124 0
-90 -122 -123 0
-90 -122 -124 0
-90 -123 -124 0
-113 -121 -122 0
-113 -121 -123 0
-113 -121 -124 0
-113 -122 -123 0
-113 -122 -124 0
-113 -123 -124 0
-121 -122 -123 0
-121 -122 -124 0
-121 -123 -124 0
-122 -123 -124 0
79 90 113 121 122 123 124 0
48 90 113 121 122 123 124 0
48 79 113 121 122 123 124 0
48 79 90 121 122 123 124 0
48 79 90 113 122 123 124 0
48 79 90 113 121 123 124 0
48 79 90 113 121 122 124 0
48 79 90 113 121 122 123 0
-43 -52 -94 0
-43 -52 -117 0
-43 -52 -125 0
-43 -52 -126 0
-43 -52 -127 0
-43 -52 -128 0
-43 -94 -117 0
-43 -94 -125 0
-43 -94 -126 0
-43 -94 -127 0
-43 -94 -128 0
-43 -117 -125 0
-43 -117 -126 0
-43 -117 -127 0
-43 -117 -128 0
-43 -125 -126 0
-43 -125 -127 0
-43 -125 -128 0
-43 -126 -127 0
-43 -126 -128 0
-43 -127 -128 0
-52 -94 -117 0
-52 -94 -125 0
-52 -94 -126 0
-52 -94 -127 0
-52 -94 -128 0
-52 -117 -125 0
-52 -117 -126 0
-52 -117 -127 0
-52 -117 -128 0
-52 -125 -126 0
-52 -125 -127 0
-52 -125 -128 0
-52 -126 -127 0
-52 -126 -128 0
-52 -127 -128 0
-94 -117 -125 0
-94 -117 -126 0
-94 -117 -127 0
-94 -117 -128 0
-94 -125 -126 0
-94 -125 -127 0
-94 -125 -128 0
-94 -126 -127 0
-94 -126 -128 0
-94 -127 -128 0
-117 -125 -126 0
-117 -125 -127 0
-117 -125 -128 0
-117 -126 -127 0
-117 -126 -128 0
-117 -127 -128 0
-125 -126 -127 0
-125 -126 -128 0
-125 -127 -128 0
-126 -127 -128 0
52 94 117 125 126 127 128 0
43 94 117 125 126 127 128 0
43 52 117 125 126 127 128 0
43 52 94 125 126 127 128 0
43 52 94 117 126 127 128 0
43 52 94 117 125 127 128 0
43 52 94 117 125 126 128 0
43 52 94 117 125 126 127 0
-47 -56 -81 0
-47 -56 -98 0
-47 -56 -129 0
-47 -56 -130 0
-47 -56 -131 0
-47 -56 -132 0
-47 -81 -98 0
-47 -81 -129 0
-47 -81 -130 0
-47 -81 -131 0
-47 -81 -132 0
-47 -98 -129 0
-47 -98 -130 0
-47 -98 -131 0
-47 -98 -132 0
-47 -129 -130 0
-47 -129 -131 0
-47 -129 -132 0
-47 -130 -131 0
-47 -130 -132 0
-47 -131 -132 0
-56 -81 -98 0
-56 -81 -129 0
-56 -81 -130 0
-56 -81 -131 0
-56 -81 -132 0
-56 -98 -129 0
-56 -98 -130 0
-56 -98 -131 0
-56 -98 -132 0
-56 -129 -130 0
-56 -129 -131 0
-56 -129 -132 0
-56 -130 -131 0
-56 -130 -132 0
-56 -131 -132 0
-81 -98 -129 0
-81 -98 -130 0
-81 -98 -131 0
-81 -98 -132 0
-81 -129 -130 0
-81 -129 -131 0
-81 -129 -132 0
-81 -130 -131 0
-81 -130 -132 0
-81 -131 -132 0
-98 -129 -130 0
-98 -129 -131 0
-98 -129 -132 0
-98 -130 -131 0
-98 -130 -132 0
-98 -131 -132 0
-129 -130 -131 0
-129 -130 -132 0
-129 -131 -132 0
-130 -131 -132 0
56 81 98 129 130 131 132 0
47 81 98 129 130 131 132 0
47 56 98 129 130 131 132 0
47 56 81 129 130 131 132 0
47 56 81 98 130 131 132 0
47 56 81 98 129 131 132 0
47 56 81 98 129 130 132 0
47 56 81 98 129 130 131 0
-51 -60 -85 0
-51 -60 -102 0
-51 -60 -133 0
-51 -60 -134 0
-51 -60 -135 0
-51 -60 -136 0
-51 -85 -102 0
-51 -85 -133 0
-51 -85 -134 0
-51 -85 -135 0
-51 -85 -136 0
-51 -102 -133 0
-51 -102 -134 0
-51 -102 -135 0
-51 -102 -136 0
-51 -133 -134 0
-51 -133 -135 0
-51 -133 -136 0
-51 -134 -135 0
-51 -134 -136 0
-51 -135 -136 0
-60 -85 -102 0
-60 -85 -133 0
-60 -85 -134 0
-60 -85 -135 0
-60 -85 -136 0
-60 -102 -133 0
-60 -102 -134 0
-60 -102 -135 0
-60 -102 -136 0
-60 -133 -134 0
-60 -133 -135 0
-60 -133 -136 0
-60 -134 -135 0
-60 -134 -136 0
-60 -135 -136 0
-85 -102 -133 0
-85 -102 -134 0
-85 -102 -135 0
-85 -102 -136 0
-85 -133 -134 0
-85 -133 -135 0
-85 -133 -136 0
-85 -134 -135 0
-85 -134 -136 0
-85 -135 -136 0
-102 -133 -134 0
-102 -133 -135 0
-102 -133 -136 0
-102 -134 -135 0
-102 -134 -136 0
-102 -135 -136 0
-133 -134 -135 0
-133 -134 -136 0
-133 -135 -136 0
-134 -135 -136 0
60 85 102 133 134 135 136 0
51 85 102 133 134 135 136 0
51 60 102 133 134 135 136 0
51 60 85 133 134 135 136 0
51 60 85 102 134 135 136 0
51 60 85 102 133 135 136 0
51 60 85 102 133 134 136 0
51 60 85 102 133 134 135 0
-55 -64 -89 0
-55 -64 -106 0
-55 -64 -137 0
-55 -64 -138 0
-55 -64 -139 0
-55 -64 -140 0
-55 -89 -106 0
-55 -89 -137 0
-55 -89 -138 0
-55 -89 -139 0
-55 -89 -140 0
-55 -106 -137 0
-55 -106 -138 0
-55 -106 -139 0
-55 -106 -140 0
-55 -137 -138 0
-55 -137 -139 0
-55 -137 -140 0
-55 -138 -139 0
-55 -138 -140 0
-55 -139 -140 0
-64 -89 -106 0
-64 -89 -137 0
-64 -89 -138 0
-64 -89 -139 0
-64 -89 -140 0
-64 -106 -137 0
-64 -106 -138 0
-64 -106 -139 0
-64 -106 -140 0
-64 -137 -138 0
-64 -137 -139 0
-64 -137 -140 0
-64 -138 -139 0
-64 -138 -140 0
-64 -139 -140 0
-89 -106 -137 0
-89 -106 -138 0
-89 -106 -139 0
-89 -106 -140 0
-89 -137 -138 0
-89 -137 -139 0
-89 -137 -140 0
-89 -138 -139 0
-89 -138 -140 0
-89 -139 -140 0
-106 -137 -138 0
-106 -137 -139 0
-106 -137 -140 0
-106 -138 -139 0
-106 -138 -140 0
-106 -139 -140 0
-137 -138 -139 0
-137 -138 -140 0
-137 -139 -140 0
-138 -139 -140 0
64 89 106 137 138 139 140 0
55 89 106 137 138 139 140 0
55 64 106 137 138 139 140 0
55 64 89 137 138 139 140 0
55 64 89 106 138 139 140 0
55 64 89 106 137 139 140 0
55 64 89 106 137 138 140 0
55 64 89 106 137 138 139 0
-59 -68 -93 0
-59 -68 -110 0
-59 -68 -141 0
-59 -68 -142 0
-59 -68 -143 0
-59 -68 -144 0
-59 -93 -110 0
-59 -93 -141 0
-59 -93 -142 0
-59 -93 -143 0
-59 -93 -144 0
-59 -110 -141 0
-59 -110 -142 0
-59 -110 -143 0
-59 -110 -144 0
-59 -141 -142 0
-59 -141 -143 0
-59 -141 -144 0
-59 -142 -143 0
-59 -142 -144 0
-59 -143 -144 0
-68 -93 -110 0
-68 -93 -141 0
-68 -93 -142 0
-68 -93 -143 0
-68 -93 -144 0
-68 -110 -141 0
-68 -110 -142 0
-68 -110 -143 0
-68 -110 -144 0
-68 -141 -142 0
-68 -141 -143 0
-68 -141 -144 0
-68 -142 -143 0
-68 -142 -144 0
-68 -143 -144 0
-93 -110 -141 0
-93 -110 -142 0
-93 -110 -143 0
-93 -110 -144 0
-93 -141 -142 0
-93 -141 -143 0
-93 -141 -144 0
-93 -142 -143 0
-93 -142 -144 0
-93 -143 -144 0
-110 -141 -142 0
-110 -141 -143 0
-110 -141 -144 0
-110 -142 -143 0
-110 -142 -144 0
-110 -143 -144 0
-141 -142 -143 0
-141 -142 -144 0
-141 -143 -144 0
-142 -143 -144 0
68 93 110 141 142 143 144 0
59 93 110 141 142 143 144 0
59 68 110 141 142 143 144 0
59 68 93 141 142 143 144 0
59 68 93 110 142 143 144 0
59 68 93 110 141 143 144 0
59 68 93 110 141 142 144 0
59 68 93 110 141 142 143 0
-63 -72 -97 0
-63 -72 -114 0
-63 -72 -145 0
-63 -72 -146 0
-63 -72 -147 0
-63 -72 -148 0
-63 -97 -114 0
-63 -97 -145 0
-63 -97 -146 0
-63 -97 -147 0
-63 -97 -148 0
-63 -114 -145 0
-63 -114 -146 0
-63 -114 -147 0
-63 -114 -148 0
-63 -145 -146 0
-63 -145 -147 0
-63 -145 -148 0
-63 -146 -147 0
-63 -146 -148 0
-63 -147 -148 0
-72 -97 -114 0
-72 -97 -145 0
-72 -97 -146 0
-72 -97 -147 0
-72 -97 -148 0
-72 -114 -145 0
-72 -114 -146 0
-72 -114 -147 0
-72 -114 -148 0
-72 -145 -146 0
-72 -145 -147 0
-72 -145 -148 0
-72 -146 -147 0
-72 -146 -148 0
-72 -147 -148 0
-97 -114 -145 0
-97 -114 -146 0
-97 -114 -147 0
-97 -114 -148 0
-97 -145 -146 0
-97 -145 -147 0
-97 -145 -148 0
-97 -146 -147 0
-97 -146 -148 0
-97 -147 -148 0
-114 -145 -146 0
-114 -145 -147 0
-114 -145 -148 0
-114 -146 -147 0
-114 -146 -148 0
-114 -147 -148 0
-145 -146 -147 0
-145 -146 -148 0
-145 -147 -148 0
-146 -147 -148 0
72 97 114 145 146 147 148 0
63 97 114 145 146 147 148 0
63 72 114 145 146 147 148 0
63 72 97 145 146 147 148 0
63 72 97 114 146 147 148 0
63 72 97 114 145 147 148 0
63 72 97 114 145 146 148 0
63 72 97 114 145 146 147 0
-67 -76 -101 0
-67 -76 -118 0
-67 -76 -149 0
-67 -76 -150 0
-67 -76 -151 0
-67 -76 -152 0
-67 -101 -118 0
-67 -101 -149 0
-67 -101 -150 0
-67 -101 -151 0
-67 -101 -152 0
-67 -118 -149 0
-67 -118 -150 0
-67 -118 -151 0
-67 -118 -152 0
-67 -149 -150 0
-67 -149 -151 0
-67 -149 -152 0
-67 -150 -151 0
-67 -150 -152 0
-67 -151 -152 0
-76 -101 -118 0
-76 -101 -149 0
-76 -101 -150 0
-76 -101 -151 0
-76 -101 -152 0
-76 -118 -149 0
-76 -118 -150 0
-76 -118 -151 0
-76 -118 -152 0
-76 -149 -150 0
-76 -149 -151 0
-76 -149 -152 0
-76 -150 -151 0
-76 -150 -152 0
-76 -151 -152 0
-101 -118 -149 0
-101 -118 -150 0
-101 -118 -151 0
-101 -118 -152 0
-101 -149 -150 0
-101 -149 -151 0
-101 -149 -152 0
-101 -150 -151 0
-101 -150 -152 0
-101 -151 -152 0
-118 -149 -150 0
-118 -149 -151 0
-118 -149 -152 0
-118 -150 -151 0
-118 -150 -152 0
-118 -151 -152 0
-149 -150 -151 0
-149 -150 -152 0
-149 -151 -152 0
-150 -151 -152 0
76 101 118 149 150 151 152 0
67 101 118 149 150 151 152 0
67 76 118 149 150 151 152 0
67 76 101 149 150 151 152 0
67 76 101 118 150 151 152 0
67 76 101 118 149 151 152 0
67 76 101 118 149 150 152 0
67 76 101 118 149 150 151 0
-71 -80 -82 0
-71 -80 -105 0
-71 -80 -153 0
-71 -80 -154 0
-71 -80 -155 0
-71 -80 -156 0
-71 -82 -105 0
-71 -82 -153 0
-71 -82 -154 0
-71 -82 -155 0
-71 -82 -156 0
-71 -105 -153 0
-71 -105 -154 0
-71 -105 -155 0
-71 -105 -156 0
-71 -153 -154 0
-71 -153 -155 0
-71 -153 -156 0
-71 -154 -155 0
-71 -154 -156 0
-71 -155 -156 0
-80 -82 -105 0
-80 -82 -153 0
-80 -82 -154 0
-80 -82 -155 0
-80 -82 -156 0
-80 -105 -153 0
-80 -105 -154 0
-80 -105 -155 0
-80 -105 -156 0
-80 -153 -154 0
-80 -153 -155 0
-80 -153 -156 0
-80 -154 -155 0
-80 -154 -156 0
-80 -155 -156 0
-82 -105 -153 0
-82 -105 -154 0
-82 -105 -155 0
-82 -105 -156 0
-82 -153 -154 0
-82 -153 -155 0
-82 -153 -156 0
-82 -154 -155 0
-82 -154 -156 0
-82 -155 -156 0
-105 -153 -154 0
-105 -153 -155 0
-105 -153 -156 0
-105 -154 -155 0
-105 -154 -156 0
-105 -155 -156 0
-153 -154 -155 0
-153 -154 -156 0
-153 -155 -156 0
-154 -155 -156 0
80 82 105 153 154 155 156 0
71 82 105 153 154 155 156 0
71 80 105 153 154 155 156 0
71 80 82 153 154 155 156 0
71 80 82 105 154 155 156 0
71 80 82 105 153 155 156 0
71 80 82 105 153 154 156 0
71 80 82 105 153 154 155 0
-44 -75 -86 0
-44 -75 -109 0
-44 -75 -157 0
-44 -75 -158 0
-44 -75 -159 0
-44 -75 -160 0
-44 -86 -109 0
-44 -86 -157 0
-44 -86 -158 0
-44 -86 -159 0
-44 -86 -160 0
-44 -109 -157 0
-44 -109 -158 0
-44 -109 -159 0
-44 -109 -160 0
-44 -157 -158 0
-44 -157 -159 0
-44 -157 -160 0
-44 -158 -159 0
-44 -158 -160 0
-44 -159 -160 0
-75 -86 -109 0
-75 -86 -157 0
-75 -86 -158 0
-75 -86 -159 0
-75 -86 -160 0
-75 -109 -157 0
-75 -109 -158 0
-75 -109 -159 0
-75 -109 -160 0
-75 -157 -158 0
-75 -157 -159 0
-75 -157 -160 0
-75 -158 -159 0
-75 -158 -160 0
-75 -159 -160 0
-86 -109 -157 0
-86 -109 -158 0
-86 -109 -159 0
-86 -109 -160 0
-86 -157 -158 0
-86 -157 -159 0
-86 -157 -160 0
-86 -158 -159 0
-86 -158 -160 0
-86 -159 -160 0
-109 -157 -158 0
-109 -157 -159 0
-109 -157 -160 0
-109 -158 -159 0
-109 -158 -160 0
-109 -159 -160 0
-157 -158 -159 0
-157 -158 -160 0
-157 -159 -160 0
-158 -159 -160 0
75 86 109 157 158 159 160 0
44 86 109 157 158 159 160 0
44 75 109 157 158 159 160 0
44 75 86 157 158 159 160 0
44 75 86 109 158 159 160 0
44 75 86 109 157 159 160 0
44 75 86 109 157 158 160 0
44 75 86 109 157 158 159 0
-88 -119 -130 0
-88 -119 -153 0
-88 -119 -161 0
-88 -119 -162 0
-88 -119 -163 0
-88 -119 -164 0
-88 -130 -153 0
-88 -130 -161 0
-88 -130 -162 0
-88 -130 -163 0
-88 -130 -164 0
-88 -153 -161 0
-88 -153 -162 0
-88 -153 -163 0
-88 -153 -164 0
-88 -161 -162 0
-88 -161 -163 0
-88 -161 -164 0
-88 -162 -163 0
-88 -162 -164 0
-88 -163 -164 0
-119 -130 -153 0
-119 -130 -161 0
-119 -130 -162 0
-119 -130 -163 0
-119 -130 -164 0
-119 -153 -161 0
-119 -153 -162 0
-119 -153 -163 0
-119 -153 -164 0
-119 -161 -162 0
-119 -161 -163 0
-119 -161 -164 0
-119 -162 -163 0
-119 -162 -164 0
-119 -163 -164 0
-130 -153 -161 0
-130 -153 -162 0
-130 -153 -163 0
-130 -153 -164 0
-130 -161 -162 0
-130 -161 -163 0
-130 -161 -164 0
-130 -162 -163 0
-130 -162 -164 0
-130 -163 -164 0
-153 -161 -162 0
-153 -161 -163 0
-153 -161 -164 0
-153 -162 -163 0
-153 -162 -164 0
-153 -163 -164 0
-161 -162 -163 0
-161 -162 -164 0
-161 -163 -164 0
-162 -163 -164 0
119 130 153 161 162 163 164 0
88 130 153 161 162 163 164 0
88 119 153 161 162 163 164 0
88 119 130 161 162 163 164 0
88 119 130 153 162 163 164 0
88 119 130 153 161 163 164 0
88 119 130 153 161 162 164 0
88 119 130 153 161 162 163 0
-83 -92 -134 0
-83 -92 -157 0
-83 -92 -165 0
-83 -92 -166 0
-83 -92 -167 0
-83 -92 -168 0
-83 -134 -157 0
-83 -134 -165 0
-83 -134 -166 0
-83 -134 -167 0
-83 -134 -168 0
-83 -157 -165 0
-83 -157 -166 0
-83 -157 -167 0
-83 -157 -168 0
-83 -165 -166 0
-83 -165 -167 0
-83 -165 -168 0
-83 -166 -167 0
-83 -166 -168 0
-83 -167 -168 0
-92 -134 -157 0
-92 -134 -165 0
-92 -134 -166 0
-92 -134 -167 0
-92 -134 -168 0
-92 -157 -165 0
-92 -157 -166 0
-92 -157 -167 0
-92 -157 -168 0
-92 -165 -166 0
-92 -165 -167 0
-92 -165 -168 0
-92 -166 -167 0
-92 -166 -168 0
-92 -167 -168 0
-134 -157 -165 0
-134 -157 -166 0
-134 -157 -167 0
-134 -157 -168 0
-134 -165 -166 0
-134 -165 -167 0
-134 -165 -168 0
-134 -166 -167 0
-134 -166 -168 0
-134 -167 -168 0
-157 -165 -166 0
-157 -165 -167 0
-157 -165 -168 0
-157 -166 -167 0
-157 -166 -168 0
-157 -167 -168 0
-165 -166 -167 0
-165 -166 -168 0
-165 -167 -168 0
-166 -167 -168 0
92 134 157 165 166 167 168 0
83 134 157 165 166 167 168 0
83 92 157 165 166 167 168 0
83 92 134 165 166 167 168 0
83 92 134 157 166 167 168 0
83 92 134 157 165 167 168 0
83 92 134 157 165 166 168 0
83 92 134 157 165 166 167 0
-87 -96 -121 0
-87 -96 -138 0
-87 -96 -169 0
-87 -96 -170 0
-87 -96 -171 0
-87 -96 -172 0
-87 -121 -138 0
-87 -121 -169 0
-87 -121 -170 0
-87 -121 -171 0
-87 -121 -172 0
-87 -138 -169 0
-87 -138 -170 0
-87 -138 -171 0
-87 -138 -172 0
-87 -169 -170 0
-87 -169 -171 0
-87 -169 -172 0
-87 -170 -171 0
-87 -170 -172 0
-87 -171 -172 0
-96 -121 -138 0
-96 -121 -169 0
-96 -121 -170 0
-96 -121 -171 0
-96 -121 -172 0
-96 -138 -169 0
-96 -138 -170 0
-96 -138 -171 0
-96 -138 -172 0
-96 -169 -170 0
-96 -169 -171 0
-96 -169 -172 0
-96 -170 -171 0
-96 -170 -172 0
-96 -171 -172 0
-121 -138 -169 0
-121 -138 -170 0
-121 -138 -171 0
-121 -138 -172 0
-121 -169 -170 0
-121 -169 -171 0
-121 -169 -172 0
-121 -170 -171 0
-121 -170 -172 0
-121 -171 -172 0
-138 -169 -170 0
-138 -169 -171 0
-138 -169 -172 0
-138 -170 -171 0
-138 -170 -172 0
-138 -171 -172 0
-169 -170 -171 0
-169 -170 -172 0
-169 -171 -172 0
-170 -171 -172 0
96 121 138 169 170 171 172 0
87 121 138 169 170 171 172 0
87 96 138 169 170 171 172 0
87 96 121 169 170 171 172 0
87 96 121 138 170 171 172 0
87 96 121 138 169 171 172 0
87 96 121 138 169 170 172 0
87 96 121 138 169 170 171 0
-91 -100 -125 0
-91 -100 -142 0
-91 -100 -173 0
-91 -100 -174 0
-91 -100 -175 0
-91 -100 -176 0
-91 -125 -142 0
-91 -125 -173 0
-91 -125 -174 0
-91 -125 -175 0
-91 -125 -176 0
-91 -142 -173 0
-91 -142 -174 0
-91 -142 -175 0
-91 -142 -176 0
-91 -173 -174 0
-91 -173 -175 0
-91 -173 -176 0
-91 -174 -175 0
-91 -174 -176 0
-91 -175 -176 0
-100 -125 -142 0
-100 -125 -173 0
-100 -125 -174 0
-100 -125 -175 0
-100 -125 -176 0
-100 -142 -173 0
-100 -142 -174 0
-100 -142 -175 0
-100 -142 -176 0
-100 -173 -174 0
-100 -173 -175 0
-100 -173 -176 0
-100 -174 -175 0
-100 -174 -176 0
-100 -175 -176 0
-125 -142 -173 0
-125 -142 -174 0
-125 -142 -175 0
-125 -142 -176 0
-125 -173 -174 0
-125 -173 -175 0
-125 -173 -176 0
-125 -174 -175 0
-125 -174 -176 0
-125 -175 -176 0
-142 -173 -174 0
-142 -173 -175 0
-142 -173 -176 0
-142 -174 -175 0
-142 -174 -176 0
-142 -175 -176 0
-173 -174 -175 0
-173 -174 -176 0
-173 -175 -176 0
-174 -175 -176 0
100 125 142 173 174 175 176 0
91 125 142 173 174 175 176 0
91 100 142 173 174 175 176 0
91 100 125 173 174 175 176 0
91 100 125 142 174 175 176 0
91 100 125 142 173 175 176 0
91 100 125 142 173 174 176 0
91 100 125 142 173 174 175 0
-95 -104 -129 0
-95 -104 -146 0
-95 -104 -177 0
-95 -104 -178 0
-95 -104 -179 0
-95 -104 -180 0
-95 -129 -146 0
-95 -129 -177 0
-95 -129 -178 0
-95 -129 -179 0
-95 -129 -180 0
-95 -146 -177 0
-95 -146 -178 0
-95 -146 -179 0
-95 -146 -180 0
-95 -177 -178 0
-95 -177 -179 0
-95 -177 -180 0
-95 -178 -179 0
-95 -178 -180 0
-95 -179 -180 0
-104 -129 -146 0
-104 -129 -177 0
-104 -129 -178 0
-104 -129 -179 0
-104 -129 -180 0
-104 -146 -177 0
-104 -146 -178 0
-104 -146 -179 0
-104 -146 -180 0
-104 -177 -178 0
-104 -177 -179 0
-104 -177 -180 0
-104 -178 -179 0
-104 -178 -180 0
-104 -179 -180 0
-129 -146 -177 0
-129 -146 -178 0
-129 -146 -179 0
-129 -146 -180 0
-129 -177 -178 0
-129 -177 -179 0
-129 -177 -180 0
-129 -178 -179 0
-129 -178 -180 0
-129 -179 -180 0
-146 -177 -178 0
-146 -177 -179 0
-146 -177 -180 0
-146 -178 -179 0
-146 -178 -180 0
-146 -179 -180 0
-177 -178 -179 0
-177 -178 -180 0
-177 -179 -180 0
-178 -179 -180 0
104 129 146 177 178 179 180 0
95 129 146 177 178 179 180 0
95 104 146 177 178 179 180 0
95 104 129 177 178 179 180 0
95 104 129 146 178 179 180 0
95 104 129 146 177 179 180 0
95 104 129 146 177 178 180 0
95 104 129 146 177 178 179 0
-99 -108 -133 0
-99 -108 -150 0
-99 -108 -181 0
-99 -108 -182 0
-99 -108 -183 0
-99 -108 -184 0
-99 -133 -150 0
-99 -133 -181 0
-99 -133 -182 0
-99 -133 -183 0
-99 -133 -184 0
-99 -150 -181 0
-99 -150 -182 0
-99 -150 -183 0
-99 -150 -184 0
-99 -181 -182 0
-99 -181 -183 0
-99 -181 -184 0
-99 -182 -183 0
-99 -182 -184 0
-99 -183 -184 0
-108 -133 -150 0
-108 -133 -181 0
-108 -133 -182 0
-108 -133 -183 0
-108 -133 -184 0
-108 -150 -181 0
-108 -150 -182 0
-108 -150 -183 0
-108 -150 -184 0
-108 -181 -182 0
-108 -181 -183 0
-108 -181 -184 0
-108 -182 -183 0
-108 -182 -184 0
-108 -183 -184 0
-133 -150 -181 0
-133 -150 -182 0
-133 -150 -183 0
-133 -150 -184 0
-133 -181 -182 0
-133 -181 -183 0
-133 -181 -184 0
-133 -182 -183 0
-133 -182 -184 0
-133 -183 -184 0
-150 -181 -182 0
-150 -181 -183 0
-150 -181 -184 0
-150 -182 -183 0
-150 -182 -184 0
-150 -183 -184 0
-181 -182 -183 0
-181 -182 -184 0
-181 -183 -184 0
-182 -183 -184 0
108 133 150 181 182 183 184 0
99 133 150 181 182 183 184 0
99 108 150 181 182 183 184 0
99 108 133 181 182 183 184 0
99 108 133 150 182 183 184 0
99 108 133 150 181 183 184 0
99 108 133 150 181 182 184 0
99 108 133 150 181 182 183 0
-103 -112 -137 0
-103 -112 -154 0
-103 -112 -185 0
-103 -112 -186 0
-103 -112 -187 0
-103 -112 -188 0
-103 -137 -154 0
-103 -137 -185 0
-103 -137 -186 0
-103 -137 -187 0
-103 -137 -188 0
-103 -154 -185 0
-103 -154 -186 0
-103 -154 -187 0
-103 -154 -188 0
-103 -185 -186 0
-103 -185 -187 0
-103 -185 -188 0
-103 -186 -187 0
-103 -186 -188 0
-103 -187 -188 0
-112 -137 -154 0
-112 -137 -185 0
-112 -137 -186 0
-112 -137 -187 0
-112 -137 -188 0
-112 -154 -185 0
-112 -154 -186 0
-112 -154 -187 0
-112 -154 -188 0
-112 -185 -186 0
-112 -185 -187 0
-112 -185 -188 0
-112 -186 -187 0
-112 -186 -188 0
-112 -187 -188 0
-137 -154 -185 0
-137 -154 -186 0
-137 -154 -187 0
-137 -154 -188 0
-137 -185 -186 0
-137 -185 -187 0
-137 -185 -188 0
-137 -186 -187 0
-137 -186 -188 0
-137 -187 -188 0
-154 -185 -186 0
-154 -185 -187 0
-154 -185 -188 0
-154 -186 -187 0
-154 -186 -188 0
-154 -187 -188 0
-185 -186 -187 0
-185 -186 -188 0
-185 -187 -188 0
-186 -187 -188 0
112 137 154 185 186 187 188 0
103 137 154 185 186 187 188 0
103 112 154 185 186 187 188 0
103 112 137 185 186 187 188 0
103 112 137 154 186 187 188 0
103 112 137 154 185 187 188 0
103 112 137 154 185 186 188 0
103 112 137 154 185 186 187 0
-107 -116 -141 0
-107 -116 -158 0
-107 -116 -189 0
-107 -116 -190 0
-107 -116 -191 0
-107 -116 -192 0
-107 -141 -158 0
-107 -141 -189 0
-107 -141 -190 0
-107 -141 -191 0
-107 -141 -192 0
-107 -158 -189 0
-107 -158 -190 0
-107 -158 -191 0
-107 -158 -192 0
-107 -189 -190 0
-107 -189 -191 0
-107 -189 -192 0
-107 -190 -191 0
-107 -190 -192 0
-107 -191 -192 0
-116 -141 -158 0
-116 -141 -189 0
-116 -141 -190 0
-116 -141 -191 0
-116 -141 -192 0
-116 -158 -189 0
-116 -158 -190 0
-116 -158 -191 0
-116 -158 -192 0
-116 -189 -190 0
-116 -189 -191 0
-116 -189 -192 0
-116 -190 -191 0
-116 -190 -192 0
-116 -191 -192 0
-141 -158 -189 0
-141 -158 -190 0
-141 -158 -191 0
-141 -158 -192 0
-141 -189 -190 0
-141 -189 -191 0
-141 -189 -192 0
-141 -190 -191 0
-141 -190 -192 0
-141 -191 -192 0
-158 -189 -190 0
-158 -189 -191 0
-158 -189 -192 0
-158 -190 -191 0
-158 -190 -192 0
-158 -191 -192 0
-189 -190 -191 0
-189 -190 -192 0
-189 -191 -192 0
-190 -191 -192 0
116 141 158 189 190 191 192 0
107 141 158 189 190 191 192 0
107 116 158 189 190 191 192 0
107 116 141 189 190 191 192 0
107 116 141 158 190 191 192 0
107 116 141 158 189 191 192 0
107 116 141 158 189 190 192 0
107 116 141 158 189 190 191 0
-111 -120 -122 0
-111 -120 -145 0
-111 -120 -193 0
-111 -120 -194 0
-111 -120 -195 0
-111 -120 -196 0
-111 -122 -145 0
-111 -122 -193 0
-111 -122 -194 0
-111 -122 -195 0
-111 -122 -196 0
-111 -145 -193 0
-111 -145 -194 0
-111 -145 -195 0
-111 -145 -196 0
-111 -193 -194 0
-111 -193 -195 0
-111 -193 -196 0
-111 -194 -195 0
-111 -194 -196 0
-111 -195 -196 0
-120 -122 -145 0
-120 -122 -193 0
-120 -122 -194 0
-120 -122 -195 0
-120 -122 -196 0
-120 -145 -193 0
-120 -145 -194 0
-120 -145 -195 0
-120 -145 -196 0
-120 -193 -194 0
-120 -193 -195 0
-120 -193 -196 0
-120 -194 -195 0
-120 -194 -196 0
-120 -195 -196 0
-122 -145 -193 0
-122 -145 -194 0
-122 -145 -195 0
-122 -145 -196 0
-122 -193 -194 0
-122 -193 -195 0
-122 -193 -196 0
-122 -194 -195 0
-122 -194 -196 0
-122 -195 -196 0
-145 -193 -194 0
-145 -193 -195 0
-145 -193 -196 0
-145 -194 -195 0
-145 -194 -196 0
-145 -195 -196 0
-193 -194 -195 0
-193 -194 -196 0
-193 -195 -196 0
-194 -195 -196 0
120 122 145 193 194 195 196 0
111 122 145 193 194 195 196 0
111 120 145 193 194 195 196 0
111 120 122 193 194 195 196 0
111 120 122 145 194 195 196 0
111 120 122 145 193 195 196 0
111 120 122 145 193 194 196 0
111 120 122 145 193 194 195 0
-84 -115 -126 0
-84 -115 -149 0
-84 -115 -197 0
-84 -115 -198 0
-84 -115 -199 0
-84 -115 -200 0
-84 -126 -149 0
-84 -126 -197 0
-84 -126 -198 0
-84 -126 -199 0
-84 -126 -200 0
-84 -149 -197 0
-84 -149 -198 0
-84 -149 -199 0
-84 -149 -200 0
-84 -197 -198 0
-84 -197 -199 0
-84 -197 -200 0
-84 -198 -199 0
-84 -198 -200 0
-84 -199 -200 0
-115 -126 -149 0
-115 -126 -197 0
-115 -126 -198 0
-115 -126 -199 0
-115 -126 -200 0
-115 -149 -197 0
-115 -149 -198 0
-115 -149 -199 0
-115 -149 -200 0
-115 -197 -198 0
-115 -197 -199 0
-115 -197 -200 0
-115 -198 -199 0
-115 -198 -200 0
-115 -199 -200 0
-126 -149 -197 0
-126 -149 -198 0
-126 -149 -199 0
-126 -149 -200 0
-126 -197 -198 0
-126 -197 -199 0
-126 -197 -200 0
-126 -198 -199 0
-126 -198 -200 0
-126 -199 -200 0
-149 -197 -198 0
-149 -197 -199 0
-149 -197 -200 0
-149 -198 -199 0
-149 -198 -200 0
-149 -199 -200 0
-197 -198 -199 0
-197 -198 -200 0
-197 -199 -200 0
-198 -199 -200 0
115 126 149 197 198 199 200 0
84 126 149 197 198 199 200 0
84 115 149 197 198 199 200 0
84 115 126 197 198 199 200 0
84 115 126 149 198 199 200 0
84 115 126 149 197 199 200 0
84 115 126 149 197 198 200 0
84 115 126 149 197 198 199 0
-128 -159 -170 0
-128 -159 -193 0
-128 -159 -201 0
-128 -159 -202 0
-128 -159 -203 0
-128 -159 -204 0
-128 -170 -193 0
-128 -170 -201 0
-128 -170 -202 0
-128 -170 -203 0
-128 -170 -204 0
-128 -193 -201 0
-128 -193 -202 0
-128 -193 -203 0
-128 -193 -204 0
-128 -201 -202 0
-128 -201 -203 0
-128 -201 -204 0
-128 -202 -203 0
-128 -202 -204 0
-128 -203 -204 0
-159 -170 -193 0
-159 -170 -201 0
-159 -170 -202 0
-159 -170 -203 0
-159 -170 -204 0
-159 -193 -201 0
-159 -193 -202 0
-159 -193 -203 0
-159 -193 -204 0
-159 -201 -202 0
-159 -201 -203 0
-159 -201 -204 0
-159 -202 -203 0
-159 -202 -204 0
-159 -203 -204 0
-170 -193 -201 0
-170 -193 -202 0
-170 -193 -203 0
-170 -193 -204 0
-170 -201 -202 0
-170 -201 -203 0
-170 -201 -204 0
-170 -202 -203 0
-170 -202 -204 0
-170 -203 -204 0
-193 -201 -202 0
-193 -201 -203 0
-193 -201 -204 0
-193 -202 -203 0
-193 -202 -204 0
-193 -203 -204 0
-201 -202 -203 0
-201 -202 -204 0
-201 -203 -204 0
-202 -203 -204 0
159 170 193 201 202 203 204 0
128 170 193 201 202 203 204 0
128 159 193 201 202 203 204 0
128 159 170 201 202 203 204 0
128 159 170 193 202 203 204 0
128 159 170 193 201 203 204 0
128 159 170 193 201 202 204 0
128 159 170 193 201 202 203 0
-123 -132 -174 0
-123 -132 -197 0
-123 -132 -205 0
-123 -132 -206 0
-123 -132 -207 0
-123 -132 -208 0
-123 -174 -197 0
-123 -174 -205 0
-123 -174 -206 0
-123 -174 -207 0
-123 -174 -208 0
-123 -197 -205 0
-123 -197 -206 0
-123 -197 -207 0
-123 -197 -208 0
-123 -205 -206 0
-123 -205 -207 0
-123 -205 -208 0
-123 -206 -207 0
-123 -206 -208 0
-123 -207 -208 0
-132 -174 -197 0
-132 -174 -205 0
-132 -174 -206 0
-132 -174 -207 0
-132 -174 -208 0
-132 -197 -205 0
-132 -197 -206 0
-132 -197 -207 0
-132 -197 -208 0
-132 -205 -206 0
-132 -205 -207 0
-132 -205 -208 0
-132 -206 -207 0
-132 -206 -208 0
-132 -207 -208 0
-174 -197 -205 0
-174 -197 -206 0
-174 -197 -207 0
-174 -197 -208 0
-174 -205 -206 0
-174 -205 -207 0
-174 -205 -208 0
-174 -206 -207 0
-174 -206 -208 0
-174 -207 -208 0
-197 -205 -206 0
-197 -205 -207 0
-197 -205 -208 0
-197 -206 -207 0
-197 -206 -208 0
-197 -207 -208 0
-205 -206 -207 0
-205 -206 -208 0
-205 -207 -208 0
-206 -207 -208 0
132 174 197 205 206 207 208 0
123 174 197 205 206 207 208 0
123 132 197 205 206 207 208 0
123 132 174 205 206 207 208 0
123 132 174 197 206 207 208 0
123 132 174 197 205 207 208 0
123 132 174 197 205 206 208 0
123 132 174 197 205 206 207 0
-127 -136 -161 0
-127 -136 -178 0
-127 -136 -209 0
-127 -136 -210 0
-127 -136 -211 0
-127 -136 -212 0
-127 -161 -178 0
-127 -161 -209 0
-127 -161 -210 0
-127 -161 -211 0
-127 -161 -212 0
-127 -178 -209 0
-127 -178 -210 0
-127 -178 -211 0
-127 -178 -212 0
-127 -209 -210 0
-127 -209 -211 0
-127 -209 -212 0
-127 -210 -211 0
-127 -210 -212 0
-127 -211 -212 0
-136 -161 -178 0
-136 -161 -209 0
-136 -161 -210 0
-136 -161 -211 0
-136 -161 -212 0
-136 -178 -209 0
-136 -178 -210 0
-136 -178 -211 0
-136 -178 -212 0
-136 -209 -210 0
-136 -209 -211 0
-136 -209 -212 0
-136 -210 -211 0
-136 -210 -212 0
-136 -211 -212 0
-161 -178 -209 0
-161 -178 -210 0
-161 -178 -211 0
-161 -178 -212 0
-161 -209 -210 0
-161 -209 -211 0
-161 -209 -212 0
-161 -210 -211 0
-161 -210 -212 0
-161 -211 -212 0
-178 -209 -210 0
-178 -209 -211 0
-178 -209 -212 0
-178 -210 -211 0
-178 -210 -212 0
-178 -211 -212 0
-209 -210 -211 0
-209 -210 -212 0
-209 -211 -212 0
-210 -211 -212 0
136 161 178 209 210 211 212 0
127 161 178 209 210 211 212 0
127 136 178 209 210 211 212 0
127 136 161 209 210 211 212 0
127 136 161 178 210 211 212 0
127 136 161 178 209 211 212 0
127 136 161 178 209 210 212 0
127 136 161 178 209 210 211 0
-131 -140 -165 0
-131 -140 -182 0
-131 -140 -213 0
-131 -140 -214 0
-131 -140 -215 0
-131 -140 -216 0
-131 -165 -182 0
-131 -165 -213 0
-131 -165 -214 0
-131 -165 -215 0
-131 -165 -216 0
-131 -182 -213 0
-131 -182 -214 0
-131 -182 -215 0
-131 -182 -216 0
-131 -213 -214 0
-131 -213 -215 0
-131 -213 -216 0
-131 -214 -215 0
-131 -214 -216 0
-131 -215 -216 0
-140 -165 -182 0
-140 -165 -213 0
-140 -165 -214 0
-140 -165 -215 0
-140 -165 -216 0
-140 -182 -213 0
-140 -182 -214 0
-140 -182 -215 0
-140 -182 -216 0
-140 -213 -214 0
-140 -213 -215 0
-140 -213 -216 0
-140 -214 -215 0
-140 -214 -216 0
-140 -215 -216 0
-165 -182 -213 0
-165 -182 -214 0
-165 -182 -215 0
-165 -182 -216 0
-165 -213 -214 0
-165 -213 -215 0
-165 -213 -216 0
-165 -214 -215 0
-165 -214 -216 0
-165 -215 -216 0
-182 -213 -214 0
-182 -213 -215 0
-182 -213 -216 0
-182 -214 -215 0
-182 -214 -216 0
-182 -215 -216 0
-213 -214 -215 0
-213 -214 -216 0
-213 -215 -216 0
-214 -215 -216 0
140 165 182 213 214 215 216 0
131 165 182 213 214 215 216 0
131 140 182 213 214 215 216 0
131 140 165 213 214 215 216 0
131 140 165 182 214 215 216 0
131 140 165 182 213 215 216 0
131 140 165 182 213 214 216 0
131 140 165 182 213 214 215 0
-135 -144 -169 0
-135 -144 -186 0
-135 -144 -217 0
-135 -144 -218 0
-135 -144 -219 0
-135 -144 -220 0
-135 -169 -186 0
-135 -169 -217 0
-135 -169 -218 0
-135 -169 -219 0
-135 -169 -220 0
-135 -186 -217 0
-135 -186 -218 0
-135 -186 -219 0
-135 -186 -220 0
-135 -217 -218 0
-135 -217 -219 0
-135 -217 -220 0
-135 -218 -219 0
-135 -218 -220 0
-135 -219 -220 0
-144 -169 -186 0
-144 -169 -217 0
-144 -169 -218 0
-144 -169 -219 0
-144 -169 -220 0
-144 -186 -217 0
-144 -186 -218 0
-144 -186 -219 0
-144 -186 -220 0
-144 -217 -218 0
-144 -217 -219 0
-144 -217 -220 0
-144 -218 -219 0
-144 -218 -220 0
-144 -219 -220 0
-169 -186 -217 0
-169 -186 -218 0
-169 -186 -219 0
-169 -186 -220 0
-169 -217 -218 0
-169 -217 -219 0
-169 -217 -220 0
-169 -218 -219 0
-169 -218 -220 0
-169 -219 -220 0
-186 -217 -218 0
-186 -217 -219 0
-186 -217 -220 0
-186 -218 -219 0
-186 -218 -220 0
-186 -219 -220 0
-217 -218 -219 0
-217 -218 -220 0
-217 -219 -220 0
-218 -219 -220 0
144 169 186 217 218 219 220 0
135 169 186 217 218 219 220 0
135 144 186 217 218 219 220 0
135 144 169 217 218 219 220 0
135 144 169 186 218 219 220 0
135 144 169 186 217 219 220 0
135 144 169 186 217 218 220 0
135 144 169 186 217 218 219 0
-139 -148 -173 0
-139 -148 -190 0
-139 -148 -221 0
-139 -148 -222 0
-139 -148 -223 0
-139 -148 -224 0
-139 -173 -190 0
-139 -173 -221 0
-139 -173 -222 0
-139 -173 -223 0
-139 -173 -224 0
-139 -190 -221 0
-139 -190 -222 0
-139 -190 -223 0
-139 -190 -224 0
-139 -221 -222 0
-139 -221 -223 0
-139 -221 -224 0
-139 -222 -223 0
-139 -222 -224 0
-139 -223 -224 0
-148 -173 -190 0
-148 -173 -221 0
-148 -173 -222 0
-148 -173 -223 0
-148 -173 -224 0
-148 -190 -221 0
-148 -190 -222 0
-148 -190 -223 0
-148 -190 -224 0
-148 -221 -222 0
-148 -221 -223 0
-148 -221 -224 0
-148 -222 -223 0
-148 -222 -224 0
-148 -223 -224 0
-173 -190 -221 0
-173 -190 -222 0
-173 -190 -223 0
-173 -190 -224 0
-173 -221 -222 0
-173 -221 -223 0
-173 -221 -224 0
-173 -222 -223 0
-173 -222 -224 0
-173 -223 -224 0
-190 -221 -222 0
-190 -221 -223 0
-190 -221 -224 0
-190 -222 -223 0
-190 -222 -224 0
-190 -223 -224 0
-221 -222 -223 0
-221 -222 -224 0
-221 -223 -224 0
-222 -223 -224 0
148 173 190 221 222 223 224 0
139 173 190 221 222 223 224 0
139 148 190 221 222 223 224 0
139 148 173 221 222 223 224 0
139 148 173 190 222 223 224 0
139 148 173 190 221 223 224 0
139 148 173 190 221 222 224 0
139 148 173 190 221 222 223 0
-143 -152 -177 0
-143 -152 -194 0
-143 -152 -225 0
-143 -152 -226 0
-143 -152 -227 0
-143 -152 -228 0
-143 -177 -194 0
-143 -177 -225 0
-143 -177 -226 0
-143 -177 -227 0
-143 -177 -228 0
-143 -194 -225 0
-143 -194 -226 0
-143 -194 -227 0
-143 -194 -228 0
-143 -225 -226 0
-143 -225 -227 0
-143 -225 -228 0
-143 -226 -227 0
-143 -226 -228 0
-143 -227 -228 0
-152 -177 -194 0
-152 -177 -225 0
-152 -177 -226 0
-152 -177 -227 0
-152 -177 -228 0
-152 -194 -225 0
-152 -194 -226 0
-152 -194 -227 0
-152 -194 -228 0
-152 -225 -226 0
-152 -225 -227 0
-152 -225 -228 0
-152 -226 -227 0
-152 -226 -228 0
-152 -227 -228 0
-177 -194 -225 0
-177 -194 -226 0
-177 -194 -227 0
-177 -194 -228 0
-177 -225 -226 0
-177 -225 -227 0
-177 -225 -228 0
-177 -226 -227 0
-177 -226 -228 0
-177 -227 -228 0
-194 -225 -226 0
-194 -225 -227 0
-194 -225 -228 0
-194 -226 -227 0
-194 -226 -228 0
-194 -227 -228 0
-225 -226 -227 0
-225 -226 -228 0
-225 -227 -228 0
-226 -227 -228 0
152 177 194 225 226 227 228 0
143 177 194 225 226 227 228 0
143 152 194 225 226 227 228 0
143 152 177 225 226 227 228 0
143 152 177 194 226 227 228 0
143 152 177 194 225 227 228 0
143 152 177 194 225 226 228 0
143 152 177 194 225 226 227 0
-147 -156 -181 0
-147 -156 -198 0
-147 -156 -229 0
-147 -156 -230 0
-147 -156 -231 0
-147 -156 -232 0
-147 -181 -198 0
-147 -181 -229 0
-147 -181 -230 0
-147 -181 -231 0
-147 -181 -232 0
-147 -198 -229 0
-147 -198 -230 0
-147 -198 -231 0
-147 -198 -232 0
-147 -229 -230 0
-147 -229 -231 0
-147 -229 -232 0
-147 -230 -231 0
-147 -230 -232 0
-147 -231 -232 0
-156 -181 -198 0
-156 -181 -229 0
-156 -181 -230 0
-156 -181 -231 0
-156 -181 -232 0
-156 -198 -229 0
-156 -198 -230 0
-156 -198 -231 0
-156 -198 -232 0
-156 -229 -230 0
-156 -229 -231 0
-156 -229 -232 0
-156 -230 -231 0
-156 -230 -232 0
-156 -231 -232 0
-181 -198 -229 0
-181 -198 -230 0
-181 -198 -231 0
-181 -198 -232 0
-181 -229 -230 0
-181 -229 -231 0
-181 -229 -232 0
-181 -230 -231 0
-181 -230 -232 0
-181 -231 -232 0
-198 -229 -230 0
-198 -229 -231 0
-198 -229 -232 0
-198 -230 -231 0
-198 -230 -232 0
-198 -231 -232 0
-229 -230 -231 0
-229 -230 -232 0
-229 -231 -232 0
-230 -231 -232 0
156 181 198 229 230 231 232 0
147 181 198 229 230 231 232 0
147 156 198 229 230 231 232 0
147 156 181 229 230 231 232 0
147 156 181 198 230 231 232 0
147 156 181 198 229 231 232 0
147 156 181 198 229 230 232 0
147 156 181 198 229 230 231 0
-151 -160 -162 0
-151 -160 -185 0
-151 -160 -233 0
-151 -160 -234 0
-151 -160 -235 0
-151 -160 -236 0
-151 -162 -185 0
-151 -162 -233 0
-151 -162 -234 0
-151 -162 -235 0
-151 -162 -236 0
-151 -185 -233 0
-151 -185 -234 0
-151 -185 -235 0
-151 -185 -236 0
-151 -233 -234 0
-151 -233 -235 0
-151 -233 -236 0
-151 -234 -235 0
-151 -234 -236 0
-151 -235 -236 0
-160 -162 -185 0
-160 -162 -233 0
-160 -162 -234 0
-160 -162 -235 0
-160 -162 -236 0
-160 -185 -233 0
-160 -185 -234 0
-160 -185 -235 0
-160 -185 -236 0
-160 -233 -234 0
-160 -233 -235 0
-160 -233 -236 0
-160 -234 -235 0
-160 -234 -236 0
-160 -235 -236 0
-162 -185 -233 0
-162 -185 -234 0
-162 -185 -235 0
-162 -185 -236 0
-162 -233 -234 0
-162 -233 -235 0
-162 -233 -236 0
-162 -234 -235 0
-162 -234 -236 0
-162 -235 -236 0
-185 -233 -234 0
-185 -233 -235 0
-185 -233 -236 0
-185 -234 -235 0
-185 -234 -236 0
-185 -235 -236 0
-233 -234 -235 0
-233 -234 -236 0
-233 -235 -236 0
-234 -235 -236 0
160 162 185 233 234 235 236 0
151 162 185 233 234 235 236 0
151 160 185 233 234 235 236 0
151 160 162 233 234 235 236 0
151 160 162 185 234 235 236 0
151 160 162 185 233 235 236 0
151 160 162 185 233 234 236 0
151 160 162 185 233 234 235 0
-124 -155 -166 0
-124 -155 -189 0
-124 -155 -237 0
-124 -155 -238 0
-124 -155 -239 0
-124 -155 -240 0
-124 -166 -189 0
-124 -166 -237 0
-124 -166 -238 0
-124 -166 -239 0
-124 -166 -240 0
-124 -189 -237 0
-124 -189 -238 0
-124 -189 -239 0
-124 -189 -240 0
-124 -237 -238 0
-124 -237 -239 0
-124 -237 -240 0
-124 -238 -239 0
-124 -238 -240 0
-124 -239 -240 0
-155 -166 -189 0
-155 -166 -237 0
-155 -166 -238 0
-155 -166 -239 0
-155 -166 -240 0
-155 -189 -237 0
-155 -189 -238 0
-155 -189 -239 0
-155 -189 -240 0
-155 -237 -238 0
-155 -237 -239 0
-155 -237 -240 0
-155 -238 -239 0
-155 -238 -240 0
-155 -239 -240 0
-166 -189 -237 0
-166 -189 -238 0
-166 -189 -239 0
-166 -189 -240 0
-166 -237 -238 0
-166 -237 -239 0
-166 -237 -240 0
-166 -238 -239 0
-166 -238 -240 0
-166 -239 -240 0
-189 -237 -238 0
-189 -237 -239 0
-189 -237 -240 0
-189 -238 -239 0
-189 -238 -240 0
-189 -239 -240 0
-237 -238 -239 0
-237 -238 -240 0
-237 -239 -240 0
-238 -239 -240 0
155 166 189 237 238 239 240 0
124 166 189 237 238 239 240 0
124 155 189 237 238 239 240 0
124 155 166 237 238 239 240 0
124 155 166 189 238 239 240 0
124 155 166 189 237 239 240 0
124 155 166 189 237 238 240 0
124 155 166 189 237 238 239 0
-168 -199 -210 0
-168 -199 -233 0
-168 -199 -241 0
-168 -199 -242 0
-168 -199 -243 0
-168 -199 -244 0
-168 -210 -233 0
-168 -210 -241 0
-168 -210 -242 0
-168 -210 -243 0
-168 -210 -244 0
-168 -233 -241 0
-168 -233 -242 0
-168 -233 -243 0
-168 -233 -244 0
-168 -241 -242 0
-168 -241 -243 0
-168 -241 -244 0
-168 -242 -243 0
-168 -242 -244 0
-168 -243 -244 0
-199 -210 -233 0
-199 -210 -241 0
-199 -210 -242 0
-199 -210 -243 0
-199 -210 -244 0
-199 -233 -241 0
-199 -233 -242 0
-199 -233 -243 0
-199 -233 -244 0
-199 -241 -242 0
-199 -241 -243 0
-199 -241 -244 0
-199 -242 -243 0
-199 -242 -244 0
-199 -243 -244 0
-210 -233 -241 0
-210 -233 -242 0
-210 -233 -243 0
-210 -233 -244 0
-210 -241 -242 0
-210 -241 -243 0
-210 -241 -244 0
-210 -242 -243 0
-210 -242 -244 0
-210 -243 -244 0
-233 -241 -242 0
-233 -241 -243 0
-233 -241 -244 0
-233 -242 -243 0
-233 -242 -244 0
-233 -243 -244 0
-241 -242 -243 0
-241 -242 -244 0
-241 -243 -244 0
-242 -243 -244 0
199 210 233 241 242 243 244 0
168 210 233 241 242 243 244 0
168 199 233 241 242 243 244 0
168 199 210 241 242 243 244 0
168 199 210 233 242 243 244 0
168 199 210 233 241 243 244 0
168 199 210 233 241 242 244 0
168 199 210 233 241 242 243 0
-163 -172 -214 0
-163 -172 -237 0
-163 -172 -245 0
-163 -172 -246 0
-163 -172 -247 0
-163 -172 -248 0
-163 -214 -237 0
-163 -214 -245 0
-163 -214 -246 0
-163 -214 -247 0
-163 -214 -248 0
-163 -237 -245 0
-163 -237 -246 0
-163 -237 -247 0
-163 -237 -248 0
-163 -245 -246 0
-163 -245 -247 0
-163 -245 -248 0
-163 -246 -247 0
-163 -246 -248 0
-163 -247 -248 0
-172 -214 -237 0
-172 -214 -245 0
-172 -214 -246 0
-172 -214 -247 0
-172 -214 -248 0
-172 -237 -245 0
-172 -237 -246 0
-172 -237 -247 0
-172 -237 -248 0
-172 -245 -246 0
-172 -245 -247 0
-172 -245 -248 0
-172 -246 -247 0
-172 -246 -248 0
-172 -247 -248 0
-214 -237 -245 0
-214 -237 -246 0
-214 -237 -247 0
-214 -237 -248 0
-214 -245 -246 0
-214 -245 -247 0
-214 -245 -248 0
-214 -246 -247 0
-214 -246 -248 0
-214 -247 -248 0
-237 -245 -246 0
-237 -245 -247 0
-237 -245 -248 0
-237 -246 -247 0
-237 -246 -248 0
-237 -247 -248 0
-245 -246 -247 0
-245 -246 -248 0
-245 -247 -248 0
-246 -247 -248 0
172 214 237 245 246 247 248 0
163 214 237 245 246 247 248 0
163 172 237 245 246 247 248 0
163 172 214 245 246 247 248 0
163 172 214 237 246 247 248 0
163 172 214 237 245 247 248 0
163 172 214 237 245 246 248 0
163 172 214 237 245 246 247 0
-167 -176 -201 0
-167 -176 -218 0
-167 -176 -249 0
-167 -176 -250 0
-167 -176 -251 0
-167 -176 -252 0
-167 -201 -218 0
-167 -201 -249 0
-167 -201 -250 0
-167 -201 -251 0
-167 -201 -252 0
-167 -218 -249 0
-167 -218 -250 0
-167 -218 -251 0
-167 -218 -252 0
-167 -249 -250 0
-167 -249 -251 0
-167 -249 -252 0
-167 -250 -251 0
-167 -250 -252 0
-167 -251 -252 0
-176 -201 -218 0
-176 -201 -249 0
-176 -201 -250 0
-176 -201 -251 0
-176 -201 -252 0
-176 -218 -249 0
-176 -218 -250 0
-176 -218 -251 0
-176 -218 -252 0
-176 -249 -250 0
-176 -249 -251 0
-176 -249 -252 0
-176 -250 -251 0
-176 -250 -252 0
-176 -251 -252 0
-201 -218 -249 0
-201 -218 -250 0
-201 -218 -251 0
-201 -218 -252 0
-201 -249 -250 0
-201 -249 -251 0
-201 -249 -252 0
-201 -250 -251 0
-201 -250 -252 0
-201 -251 -252 0
-218 -249 -250 0
-218 -249 -251 0
-218 -249 -252 0
-218 -250 -251 0
-218 -250 -252 0
-218 -251 -252 0
-249 -250 -251 0
-249 -250 -252 0
-249 -251 -252 0
-250 -251 -252 0
176 201 218 249 250 251 252 0
167 201 218 249 250 251 252 0
167 176 218 249 250 251 252 0
167 176 201 249 250 251 252 0
167 176 201 218 250 251 252 0
167 176 201 218 249 251 252 0
167 176 201 218 249 250 252 0
167 176 201 218 249 250 251 0
-171 -180 -205 0
-171 -180 -222 0
-171 -180 -253 0
-171 -180 -254 0
-171 -180 -255 0
-171 -180 -256 0
-171 -205 -222 0
-171 -205 -253 0
-171 -205 -254 0
-171 -205 -255 0
-171 -205 -256 0
-171 -222 -253 0
-171 -222 -254 0
-171 -222 -255 0
-171 -222 -256 0
-171 -253 -254 0
-171 -253 -255 0
-171 -253 -256 0
-171 -254 -255 0
-171 -254 -256 0
-171 -255 -256 0
-180 -205 -222 0
-180 -205 -253 0
-180 -205 -254 0
-180 -205 -255 0
-180 -205 -256 0
-180 -222 -253 0
-180 -222 -254 0
-180 -222 -255 0
-180 -222 -256 0
-180 -253 -254 0
-180 -253 -255 0
-180 -253 -256 0
-180 -254 -255 0
-180 -254 -256 0
-180 -255 -256 0
-205 -222 -253 0
-205 -222 -254 0
-205 -222 -255 0
-205 -222 -256 0
-205 -253 -254 0
-205 -253 -255 0
-205 -253 -256 0
-205 -254 -255 0
-205 -254 -256 0
-205 -255 -256 0
-222 -253 -254 0
-222 -253 -255 0
-222 -253 -256 0
-222 -254 -255 0
-222 -254 -256 0
-222 -255 -256 0
-253 -254 -255 0
-253 -254 -256 0
-253 -255 -256 0
-254 -255 -256 0
180 205 222 253 254 255 256 0
171 205 222 253 254 255 256 0
171 180 222 253 254 255 256 0
171 180 205 253 254 255 256 0
171 180 205 222 254 255 256 0
171 180 205 222 253 255 256 0
171 180 205 222 253 254 256 0
171 180 205 222 253 254 255 0
-175 -184 -209 0
-175 -184 -226 0
-175 -184 -257 0
-175 -184 -258 0
-175 -184 -259 0
-175 -184 -260 0
-175 -209 -226 0
-175 -209 -257 0
-175 -209 -258 0
-175 -209 -259 0
-175 -209 -260 0
-175 -226 -257 0
-175 -226 -258 0
-175 -226 -259 0
-175 -226 -260 0
-175 -257 -258 0
-175 -257 -259 0
-175 -257 -260 0
-175 -258 -259 0
-175 -258 -260 0
-175 -259 -260 0
-184 -209 -226 0
-184 -209 -257 0
-184 -209 -258 0
-184 -209 -259 0
-184 -209 -260 0
-184 -226 -257 0
-184 -226 -258 0
-184 -226 -259 0
-184 -226 -260 0
-184 -257 -258 0
-184 -257 -259 0
-184 -257 -260 0
-184 -258 -259 0
-184 -258 -260 0
-184 -259 -260 0
-209 -226 -257 0
-209 -226 -258 0
-209 -226 -259 0
-209 -226 -260 0
-209 -257 -258 0
-209 -257 -259 0
-209 -257 -260 0
-209 -258 -259 0
-209 -258 -260 0
-209 -259 -260 0
-226 -257 -258 0
-226 -257 -259 0
-226 -257 -260 0
-226 -258 -259 0
-226 -258 -260 0
-226 -259 -260 0
-257 -258 -259 0
-257 -258 -260 0
-257 -259 -260 0
-258 -259 -260 0
184 209 226 257 258 259 260 0
175 209 226 257 258 259 260 0
175 184 226 257 258 259 260 0
175 184 209 257 258 259 260 0
175 184 209 226 258 259 260 0
175 184 209 226 257 259 260 0
175 184 209 226 257 258 260 0
175 184 209 226 257 258 259 0
-179 -188 -213 0
-179 -188 -230 0
-179 -188 -261 0
-179 -188 -262 0
-179 -188 -263 0
-179 -188 -264 0
-179 -213 -230 0
-179 -213 -261 0
-179 -213 -262 0
-179 -213 -263 0
-179 -213 -264 0
-179 -230 -261 0
-179 -230 -262 0
-179 -230 -263 0
-179 -230 -264 0
-179 -261 -262 0
-179 -261 -263 0
-179 -261 -264 0
-179 -262 -263 0
-179 -262 -264 0
-179 -263 -264 0
-188 -213 -230 0
-188 -213 -261 0
-188 -213 -262 0
-188 -213 -263 0
-188 -213 -264 0
-188 -230 -261 0
-188 -230 -262 0
-188 -230 -263 0
-188 -230 -264 0
-188 -261 -262 0
-188 -261 -263 0
-188 -261 -264 0
-188 -262 -263 0
-188 -262 -264 0
-188 -263 -264 0
-213 -230 -261 0
-213 -230 -262 0
-213 -230 -263 0
-213 -230 -264 0
-213 -261 -262 0
-213 -261 -263 0
-213 -261 -264 0
-213 -262 -263 0
-213 -262 -264 0
-213 -263 -264 0
-230 -261 -262 0
-230 -261 -263 0
-230 -261 -264 0
-230 -262 -263 0
-230 -262 -264 0
-230 -263 -264 0
-261 -262 -263 0
-261 -262 -264 0
-261 -263 -264 0
-262 -263 -264 0
188 213 230 261 262 263 264 0
179 213 230 261 262 263 264 0
179 188 230 261 262 263 264 0
179 188 213 261 262 263 264 0
179 188 213 230 262 263 264 0
179 188 213 230 261 263 264 0
179 188 213 230 261 262 264 0
179 188 213 230 261 262 263 0
-183 -192 -217 0
-183 -192 -234 0
-183 -192 -265 0
-183 -192 -266 0
-183 -192 -267 0
-183 -192 -268 0
-183 -217 -234 0
-183 -217 -265 0
-183 -217 -266 0
-183 -217 -267 0
-183 -217 -268 0
-183 -234 -265 0
-183 -234 -266 0
-183 -234 -267 0
-183 -234 -268 0
-183 -265 -266 0
-183 -265 -267 0
-183 -265 -268 0
-183 -266 -267 0
-183 -266 -268 0
-183 -267 -268 0
-192 -217 -234 0
-192 -217 -265 0
-192 -217 -266 0
-192 -217 -267 0
-192 -217 -268 0
-192 -234 -265 0
-192 -234 -266 0
-192 -234 -267 0
-192 -234 -268 0
-192 -265 -266 0
-192 -265 -267 0
-192 -265 -268 0
-192 -266 -267 0
-192 -266 -268 0
-192 -267 -268 0
-217 -234 -265 0
-217 -234 -266 0
-217 -234 -267 0
-217 -234 -268 0
-217 -265 -266 0
-217 -265 -267 0
-217 -265 -268 0
-217 -266 -267 0
-217 -266 -268 0
-217 -267 -268 0
-234 -265 -266 0
-234 -265 -267 0
-234 -265 -268 0
-234 -266 -267 0
-234 -266 -268 0
-234 -267 -268 0
-265 -266 -267 0
-265 -266 -268 0
-265 -267 -268 0
-266 -267 -268 0
192 217 234 265 266 267 268 0
183 217 234 265 266 267 268 0
183 192 234 265 266 267 268 0
183 192 217 265 266 267 268 0
183 192 217 234 266 267 268 0
183 192 217 234 265 267 268 0
183 192 217 234 265 266 268 0
183 192 217 234 265 266 267 0
-187 -196 -221 0
-187 -196 -238 0
-187 -196 -269 0
-187 -196 -270 0
-187 -196 -271 0
-187 -196 -272 0
-187 -221 -238 0
-187 -221 -269 0
-187 -221 -270 0
-187 -221 -271 0
-187 -221 -272 0
-187 -238 -269 0
-187 -238 -270 0
-187 -238 -271 0
-187 -238 -272 0
-187 -269 -270 0
-187 -269 -271 0
-187 -269 -272 0
-187 -270 -271 0
-187 -270 -272 0
-187 -271 -272 0
-196 -221 -238 0
-196 -221 -269 0
-196 -221 -270 0
-196 -221 -271 0
-196 -221 -272 0
-196 -238 -269 0
-196 -238 -270 0
-196 -238 -271 0
-196 -238 -272 0
-196 -269 -270 0
-196 -269 -271 0
-196 -269 -272 0
-196 -270 -271 0
-196 -270 -272 0
-196 -271 -272 0
-221 -238 -269 0
-221 -238 -270 0
-221 -238 -271 0
-221 -238 -272 0
-221 -269 -270 0
-221 -269 -271 0
-221 -269 -272 0
-221 -270 -271 0
-221 -270 -272 0
-221 -271 -272 0
-238 -269 -270 0
-238 -269 -271 0
-238 -269 -272 0
-238 -270 -271 0
-238 -270 -272 0
-238 -271 -272 0
-269 -270 -271 0
-269 -270 -272 0
-269 -271 -272 0
-270 -271 -272 0
196 221 238 269 270 271 272 0
187 221 238 269 270 271 272 0
187 196 238 269 270 271 272 0
187 196 221 269 270 271 272 0
187 196 221 238 270 271 272 0
187 196 221 238 269 271 272 0
187 196 221 238 269 270 272 0
187 196 221 238 269 270 271 0
-191 -200 -202 0
-191 -200 -225 0
-191 -200 -273 0
-191 -200 -274 0
-191 -200 -275 0
-191 -200 -276 0
-191 -202 -225 0
-191 -202 -273 0
-191 -202 -274 0
-191 -202 -275 0
-191 -202 -276 0
-191 -225 -273 0
-191 -225 -274 0
-191 -225 -275 0
-191 -225 -276 0
-191 -273 -274 0
-191 -273 -275 0
-191 -273 -276 0
-191 -274 -275 0
-191 -274 -276 0
-191 -275 -276 0
-200 -202 -225 0
-200 -202 -273 0
-200 -202 -274 0
-200 -202 -275 0
-200 -202 -276 0
-200 -225 -273 0
-200 -225 -274 0
-200 -225 -275 0
-200 -225 -276 0
-200 -273 -274 0
-200 -273 -275 0
-200 -273 -276 0
-200 -274 -275 0
-200 -274 -276 0
-200 -275 -276 0
-202 -225 -273 0
-202 -225 -274 0
-202 -225 -275 0
-202 -225 -276 0
-202 -273 -274 0
-202 -273 -275 0
-202 -273 -276 0
-202 -274 -275 0
-202 -274 -276 0
-202 -275 -276 0
-225 -273 -274 0
-225 -273 -275 0
-225 -273 -276 0
-225 -274 -275 0
-225 -274 -276 0
-225 -275 -276 0
-273 -274 -275 0
-273 -274 -276 0
-273 -275 -276 0
-274 -275 -276 0
200 202 225 273 274 275 276 0
191 202 225 273 274 275 276 0
191 200 225 273 274 275 276 0
191 200 202 273 274 275 276 0
191 200 202 225 274 275 276 0
191 200 202 225 273 275 276 0
191 200 202 225 273 274 276 0
191 200 202 225 273 274 275 0
-164 -195 -206 0
-164 -195 -229 0
-164 -195 -277 0
-164 -195 -278 0
-164 -195 -279 0
-164 -195 -280 0
-164 -206 -229 0
-164 -206 -277 0
-164 -206 -278 0
-164 -206 -279 0
-164 -206 -280 0
-164 -229 -277 0
-164 -229 -278 0
-164 -229 -279 0
-164 -229 -280 0
-164 -277 -278 0
-164 -277 -279 0
-164 -277 -280 0
-164 -278 -279 0
-164 -278 -280 0
-164 -279 -280 0
-195 -206 -229 0
-195 -206 -277 0
-195 -206 -278 0
-195 -206 -279 0
-195 -206 -280 0
-195 -229 -277 0
-195 -229 -278 0
-195 -229 -279 0
-195 -229 -280 0
-195 -277 -278 0
-195 -277 -279 0
-195 -277 -280 0
-195 -278 -279 0
-195 -278 -280 0
-195 -279 -280 0
-206 -229 -277 0
-206 -229 -278 0
-206 -229 -279 0
-206 -229 -280 0
-206 -277 -278 0
-206 -277 -279 0
-206 -277 -280 0
-206 -278 -279 0
-206 -278 -280 0
-206 -279 -280 0
-229 -277 -278 0
-229 -277 -279 0
-229 -277 -280 0
-229 -278 -279 0
-229 -278 -280 0
-229 -279 -280 0
-277 -278 -279 0
-277 -278 -280 0
-277 -279 -280 0
-278 -279 -280 0
195 206 229 277 278 279 280 0
164 206 229 277 278 279 280 0
164 195 229 277 278 279 280 0
164 195 206 277 278 279 280 0
164 195 206 229 278 279 280 0
164 195 206 229 277 279 280 0
164 195 206 229 277 278 280 0
164 195 206 229 277 278 279 0
-208 -239 -250 0
-208 -239 -273 0
-208 -250 -273 0
-239 -250 -273 0
-203 -212 -254 0
-203 -212 -277 0
-203 -254 -277 0
-212 -254 -277 0
-207 -216 -241 0
-207 -216 -258 0
-207 -241 -258 0
-216 -241 -258 0
-211 -220 -245 0
-211 -220 -262 0
-211 -245 -262 0
-220 -245 -262 0
-215 -224 -249 0
-215 -224 -266 0
-215 -249 -266 0
-224 -249 -266 0
-219 -228 -253 0
-219 -228 -270 0
-219 -253 -270 0
-228 -253 -270 0
-223 -232 -257 0
-223 -232 -274 0
-223 -257 -274 0
-232 -257 -274 0
-227 -236 -261 0
-227 -236 -278 0
-227 -261 -278 0
-236 -261 -278 0
-231 -240 -242 0
-231 -240 -265 0
-231 -242 -265 0
-240 -242 -265 0
-204 -235 -246 0
-204 -235 -269 0
-204 -246 -269 0
-235 -246 -269 0
-1 -6 281 0
-1 -7 282 0
-1 -8 283 0
-1 -10 284 0
-1 -12 285 0
-1 -14 286 0
-2 -29 287 0
-2 -33 288 0
-2 -35 289 0
-2 -37 290 0
-2 -39 291 0
-2 -40 292 0
-3 -6 293 0
-3 -8 294 0
-3 -10 295 0
-3 -37 296 0
-3 -41 297 0
-3 -46 298 0
-3 -48 299 0
-3 -50 300 0
-4 -6 301 0
-4 -33 302 0
-4 -37 303 0
-4 -39 304 0
-4 -42 305 0
-4 -73 306 0
-4 -77 307 0
-4 -79 308 0
-5 -10 309 0
-5 -11 310 0
-5 -12 311 0
-5 -14 312 0
-5 -16 313 0
-5 -18 314 0
-6 -33 315 0
-6 -37 316 0
-6 -39 317 0
-7 -10 318 0
-7 -12 319 0
-7 -14 320 0
-7 -45 321 0
-7 -50 322 0
-7 -52 323 0
-7 -54 324 0
-8 -10 325 0
-8 -37 326 0
-8 -41 327 0
-8 -43 328 0
-8 -46 329 0
-8 -77 330 0
-9 -14 331 0
-9 -15 332 0
-9 -16 333 0
-9 -18 334 0
-9 -20 335 0
-9 -22 336 0
-10 -37 337 0
-11 -14 338 0
-11 -16 339 0
-11 -18 340 0
-11 -49 341 0
-11 -54 342 0
-11 -56 343 0
-11 -58 344 0
-12 -14 345 0
-12 -41 346 0
-12 -45 347 0
-12 -47 348 0
-12 -50 349 0
-13 -18 350 0
-13 -19 351 0
-13 -20 352 0
-13 -22 353 0
-13 -24 354 0
-13 -26 355 0
-15 -18 356 0
-15 -20 357 0
-15 -22 358 0
-15 -53 359 0
-15 -58 360 0
-15 -60 361 0
-15 -62 362 0
-16 -18 363 0
-16 -45 364 0
-16 -49 365 0
-16 -51 366 0
-16 -54 367 0
-17 -22 368 0
-17 -23 369 0
-17 -24 370 0
-17 -26 371 0
-17 -28 372 0
-17 -30 373 0
-19 -22 374 0
-19 -24 375 0
-19 -26 376 0
-19 -57 377 0
-19 -62 378 0
-19 -64 379 0
-19 -66 380 0
-20 -22 381 0
-20 -49 382 0
-20 -53 383 0
-20 -55 384 0
-20 -58 385 0
-21 -26 386 0
-21 -27 387 0
-21 -28 388 0
-21 -30 389 0
-21 -32 390 0
-21 -34 391 0
-23 -26 392 0
-23 -28 393 0
-23 -30 394 0
-23 -61 395 0
-23 -66 396 0
-23 -68 397 0
-23 -70 398 0
-24 -26 399 0
-24 -53 400 0
-24 -57 401 0
-24 -59 402 0
-24 -62 403 0
-25 -30 404 0
-25 -31 405 0
-25 -32 406 0
-25 -34 407 0
-25 -36 408 0
-25 -38 409 0
-27 -30 410 0
-27 -32 411 0
-27 -34 412 0
-27 -65 413 0
-27 -70 414 0
-27 -72 415 0
-27 -74 416 0
-28 -30 417 0
-28 -57 418 0
-28 -61 419 0
-28 -63 420 0
-28 -66 421 0
-29 -34 422 0
-29 -35 423 0
-29 -36 424 0
-29 -38 425 0
-29 -40 426 0
-31 -34 427 0
-31 -36 428 0
-31 -38 429 0
-31 -69 430 0
-31 -74 431 0
-31 -76 432 0
-31 -78 433 0
-32 -34 434 0
-32 -61 435 0
-32 -65 436 0
-32 -67 437 0
-32 -70 438 0
-33 -38 439 0
-33 -39 440 0
-33 -40 441 0
-35 -38 442 0
-35 -40 443 0
-35 -42 444 0
-35 -73 445 0
-35 -78 446 0
-35 -80 447 0
-36 -38 448 0
-36 -65 449 0
-36 -69 450 0
-36 -71 451 0
-36 -74 452 0
-39 -42 453 0
-39 -44 454 0
-39 -46 455 0
-39 -77 456 0
-40 -69 457 0
-40 -73 458 0
-40 -75 459 0
-40 -78 460 0
-41 -46 461 0
-41 -47 462 0
-41 -48 463 0
-41 -50 464 0
-41 -52 465 0
-41 -54 466 0
-42 -69 467 0
-42 -73 468 0
-42 -75 469 0
-42 -77 470 0
-42 -79 471 0
-42 -80 472 0
-43 -46 473 0
-43 -48 474 0
-43 -50 475 0
-43 -77 476 0
-43 -81 0
-43 -86 0
-43 -88 0
-43 -90 0
-44 -46 477 0
-44 -73 478 0
-44 -77 479 0
-44 -79 480 0
-44 -82 0
-44 -113 0
-44 -117 0
-44 -119 0
-45 -50 481 0
-45 -51 482 0
-45 -52 483 0
-45 -54 484 0
-45 -56 485 0
-45 -58 486 0
-46 -73 487 0
-46 -77 488 0
-46 -79 489 0
-47 -50 490 0
-47 -52 491 0
-47 -54 492 0
-47 -85 0
-47 -90 0
-47 -92 0
-47 -94 0
-48 -50 493 0
-48 -77 494 0
-48 -81 0
-48 -83 0
-48 -86 0
-48 -117 0
-49 -54 495 0
-49 -55 496 0
-49 -56 497 0
-49 -58 498 0
-49 -60 499 0
-49 -62 500 0
-50 -77 501 0
-51 -54 502 0
-51 -56 503 0
-51 -58 504 0
-51 -89 0
-51 -94 0
-51 -96 0
-51 -98 0
-52 -54 505 0
-52 -81 0
-52 -85 0
-52 -87 0
-52 -90 0
-53 -58 506 0
-53 -59 507 0
-53 -60 508 0
-53 -62 509 0
-53 -64 510 0
-53 -66 511 0
-55 -58 512 0
-55 -60 513 0
-55 -62 514 0
-55 -93 0
-55 -98 0
-55 -100 0
-55 -102 0
-56 -58 515 0
-56 -85 0
-56 -89 0
-56 -91 0
-56 -94 0
-57 -62 516 0
-57 -63 517 0
-57 -64 518 0
-57 -66 519 0
-57 -68 520 0
-57 -70 521 0
-59 -62 522 0
-59 -64 523 0
-59 -66 524 0
-59 -97 0
-59 -102 0
-59 -104 0
-59 -106 0
-60 -62 525 0
-60 -89 0
-60 -93 0
-60 -95 0
-60 -98 0
-61 -66 526 0
-61 -67 527 0
-61 -68 528 0
-61 -70 529 0
-61 -72 530 0
-61 -74 531 0
-63 -66 532 0
-63 -68 533 0
-63 -70 534 0
-63 -101 0
-63 -106 0
-63 -108 0
-63 -110 0
-64 -66 535 0
-64 -93 0
-64 -97 0
-64 -99 0
-64 -102 0
-65 -70 536 0
-65 -71 537 0
-65 -72 538 0
-65 -74 539 0
-65 -76 540 0
-65 -78 541 0
-67 -70 542 0
-67 -72 543 0
-67 -74 544 0
-67 -105 0
-67 -110 0
-67 -112 0
-67 -114 0
-68 -70 545 0
-68 -97 0
-68 -101 0
-68 -103 0
-68 -106 0
-69 -74 546 0
-69 -75 547 0
-69 -76 548 0
-69 -78 549 0
-69 -80 550 0
-71 -74 551 0
-71 -76 552 0
-71 -78 553 0
-71 -109 0
-71 -114 0
-71 -116 0
-71 -118 0
-72 -74 554 0
-72 -101 0
-72 -105 0
-72 -107 0
-72 -110 0
-73 -78 555 0
-73 -79 556 0
-73 -80 557 0
-75 -78 558 0
-75 -80 559 0
-75 -82 0
-75 -113 0
-75 -118 0
-75 -120 0
-76 -78 560 0
-76 -105 0
-76 -109 0
-76 -111 0
-76 -114 0
-79 -82 0
-79 -84 0
-79 -86 0
-79 -117 0
-80 -109 0
-80 -113 0
-80 -115 0
-80 -118 0
-81 -86 0
-81 -87 0
-81 -88 0
-81 -90 0
-81 -92 0
-81 -94 0
-82 -109 0
-82 -113 0
-82 -115 0
-82 -117 0
-82 -119 0
-82 -120 0
-83 -86 0
-83 -88 0
-83 -90 0
-83 -117 0
-83 -121 0
-83 -126 0
-83 -128 0
-83 -130 0
-84 -86 0
-84 -113 0
-84 -117 0
-84 -119 0
-84 -122 0
-84 -153 0
-84 -157 0
-84 -159 0
-85 -90 0
-85 -91 0
-85 -92 0
-85 -94 0
-85 -96 0
-85 -98 0
-86 -113 0
-86 -117 0
-86 -119 0
-87 -90 0
-87 -92 0
-87 -94 0
-87 -125 0
-87 -130 0
-87 -132 0
-87 -134 0
-88 -90 0
-88 -117 0
-88 -121 0
-88 -123 0
-88 -126 0
-88 -157 0
-89 -94 0
-89 -95 0
-89 -96 0
-89 -98 0
-89 -100 0
-89 -102 0
-90 -117 0
-91 -94 0
-91 -96 0
-91 -98 0
-91 -129 0
-91 -134 0
-91 -136 0
-91 -138 0
-92 -94 0
-92 -121 0
-92 -125 0
-92 -127 0
-92 -130 0
-93 -98 0
-93 -99 0
-93 -100 0
-93 -102 0
-93 -104 0
-93 -106 0
-95 -98 0
-95 -100 0
-95 -102 0
-95 -133 0
-95 -138 0
-95 -140 0
-95 -142 0
-96 -98 0
-96 -125 0
-96 -129 0
-96 -131 0
-96 -134 0
-97 -102 0
-97 -103 0
-97 -104 0
-97 -106 0
-97 -108 0
-97 -110 0
-99 -102 0
-99 -104 0
-99 -106 0
-99 -137 0
-99 -142 0
-99 -144 0
-99 -146 0
-100 -102 0
-100 -129 0
-100 -133 0
-100 -135 0
-100 -138 0
-101 -106 0
-101 -107 0
-101 -108 0
-101 -110 0
-101 -112 0
-101 -114 0
-103 -106 0
-103 -108 0
-103 -110 0
-103 -141 0
-103 -146 0
-103 -148 0
-103 -150 0
-104 -106 0
-104 -133 0
-104 -137 0
-104 -139 0
-104 -142 0
-105 -110 0
-105 -111 0
-105 -112 0
-105 -114 0
-105 -116 0
-105 -118 0
-107 -110 0
-107 -112 0
-107 -114 0
-107 -145 0
-107 -150 0
-107 -152 0
-107 -154 0
-108 -110 0
-108 -137 0
-108 -141 0
-108 -143 0
-108 -146 0
-109 -114 0
-109 -115 0
-109 -116 0
-109 -118 0
-109 -120 0
-111 -114 0
-111 -116 0
-111 -118 0
-111 -149 0
-111 -154 0
-111 -156 0
-111 -158 0
-112 -114 0
-112 -141 0
-112 -145 0
-112 -147 0
-112 -150 0
-113 -118 0
-113 -119 0
-113 -120 0
-115 -118 0
-115 -120 0
-115 -122 0
-115 -153 0
-115 -158 0
-115 -160 0
-116 -118 0
-116 -145 0
-116 -149 0
-116 -151 0
-116 -154 0
-119 -122 0
-119 -124 0
-119 -126 0
-119 -157 0
-120 -149 0
-120 -153 0
-120 -155 0
-120 -158 0
-121 -126 0
-121 -127 0
-121 -128 0
-121 -130 0
-121 -132 0
-121 -134 0
-122 -149 0
-122 -153 0
-122 -155 0
-122 -157 0
-122 -159 0
-122 -160 0
-123 -126 0
-123 -128 0
-123 -130 0
-123 -157 0
-123 -161 0
-123 -166 0
-123 -168 0
-123 -170 0
-124 -126 0
-124 -153 0
-124 -157 0
-124 -159 0
-124 -162 0
-124 -193 0
-124 -197 0
-124 -199 0
-125 -130 0
-125 -131 0
-125 -132 0
-125 -134 0
-125 -136 0
-125 -138 0
-126 -153 0
-126 -157 0
-126 -159 0
-127 -130 0
-127 -132 0
-127 -134 0
-127 -165 0
-127 -170 0
-127 -172 0
-127 -174 0
-128 -130 0
-128 -157 0
-128 -161 0
-128 -163 0
-128 -166 0
-128 -197 0
-129 -134 0
-129 -135 0
-129 -136 0
-129 -138 0
-129 -140 0
-129 -142 0
-130 -157 0
-131 -134 0
-131 -136 0
-131 -138 0
-131 -169 0
-131 -174 0
-131 -176 0
-131 -178 0
-132 -134 0
-132 -161 0
-132 -165 0
-132 -167 0
-132 -170 0
-133 -138 0
-133 -139 0
-133 -140 0
-133 -142 0
-133 -144 0
-133 -146 0
-135 -138 0
-135 -140 0
-135 -142 0
-135 -173 0
-135 -178 0
-135 -180 0
-135 -182 0
-136 -138 0
-136 -165 0
-136 -169 0
-136 -171 0
-136 -174 0
-137 -142 0
-137 -143 0
-137 -144 0
-137 -146 0
-137 -148 0
-137 -150 0
-139 -142 0
-139 -144 0
-139 -146 0
-139 -177 0
-139 -182 0
-139 -184 0
-139 -186 0
-140 -142 0
-140 -169 0
-140 -173 0
-140 -175 0
-140 -178 0
-141 -146 0
-141 -147 0
-141 -148 0
-141 -150 0
-141 -152 0
-141 -154 0
-143 -146 0
-143 -148 0
-143 -150 0
-143 -181 0
-143 -186 0
-143 -188 0
-143 -190 0
-144 -146 0
-144 -173 0
-144 -177 0
-144 -179 0
-144 -182 0
-145 -150 0
-145 -151 0
-145 -152 0
-145 -154 0
-145 -156 0
-145 -158 0
-147 -150 0
-147 -152 0
-147 -154 0
-147 -185 0
-147 -190 0
-147 -192 0
-147 -194 0
-148 -150 0
-148 -177 0
-148 -181 0
-148 -183 0
-148 -186 0
-149 -154 0
-149 -155 0
-149 -156 0
-149 -158 0
-149 -160 0
-151 -154 0
-151 -156 0
-151 -158 0
-151 -189 0
-151 -194 0
-151 -196 0
-151 -198 0
-152 -154 0
-152 -181 0
-152 -185 0
-152 -187 0
-152 -190 0
-153 -158 0
-153 -159 0
-153 -160 0
-155 -158 0
-155 -160 0
-155 -162 0
-155 -193 0
-155 -198 0
-155 -200 0
-156 -158 0
-156 -185 0
-156 -189 0
-156 -191 0
-156 -194 0
-159 -162 0
-159 -164 0
-159 -166 0
-159 -197 0
-160 -189 0
-160 -193 0
-160 -195 0
-160 -198 0
-161 -166 0
-161 -167 0
-161 -168 0
-161 -170 0
-161 -172 0
-161 -174 0
-162 -189 0
-162 -193 0
-162 -195 0
-162 -197 0
-162 -199 0
-162 -200 0
-163 -166 0
-163 -168 0
-163 -170 0
-163 -197 0
-163 -201 0
-163 -206 0
-163 -208 0
-163 -210 0
-164 -166 0
-164 -193 0
-164 -197 0
-164 -199 0
-164 -202 0
-164 -233 0
-164 -237 0
-164 -239 0
-165 -170 0
-165 -171 0
-165 -172 0
-165 -174 0
-165 -176 0
-165 -178 0
-166 -193 0
-166 -197 0
-166 -199 0
-167 -170 0
-167 -172 0
-167 -174 0
-167 -205 0
-167 -210 0
-167 -212 0
-167 -214 0
-168 -170 0
-168 -197 0
-168 -201 0
-168 -203 0
-168 -206 0
-168 -237 0
-169 -174 0
-169 -175 0
-169 -176 0
-169 -178 0
-169 -180 0
-169 -182 0
-170 -197 0
-171 -174 0
-171 -176 0
-171 -178 0
-171 -209 0
-171 -214 0
-171 -216 0
-171 -218 0
-172 -174 0
-172 -201 0
-172 -205 0
-172 -207 0
-172 -210 0
-173 -178 0
-173 -179 0
-173 -180 0
-173 -182 0
-173 -184 0
-173 -186 0
-175 -178 0
-175 -180 0
-175 -182 0
-175 -213 0
-175 -218 0
-175 -220 0
-175 -222 0
-176 -178 0
-176 -205 0
-176 -209 0
-176 -211 0
-176 -214 0
-177 -182 0
-177 -183 0
-177 -184 0
-177 -186 0
-177 -188 0
-177 -190 0
-179 -182 0
-179 -184 0
-179 -186 0
-179 -217 0
-179 -222 0
-179 -224 0
-179 -226 0
-180 -182 0
-180 -209 0
-180 -213 0
-180 -215 0
-180 -218 0
-181 -186 0
-181 -187 0
-181 -188 0
-181 -190 0
-181 -192 0
-181 -194 0
-183 -186 0
-183 -188 0
-183 -190 0
-183 -221 0
-183 -226 0
-183 -228 0
-183 -230 0
-184 -186 0
-184 -213 0
-184 -217 0
-184 -219 0
-184 -222 0
-185 -190 0
-185 -191 0
-185 -192 0
-185 -194 0
-185 -196 0
-185 -198 0
-187 -190 0
-187 -192 0
-187 -194 0
-187 -225 0
-187 -230 0
-187 -232 0
-187 -234 0
-188 -190 0
-188 -217 0
-188 -221 0
-188 -223 0
-188 -226 0
-189 -194 0
-189 -195 0
-189 -196 0
-189 -198 0
-189 -200 0
-191 -194 0
-191 -196 0
-191 -198 0
-191 -229 0
-191 -234 0
-191 -236 0
-191 -238 0
-192 -194 0
-192 -221 0
-192 -225 0
-192 -227 0
-192 -230 0
-193 -198 0
-193 -199 0
-193 -200 0
-195 -198 0
-195 -200 0
-195 -202 0
-195 -233 0
-195 -238 0
-195 -240 0
-196 -198 0
-196 -225 0
-196 -229 0
-196 -231 0
-196 -234 0
-199 -202 0
-199 -204 0
-199 -206 0
-199 -237 0
-200 -229 0
-200 -233 0
-200 -235 0
-200 -238 0
-201 -206 0
-201 -207 0
-201 -208 0
-201 -210 0
-201 -212 0
-201 -214 0
-202 -229 0
-202 -233 0
-202 -235 0
-202 -237 0
-202 -239 0
-202 -240 0
-203 -206 0
-203 -208 0
-203 -210 0
-203 -237 0
-203 -241 0
-203 -246 0
-203 -248 0
-203 -250 0
-204 -206 0
-204 -233 0
-204 -237 0
-204 -239 0
-204 -242 0
-204 -273 0
-204 -277 0
-204 -279 0
-205 -210 0
-205 -211 0
-205 -212 0
-205 -214 0
-205 -216 0
-205 -218 0
-206 -233 0
-206 -237 0
-206 -239 0
-207 -210 0
-207 -212 0
-207 -214 0
-207 -245 0
-207 -250 0
-207 -252 0
-207 -254 0
-208 -210 0
-208 -237 0
-208 -241 0
-208 -243 0
-208 -246 0
-208 -277 0
-209 -214 0
-209 -215 0
-209 -216 0
-209 -218 0
-209 -220 0
-209 -222 0
-210 -237 0
-211 -214 0
-211 -216 0
-211 -218 0
-211 -249 0
-211 -254 0
-211 -256 0
-211 -258 0
-212 -214 0
-212 -241 0
-212 -245 0
-212 -247 0
-212 -250 0
-213 -218 0
-213 -219 0
-213 -220 0
-213 -222 0
-213 -224 0
-213 -226 0
-215 -218 0
-215 -220 0
-215 -222 0
-215 -253 0
-215 -258 0
-215 -260 0
-215 -262 0
-216 -218 0
-216 -245 0
-216 -249 0
-216 -251 0
-216 -254 0
-217 -222 0
-217 -223 0
-217 -224 0
-217 -226 0
-217 -228 0
-217 -230 0
-219 -222 0
-219 -224 0
-219 -226 0
-219 -257 0
-219 -262 0
-219 -264 0
-219 -266 0
-220 -222 0
-220 -249 0
-220 -253 0
-220 -255 0
-220 -258 0
-221 -226 0
-221 -227 0
-221 -228 0
-221 -230 0
-221 -232 0
-221 -234 0
-223 -226 0
-223 -228 0
-223 -230 0
-223 -261 0
-223 -266 0
-223 -268 0
-223 -270 0
-224 -226 0
-224 -253 0
-224 -257 0
-224 -259 0
-224 -262 0
-225 -230 0
-225 -231 0
-225 -232 0
-225 -234 0
-225 -236 0
-225 -238 0
-227 -230 0
-227 -232 0
-227 -234 0
-227 -265 0
-227 -270 0
-227 -272 0
-227 -274 0
-228 -230 0
-228 -257 0
-228 -261 0
-228 -263 0
-228 -266 0
-229 -234 0
-229 -235 0
-229 -236 0
-229 -238 0
-229 -240 0
-231 -234 0
-231 -236 0
-231 -238 0
-231 -269 0
-231 -274 0
-231 -276 0
-231 -278 0
-232 -234 0
-232 -261 0
-232 -265 0
-232 -267 0
-232 -270 0
-233 -238 0
-233 -239 0
-233 -240 0
-235 -238 0
-235 -240 0
-235 -242 0
-235 -273 0
-235 -278 0
-235 -280 0
-236 -238 0
-236 -265 0
-236 -269 0
-236 -271 0
-236 -274 0
-239 -242 0
-239 -244 0
-239 -246 0
-239 -277 0
-240 -269 0
-240 -273 0
-240 -275 0
-240 -278 0
-241 -246 0
-241 -247 0
-241 -248 0
-241 -250 0
-241 -252 0
-241 -254 0
-242 -269 0
-242 -273 0
-242 -275 0
-242 -277 0
-242 -279 0
-242 -280 0
-243 -246 0
-243 -248 0
-243 -250 0
-243 -277 0
-244 -246 0
-244 -273 0
-244 -277 0
-244 -279 0
-245 -250 0
-245 -251 0
-245 -252 0
-245 -254 0
-245 -256 0
-245 -258 0
-246 -273 0
-246 -277 0
-246 -279 0
-247 -250 0
-247 -252 0
-247 -254 0
-248 -250 0
-248 -277 0
-249 -254 0
-249 -255 0
-249 -256 0
-249 -258 0
-249 -260 0
-249 -262 0
-250 -277 0
-251 -254 0
-251 -256 0
-251 -258 0
-252 -254 0
-253 -258 0
-253 -259 0
-253 -260 0
-253 -262 0
-253 -264 0
-253 -266 0
-255 -258 0
-255 -260 0
-255 -262 0
-256 -258 0
-257 -262 0
-257 -263 0
-257 -264 0
-257 -266 0
-257 -268 0
-257 -270 0
-259 -262 0
-259 -264 0
-259 -266 0
-260 -262 0
-261 -266 0
-261 -267 0
-261 -268 0
-261 -270 0
-261 -272 0
-261 -274 0
-263 -266 0
-263 -268 0
-263 -270 0
-264 -266 0
-265 -270 0
-265 -271 0
-265 -272 0
-265 -274 0
-265 -276 0
-265 -278 0
-267 -270 0
-267 -272 0
-267 -274 0
-268 -270 0
-269 -274 0
-269 -275 0
-269 -276 0
-269 -278 0
-269 -280 0
-271 -274 0
-271 -276 0
-271 -278 0
-272 -274 0
-273 -278 0
-273 -279 0
-273 -280 0
-275 -278 0
-275 -280 0
-276 -278 0
128 163 166 197 0
-128 -163 0
-128 -166 0
-128 -197 0
-163 -166 0
-163 -197 0
-166 -197 0
163 168 170 197 0
-163 -168 0
-163 -170 0
-163 -197 0
-168 -170 0
-168 -197 0
-170 -197 0
123 161 168 170 0
-123 -161 0
-123 -168 0
-123 -170 0
-161 -168 0
-161 -170 0
-168 -170 0
123 128 161 166 0
-123 -128 0
-123 -161 0
-123 -166 0
-128 -161 0
-128 -166 0
-161 -166 0
132 161 167 170 0
-132 -161 0
-132 -167 0
-132 -170 0
-161 -167 0
-161 -170 0
-167 -170 0
161 167 172 174 0
-161 -167 0
-161 -172 0
-161 -174 0
-167 -172 0
-167 -174 0
-172 -174 0
127 165 172 174 0
-127 -165 0
-127 -172 0
-127 -174 0
-165 -172 0
-165 -174 0
-172 -174 0
127 132 165 170 0
-127 -132 0
-127 -165 0
-127 -170 0
-132 -165 0
-132 -170 0
-165 -170 0
136 165 171 174 0
-136 -165 0
-136 -171 0
-136 -174 0
-165 -171 0
-165 -174 0
-171 -174 0
165 171 176 178 0
-165 -171 0
-165 -176 0
-165 -178 0
-171 -176 0
-171 -178 0
-176 -178 0
131 169 176 178 0
-131 -169 0
-131 -176 0
-131 -178 0
-169 -176 0
-169 -178 0
-176 -178 0
131 136 169 174 0
-131 -136 0
-131 -169 0
-131 -174 0
-136 -169 0
-136 -174 0
-169 -174 0
140 169 175 178 0
-140 -169 0
-140 -175 0
-140 -178 0
-169 -175 0
-169 -178 0
-175 -178 0
169 175 180 182 0
-169 -175 0
-169 -180 0
-169 -182 0
-175 -180 0
-175 -182 0
-180 -182 0
135 173 180 182 0
-135 -173 0
-135 -180 0
-135 -182 0
-173 -180 0
-173 -182 0
-180 -182 0
135 140 173 178 0
-135 -140 0
-135 -173 0
-135 -178 0
-140 -173 0
-140 -178 0
-173 -178 0
144 173 179 182 0
-144 -173 0
-144 -179 0
-144 -182 0
-173 -179 0
-173 -182 0
-179 -182 0
173 179 184 186 0
-173 -179 0
-173 -184 0
-173 -186 0
-179 -184 0
-179 -186 0
-184 -186 0
139 177 184 186 0
-139 -177 0
-139 -184 0
-139 -186 0
-177 -184 0
-177 -186 0
-184 -186 0
139 144 177 182 0
-139 -144 0
-139 -177 0
-139 -182 0
-144 -177 0
-144 -182 0
-177 -182 0
148 177 183 186 0
-148 -177 0
-148 -183 0
-148 -186 0
-177 -183 0
-177 -186 0
-183 -186 0
177 183 188 190 0
-177 -183 0
-177 -188 0
-177 -190 0
-183 -188 0
-183 -190 0
-188 -190 0
143 181 188 190 0
-143 -181 0
-143 -188 0
-143 -190 0
-181 -188 0
-181 -190 0
-188 -190 0
143 148 181 186 0
-143 -148 0
-143 -181 0
-143 -186 0
-148 -181 0
-148 -186 0
-181 -186 0
152 181 187 190 0
-152 -181 0
-152 -187 0
-152 -190 0
-181 -187 0
-181 -190 0
-187 -190 0
181 187 192 194 0
-181 -187 0
-181 -192 0
-181 -194 0
-187 -192 0
-187 -194 0
-192 -194 0
147 185 192 194 0
-147 -185 0
-147 -192 0
-147 -194 0
-185 -192 0
-185 -194 0
-192 -194 0
147 152 185 190 0
-147 -152 0
-147 -185 0
-147 -190 0
-152 -185 0
-152 -190 0
-185 -190 0
156 185 191 194 0
-156 -185 0
-156 -191 0
-156 -194 0
-185 -191 0
-185 -194 0
-191 -194 0
185 191 196 198 0
-185 -191 0
-185 -196 0
-185 -198 0
-191 -196 0
-191 -198 0
-196 -198 0
151 189 196 198 0
-151 -189 0
-151 -196 0
-151 -198 0
-189 -196 0
-189 -198 0
-196 -198 0
151 156 189 194 0
-151 -156 0
-151 -189 0
-151 -194 0
-156 -189 0
-156 -194 0
-189 -194 0
160 189 195 198 0
-160 -189 0
-160 -195 0
-160 -198 0
-189 -195 0
-189 -198 0
-195 -198 0
162 189 195 200 0
-162 -189 0
-162 -195 0
-162 -200 0
-189 -195 0
-189 -200 0
-195 -200 0
155 162 193 200 0
-155 -162 0
-155 -193 0
-155 -200 0
-162 -193 0
-162 -200 0
-193 -200 0
155 160 193 198 0
-155 -160 0
-155 -193 0
-155 -198 0
-160 -193 0
-160 -198 0
-193 -198 0
124 162 193 199 0
-124 -162 0
-124 -193 0
-124 -199 0
-162 -193 0
-162 -199 0
-193 -199 0
164 166 193 199 0
-164 -166 0
-164 -193 0
-164 -199 0
-166 -193 0
-166 -199 0
-193 -199 0
159 164 166 197 0
-159 -164 0
-159 -166 0
-159 -197 0
-164 -166 0
-164 -197 0
-166 -197 0
124 159 162 197 0
-124 -159 0
-124 -162 0
-124 -197 0
-159 -162 0
-159 -197 0
-162 -197 0
168 203 206 237 0
-168 -203 0
-168 -206 0
-168 -237 0
-203 -206 0
-203 -237 0
-206 -237 0
203 208 210 237 0
-203 -208 0
-203 -210 0
-203 -237 0
-208 -210 0
-208 -237 0
-210 -237 0
163 201 208 210 0
-163 -201 0
-163 -208 0
-163 -210 0
-201 -208 0
-201 -210 0
-208 -210 0
163 168 201 206 0
-163 -168 0
-163 -201 0
-163 -206 0
-168 -201 0
-168 -206 0
-201 -206 0
172 201 207 210 0
-172 -201 0
-172 -207 0
-172 -210 0
-201 -207 0
-201 -210 0
-207 -210 0
201 207 212 214 0
-201 -207 0
-201 -212 0
-201 -214 0
-207 -212 0
-207 -214 0
-212 -214 0
167 205 212 214 0
-167 -205 0
-167 -212 0
-167 -214 0
-205 -212 0
-205 -214 0
-212 -214 0
167 172 205 210 0
-167 -172 0
-167 -205 0
-167 -210 0
-172 -205 0
-172 -210 0
-205 -210 0
176 205 211 214 0
-176 -205 0
-176 -211 0
-176 -214 0
-205 -211 0
-205 -214 0
-211 -214 0
205 211 216 218 0
-205 -211 0
-205 -216 0
-205 -218 0
-211 -216 0
-211 -218 0
-216 -218 0
171 209 216 218 0
-171 -209 0
-171 -216 0
-171 -218 0
-209 -216 0
-209 -218 0
-216 -218 0
171 176 209 214 0
-171 -176 0
-171 -209 0
-171 -214 0
-176 -209 0
-176 -214 0
-209 -214 0
180 209 215 218 0
-180 -209 0
-180 -215 0
-180 -218 0
-209 -215 0
-209 -218 0
-215 -218 0
209 215 220 222 0
-209 -215 0
-209 -220 0
-209 -222 0
-215 -220 0
-215 -222 0
-220 -222 0
175 213 220 222 0
-175 -213 0
-175 -220 0
-175 -222 0
-213 -220 0
-213 -222 0
-220 -222 0
175 180 213 218 0
-175 -180 0
-175 -213 0
-175 -218 0
-180 -213 0
-180 -218 0
-213 -218 0
184 213 219 222 0
-184 -213 0
-184 -219 0
-184 -222 0
-213 -219 0
-213 -222 0
-219 -222 0
213 219 224 226 0
-213 -219 0
-213 -224 0
-213 -226 0
-219 -224 0
-219 -226 0
-224 -226 0
179 217 224 226 0
-179 -217 0
-179 -224 0
-179 -226 0
-217 -224 0
-217 -226 0
-224 -226 0
179 184 217 222 0
-179 -184 0
-179 -217 0
-179 -222 0
-184 -217 0
-184 -222 0
-217 -222 0
188 217 223 226 0
-188 -217 0
-188 -223 0
-188 -226 0
-217 -223 0
-217 -226 0
-223 -226 0
217 223 228 230 0
-217 -223 0
-217 -228 0
-217 -230 0
-223 -228 0
-223 -230 0
-228 -230 0
183 221 228 230 0
-183 -221 0
-183 -228 0
-183 -230 0
-221 -228 0
-221 -230 0
-228 -230 0
183 188 221 226 0
-183 -188 0
-183 -221 0
-183 -226 0
-188 -221 0
-188 -226 0
-221 -226 0
192 221 227 230 0
-192 -221 0
-192 -227 0
-192 -230 0
-221 -227 0
-221 -230 0
-227 -230 0
221 227 232 234 0
-221 -227 0
-221 -232 0
-221 -234 0
-227 -232 0
-227 -234 0
-232 -234 0
187 225 232 234 0
-187 -225 0
-187 -232 0
-187 -234 0
-225 -232 0
-225 -234 0
-232 -234 0
187 192 225 230 0
-187 -192 0
-187 -225 0
-187 -230 0
-192 -225 0
-192 -230 0
-225 -230 0
196 225 231 234 0
-196 -225 0
-196 -231 0
-196 -234 0
-225 -231 0
-225 -234 0
-231 -234 0
225 231 236 238 0
-225 -231 0
-225 -236 0
-225 -238 0
-231 -236 0
-231 -238 0
-236 -238 0
191 229 236 238 0
-191 -229 0
-191 -236 0
-191 -238 0
-229 -236 0
-229 -238 0
-236 -238 0
191 196 229 234 0
-191 -196 0
-191 -229 0
-191 -234 0
-196 -229 0
-196 -234 0
-229 -234 0
200 229 235 238 0
-200 -229 0
-200 -235 0
-200 -238 0
-229 -235 0
-229 -238 0
-235 -238 0
202 229 235 240 0
-202 -229 0
-202 -235 0
-202 -240 0
-229 -235 0
-229 -240 0
-235 -240 0
195 202 233 240 0
-195 -202 0
-195 -233 0
-195 -240 0
-202 -233 0
-202 -240 0
-233 -240 0
195 200 233 238 0
-195 -200 0
-195 -233 0
-195 -238 0
-200 -233 0
-200 -238 0
-233 -238 0
164 202 233 239 0
-164 -202 0
-164 -233 0
-164 -239 0
-202 -233 0
-202 -239 0
-233 -239 0
204 206 233 239 0
-204 -206 0
-204 -233 0
-204 -239 0
-206 -233 0
-206 -239 0
-233 -239 0
199 204 206 237 0
-199 -204 0
-199 -206 0
-199 -237 0
-204 -206 0
-204 -237 0
-206 -237 0
164 199 202 237 0
-164 -199 0
-164 -202 0
-164 -237 0
-199 -202 0
-199 -237 0
-202 -237 0
208 243 246 277 0
-208 -243 0
-208 -246 0
-208 -277 0
-243 -246 0
-243 -277 0
-246 -277 0
243 248 250 277 0
-243 -248 0
-243 -250 0
-243 -277 0
-248 -250 0
-248 -277 0
-250 -277 0
203 241 248 250 0
-203 -241 0
-203 -248 0
-203 -250 0
-241 -248 0
-241 -250 0
-248 -250 0
203 208 241 246 0
-203 -208 0
-203 -241 0
-203 -246 0
-208 -241 0
-208 -246 0
-241 -246 0
212 241 247 250 0
-212 -241 0
-212 -247 0
-212 -250 0
-241 -247 0
-241 -250 0
-247 -250 0
241 247 252 254 0
-241 -247 0
-241 -252 0
-241 -254 0
-247 -252 0
-247 -254 0
-252 -254 0
207 245 252 254 0
-207 -245 0
-207 -252 0
-207 -254 0
-245 -252 0
-245 -254 0
-252 -254 0
207 212 245 250 0
-207 -212 0
-207 -245 0
-207 -250 0
-212 -245 0
-212 -250 0
-245 -250 0
216 245 251 254 0
-216 -245 0
-216 -251 0
-216 -254 0
-245 -251 0
-245 -254 0
-251 -254 0
245 251 256 258 0
-245 -251 0
-245 -256 0
-245 -258 0
-251 -256 0
-251 -258 0
-256 -258 0
211 249 256 258 0
-211 -249 0
-211 -256 0
-211 -258 0
-249 -256 0
-249 -258 0
-256 -258 0
211 216 249 254 0
-211 -216 0
-211 -249 0
-211 -254 0
-216 -249 0
-216 -254 0
-249 -254 0
220 249 255 258 0
-220 -249 0
-220 -255 0
-220 -258 0
-249 -255 0
-249 -258 0
-255 -258 0
249 255 260 262 0
-249 -255 0
-249 -260 0
-249 -262 0
-255 -260 0
-255 -262 0
-260 -262 0
215 253 260 262 0
-215 -253 0
-215 -260 0
-215 -262 0
-253 -260 0
-253 -262 0
-260 -262 0
215 220 253 258 0
-215 -220 0
-215 -253 0
-215 -258 0
-220 -253 0
-220 -258 0
-253 -258 0
224 253 259 262 0
-224 -253 0
-224 -259 0
-224 -262 0
-253 -259 0
-253 -262 0
-259 -262 0
253 259 264 266 0
-253 -259 0
-253 -264 0
-253 -266 0
-259 -264 0
-259 -266 0
-264 -266 0
219 257 264 266 0
-219 -257 0
-219 -264 0
-219 -266 0
-257 -264 0
-257 -266 0
-264 -266 0
219 224 257 262 0
-219 -224 0
-219 -257 0
-219 -262 0
-224 -257 0
-224 -262 0
-257 -262 0
228 257 263 266 0
-228 -257 0
-228 -263 0
-228 -266 0
-257 -263 0
-257 -266 0
-263 -266 0
257 263 268 270 0
-257 -263 0
-257 -268 0
-257 -270 0
-263 -268 0
-263 -270 0
-268 -270 0
223 261 268 270 0
-223 -261 0
-223 -268 0
-223 -270 0
-261 -268 0
-261 -270 0
-268 -270 0
223 228 261 266 0
-223 -228 0
-223 -261 0
-223 -266 0
-228 -261 0
-228 -266 0
-261 -266 0
232 261 267 270 0
-232 -261 0
-232 -267 0
-232 -270 0
-261 -267 0
-261 -270 0
-267 -270 0
261 267 272 274 0
-261 -267 0
-261 -272 0
-261 -274 0
-267 -272 0
-267 -274 0
-272 -274 0
227 265 272 274 0
-227 -265 0
-227 -272 0
-227 -274 0
-265 -272 0
-265 -274 0
-272 -274 0
227 232 265 270 0
-227 -232 0
-227 -265 0
-227 -270 0
-232 -265 0
-232 -270 0
-265 -270 0
236 265 271 274 0
-236 -265 0
-236 -271 0
-236 -274 0
-265 -271 0
-265 -274 0
-271 -274 0
265 271 276 278 0
-265 -271 0
-265 -276 0
-265 -278 0
-271 -276 0
-271 -278 0
-276 -278 0
231 269 276 278 0
-231 -269 0
-231 -276 0
-231 -278 0
-269 -276 0
-269 -278 0
-276 -278 0
231 236 269 274 0
-231 -236 0
-231 -269 0
-231 -274 0
-236 -269 0
-236 -274 0
-269 -274 0
240 269 275 278 0
-240 -269 0
-240 -275 0
-240 -278 0
-269 -275 0
-269 -278 0
-275 -278 0
242 269 275 280 0
-242 -269 0
-242 -275 0
-242 -280 0
-269 -275 0
-269 -280 0
-275 -280 0
235 242 273 280 0
-235 -242 0
-235 -273 0
-235 -280 0
-242 -273 0
-242 -280 0
-273 -280 0
235 240 273 278 0
-235 -240 0
-235 -273 0
-235 -278 0
-240 -273 0
-240 -278 0
-273 -278 0
204 242 273 279 0
-204 -242 0
-204 -273 0
-204 -279 0
-242 -273 0
-242 -279 0
-273 -279 0
244 246 273 279 0
-244 -246 0
-244 -273 0
-244 -279 0
-246 -273 0
-246 -279 0
-273 -279 0
239 244 246 277 0
-239 -244 0
-239 -246 0
-239 -277 0
-244 -246 0
-244 -277 0
-246 -277 0
204 239 242 277 0
-204 -239 0
-204 -242 0
-204 -277 0
-239 -242 0
-239 -277 0
-242 -277 0
563 0
-561 0
-562 0
-561 43 564 0
-561 -43 565 0
-562 43 565 0
-562 -43 566 0
-563 43 566 0
-563 -43 564 0
-564 -565 0
-564 -566 0
-565 -566 0
-564 48 567 0
-564 -48 568 0
-565 48 568 0
-565 -48 569 0
-566 48 569 0
-566 -48 567 0
-567 -568 0
-567 -569 0
-568 -569 0
-567 50 570 0
-567 -50 572 0
-568 50 571 0
-568 -50 570 0
-569 50 572 0
-569 -50 571 0
-570 -571 0
-570 -572 0
-571 -572 0
-570 77 573 0
-570 -77 575 0
-571 77 574 0
-571 -77 573 0
-572 77 575 0
-572 -77 574 0
-573 -574 0
-573 -575 0
-574 -575 0
-573 81 576 0
-573 -81 578 0
-574 81 577 0
-574 -81 576 0
-575 81 578 0
-575 -81 577 0
-576 -577 0
-576 -578 0
-577 -578 0
-576 86 579 0
-576 -86 581 0
-577 86 580 0
-577 -86 579 0
-578 86 581 0
-578 -86 580 0
-579 -580 0
-579 -581 0
-580 -581 0
-579 83 582 0
-579 -83 584 0
-580 83 583 0
-580 -83 582 0
-581 83 584 0
-581 -83 583 0
-582 -583 0
-582 -584 0
-583 -584 0
-582 88 585 0
-582 -88 587 0
-583 88 586 0
-583 -88 585 0
-584 88 587 0
-584 -88 586 0
-585 -586 0
-585 -587 0
-586 -587 0
-585 90 588 0
-585 -90 589 0
-586 90 589 0
-586 -90 590 0
-587 90 590 0
-587 -90 588 0
-588 -589 0
-588 -590 0
-589 -590 0
-588 117 591 0
-588 -117 592 0
-589 117 592 0
-589 -117 593 0
-590 117 593 0
-590 -117 591 0
-591 -592 0
-591 -593 0
-592 -593 0
-591 121 594 0
-591 -121 595 0
-592 121 595 0
-592 -121 596 0
-593 121 596 0
-593 -121 594 0
-594 -595 0
-594 -596 0
-595 -596 0
-594 126 597 0
-594 -126 598 0
-595 126 598 0
-595 -126 599 0
-596 126 599 0
-596 -126 597 0
-597 -598 0
-597 -599 0
-598 -599 0
-597 123 600 0
-597 -123 601 0
-598 123 601 0
-598 -123 602 0
-599 123 602 0
-599 -123 600 0
-600 -601 0
-600 -602 0
-601 -602 0
-600 128 603 0
-600 -128 604 0
-601 128 604 0
-601 -128 605 0
-602 128 605 0
-602 -128 603 0
-603 -604 0
-603 -605 0
-604 -605 0
-603 130 606 0
-603 -130 608 0
-604 130 607 0
-604 -130 606 0
-605 130 608 0
-605 -130 607 0
-606 -607 0
-606 -608 0
-607 -608 0
-606 157 609 0
-606 -157 611 0
-607 157 610 0
-607 -157 609 0
-608 157 611 0
-608 -157 610 0
-609 -610 0
-609 -611 0
-610 -611 0
-609 161 612 0
-609 -161 614 0
-610 161 613 0
-610 -161 612 0
-611 161 614 0
-611 -161 613 0
-612 -613 0
-612 -614 0
-613 -614 0
-612 166 615 0
-612 -166 617 0
-613 166 616 0
-613 -166 615 0
-614 166 617 0
-614 -166 616 0
-615 -616 0
-615 -617 0
-616 -617 0
-615 163 618 0
-615 -163 620 0
-616 163 619 0
-616 -163 618 0
-617 163 620 0
-617 -163 619 0
-618 -619 0
-618 -620 0
-619 -620 0
-618 168 621 0
-618 -168 623 0
-619 168 622 0
-619 -168 621 0
-620 168 623 0
-620 -168 622 0
-621 -622 0
-621 -623 0
-622 -623 0
-621 170 624 0
-621 -170 625 0
-622 170 625 0
-622 -170 626 0
-623 170 626 0
-623 -170 624 0
-624 -625 0
-624 -626 0
-625 -626 0
-624 197 627 0
-624 -197 628 0
-625 197 628 0
-625 -197 629 0
-626 197 629 0
-626 -197 627 0
-627 -628 0
-627 -629 0
-628 -629 0
-627 201 630 0
-627 -201 631 0
-628 201 631 0
-628 -201 632 0
-629 201 632 0
-629 -201 630 0
-630 -631 0
-630 -632 0
-631 -632 0
-630 206 633 0
-630 -206 634 0
-631 206 634 0
-631 -206 635 0
-632 206 635 0
-632 -206 633 0
-633 -634 0
-633 -635 0
-634 -635 0
-633 203 636 0
-633 -203 637 0
-634 203 637 0
-634 -203 638 0
-635 203 638 0
-635 -203 636 0
-636 -637 0
-636 -638 0
-637 -638 0
-636 208 639 0
-636 -208 640 0
-637 208 640 0
-637 -208 641 0
-638 208 641 0
-638 -208 639 0
-639 -640 0
-639 -641 0
-640 -641 0
-639 210 642 0
-639 -210 644 0
-640 210 643 0
-640 -210 642 0
-641 210 644 0
-641 -210 643 0
-642 -643 0
-642 -644 0
-643 -644 0
-642 237 645 0
-642 -237 647 0
-643 237 646 0
-643 -237 645 0
-644 237 647 0
-644 -237 646 0
-645 -646 0
-645 -647 0
-646 -647 0
-645 241 648 0
-645 -241 650 0
-646 241 649 0
-646 -241 648 0
-647 241 650 0
-647 -241 649 0
-648 -649 0
-648 -650 0
-649 -650 0
-648 246 651 0
-648 -246 653 0
-649 246 652 0
-649 -246 651 0
-650 246 653 0
-650 -246 652 0
-651 -652 0
-651 -653 0
-652 -653 0
-651 0
-3 -8 0
654 0
-655 0
-656 0
-654 37 657 0
-654 -37 659 0
-655 37 658 0
-655 -37 657 0
-656 37 659 0
-656 -37 658 0
-657 -658 0
-657 -659 0
-658 -659 0
-657 2 660 0
-657 -2 662 0
-658 2 661 0
-658 -2 660 0
-659 2 662 0
-659 -2 661 0
-660 -661 0
-660 -662 0
-661 -662 0
-660 4 663 0
-660 -4 665 0
-661 4 664 0
-661 -4 663 0
-662 4 665 0
-662 -4 664 0
-663 -664 0
-663 -665 0
-664 -665 0
-663 6 666 0
-663 -6 667 0
-664 6 667 0
-664 -6 668 0
-665 6 668 0
-665 -6 666 0
-666 -667 0
-666 -668 0
-667 -668 0
-666 8 669 0
-666 -8 670 0
-667 8 670 0
-667 -8 671 0
-668 8 671 0
-668 -8 669 0
-669 -670 0
-669 -671 0
-670 -671 0
-669 10 672 0
-669 -10 674 0
-670 10 673 0
-670 -10 672 0
-671 10 674 0
-671 -10 673 0
-672 -673 0
-672 -674 0
-673 -674 0
-672 41 675 0
-672 -41 677 0
-673 41 676 0
-673 -41 675 0
-674 41 677 0
-674 -41 676 0
-675 -676 0
-675 -677 0
-676 -677 0
-675 46 678 0
-675 -46 680 0
-676 46 679 0
-676 -46 678 0
-677 46 680 0
-677 -46 679 0
-678 -679 0
-678 -680 0
-679 -680 0
-678 0
-679 0
-281 681 0
-681 682 0
-282 -681 683 0
-683 684 0
-283 -683 685 0
-685 686 0
-284 -685 687 0
-687 688 0
-285 -687 689 0
-689 690 0
-286 -689 691 0
-691 692 0
-287 -691 693 0
-693 694 0
-288 -693 695 0
-695 696 0
-289 -695 697 0
-697 698 0
-290 -697 699 0
-699 700 0
-291 -699 701 0
-701 702 0
-292 -701 703 0
-703 704 0
-293 -703 705 0
-705 706 0
-294 -705 707 0
-707 708 0
-295 -707 709 0
-709 710 0
-296 -709 711 0
-711 712 0
-297 -711 713 0
-713 714 0
-298 -713 715 0
-715 716 0
-299 -715 717 0
-717 718 0
-300 -717 719 0
-719 720 0
-301 -719 721 0
-721 722 0
-302 -721 0
-282 682 0
-682 723 0
-283 -682 684 0
-684 724 0
-284 -684 686 0
-686 725 0
-285 -686 688 0
-688 726 0
-286 -688 690 0
-690 727 0
-287 -690 692 0
-692 728 0
-288 -692 694 0
-694 729 0
-289 -694 696 0
-696 730 0
-290 -696 698 0
-698 731 0
-291 -698 700 0
-700 732 0
-292 -700 702 0
-702 733 0
-293 -702 704 0
-704 734 0
-294 -704 706 0
-706 735 0
-295 -706 708 0
-708 736 0
-296 -708 710 0
-710 737 0
-297 -710 712 0
-712 738 0
-298 -712 714 0
-714 739 0
-299 -714 716 0
-716 740 0
-300 -716 718 0
-718 741 0
-301 -718 720 0
-720 742 0
-302 -720 722 0
-722 743 0
-303 -722 0
-283 723 0
-723 744 0
-284 -723 724 0
-724 745 0
-285 -724 725 0
-725 746 0
-286 -725 726 0
-726 747 0
-287 -726 727 0
-727 748 0
-288 -727 728 0
-728 749 0
-289 -728 729 0
-729 750 0
-290 -729 730 0
-730 751 0
-291 -730 731 0
-731 752 0
-292 -731 732 0
-732 753 0
-293 -732 733 0
-733 754 0
-294 -733 734 0
-734 755 0
-295 -734 735 0
-735 756 0
-296 -735 736 0
-736 757 0
-297 -736 737 0
-737 758 0
-298 -737 738 0
-738 759 0
-299 -738 739 0
-739 760 0
-300 -739 740 0
-740 761 0
-301 -740 741 0
-741 762 0
-302 -741 742 0
-742 763 0
-303 -742 743 0
-743 764 0
-304 -743 0
-284 744 0
-744 765 0
-285 -744 745 0
-745 766 0
-286 -745 746 0
-746 767 0
-287 -746 747 0
-747 768 0
-288 -747 748 0
-748 769 0
-289 -748 749 0
-749 770 0
-290 -749 750 0
-750 771 0
-291 -750 751 0
-751 772 0
-292 -751 752 0
-752 773 0
-293 -752 753 0
-753 774 0
-294 -753 754 0
-754 775 0
-295 -754 755 0
-755 776 0
-296 -755 756 0
-756 777 0
-297 -756 757 0
-757 778 0
-298 -757 758 0
-758 779 0
-299 -758 759 0
-759 780 0
-300 -759 760 0
-760 781 0
-301 -760 761 0
-761 782 0
-302 -761 762 0
-762 783 0
-303 -762 763 0
-763 784 0
-304 -763 764 0
-764 785 0
-305 -764 0
-285 765 0
-765 786 0
-286 -765 766 0
-766 787 0
-287 -766 767 0
-767 788 0
-288 -767 768 0
-768 789 0
-289 -768 769 0
-769 790 0
-290 -769 770 0
-770 791 0
-291 -770 771 0
-771 792 0
-292 -771 772 0
-772 793 0
-293 -772 773 0
-773 794 0
-294 -773 774 0
-774 795 0
-295 -774 775 0
-775 796 0
-296 -775 776 0
-776 797 0
-297 -776 777 0
-777 798 0
-298 -777 778 0
-778 799 0
-299 -778 779 0
-779 800 0
-300 -779 780 0
-780 801 0
-301 -780 781 0
-781 802 0
-302 -781 782 0
-782 803 0
-303 -782 783 0
-783 804 0
-304 -783 784 0
-784 805 0
-305 -784 785 0
-785 806 0
-306 -785 0
-286 786 0
-786 807 0
-287 -786 787 0
-787 808 0
-288 -787 788 0
-788 809 0
-289 -788 789 0
-789 810 0
-290 -789 790 0
-790 811 0
-291 -790 791 0
-791 812 0
-292 -791 792 0
-792 813 0
-293 -792 793 0
-793 814 0
-294 -793 794 0
-794 815 0
-295 -794 795 0
-795 816 0
-296 -795 796 0
-796 817 0
-297 -796 797 0
-797 818 0
-298 -797 798 0
-798 819 0
-299 -798 799 0
-799 820 0
-300 -799 800 0
-800 821 0
-301 -800 801 0
-801 822 0
-302 -801 802 0
-802 823 0
-303 -802 803 0
-803 824 0
-304 -803 804 0
-804 825 0
-305 -804 805 0
-805 826 0
-306 -805 806 0
-806 827 0
-307 -806 0
-287 807 0
-807 828 0
-288 -807 808 0
-808 829 0
-289 -808 809 0
-809 830 0
-290 -809 810 0
-810 831 0
-291 -810 811 0
-811 832 0
-292 -811 812 0
-812 833 0
-293 -812 813 0
-813 834 0
-294 -813 814 0
-814 835 0
-295 -814 815 0
-815 836 0
-296 -815 816 0
-816 837 0
-297 -816 817 0
-817 838 0
-298 -817 818 0
-818 839 0
-299 -818 819 0
-819 840 0
-300 -819 820 0
-820 841 0
-301 -820 821 0
-821 842 0
-302 -821 822 0
-822 843 0
-303 -822 823 0
-823 844 0
-304 -823 824 0
-824 845 0
-305 -824 825 0
-825 846 0
-306 -825 826 0
-826 847 0
-307 -826 827 0
-827 848 0
-308 -827 0
-288 828 0
-828 849 0
-289 -828 829 0
-829 850 0
-290 -829 830 0
-830 851 0
-291 -830 831 0
-831 852 0
-292 -831 832 0
-832 853 0
-293 -832 833 0
-833 854 0
-294 -833 834 0
-834 855 0
-295 -834 835 0
-835 856 0
-296 -835 836 0
-836 857 0
-297 -836 837 0
-837 858 0
-298 -837 838 0
-838 859 0
-299 -838 839 0
-839 860 0
-300 -839 840 0
-840 861 0
-301 -840 841 0
-841 862 0
-302 -841 842 0
-842 863 0
-303 -842 843 0
-843 864 0
-304 -843 844 0
-844 865 0
-305 -844 845 0
-845 866 0
-306 -845 846 0
-846 867 0
-307 -846 847 0
-847 868 0
-308 -847 848 0
-848 869 0
-309 -848 0
-289 849 0
-849 870 0
-290 -849 850 0
-850 871 0
-291 -850 851 0
-851 872 0
-292 -851 852 0
-852 873 0
-293 -852 853 0
-853 874 0
-294 -853 854 0
-854 875 0
-295 -854 855 0
-855 876 0
-296 -855 856 0
-856 877 0
-297 -856 857 0
-857 878 0
-298 -857 858 0
-858 879 0
-299 -858 859 0
-859 880 0
-300 -859 860 0
-860 881 0
-301 -860 861 0
-861 882 0
-302 -861 862 0
-862 883 0
-303 -862 863 0
-863 884 0
-304 -863 864 0
-864 885 0
-305 -864 865 0
-865 886 0
-306 -865 866 0
-866 887 0
-307 -866 867 0
-867 888 0
-308 -867 868 0
-868 889 0
-309 -868 869 0
-869 890 0
-310 -869 0
-290 870 0
-870 891 0
-291 -870 871 0
-871 892 0
-292 -871 872 0
-872 893 0
-293 -872 873 0
-873 894 0
-294 -873 874 0
-874 895 0
-295 -874 875 0
-875 896 0
-296 -875 876 0
-876 897 0
-297 -876 877 0
-877 898 0
-298 -877 878 0
-878 899 0
-299 -878 879 0
-879 900 0
-300 -879 880 0
-880 901 0
-301 -880 881 0
-881 902 0
-302 -881 882 0
-882 903 0
-303 -882 883 0
-883 904 0
-304 -883 884 0
-884 905 0
-305 -884 885 0
-885 906 0
-306 -885 886 0
-886 907 0
-307 -886 887 0
-887 908 0
-308 -887 888 0
-888 909 0
-309 -888 889 0
-889 910 0
-310 -889 890 0
-890 911 0
-311 -890 0
-291 891 0
-891 912 0
-292 -891 892 0
-892 913 0
-293 -892 893 0
-893 914 0
-294 -893 894 0
-894 915 0
-295 -894 895 0
-895 916 0
-296 -895 896 0
-896 917 0
-297 -896 897 0
-897 918 0
-298 -897 898 0
-898 919 0
-299 -898 899 0
-899 920 0
-300 -899 900 0
-900 921 0
-301 -900 901 0
-901 922 0
-302 -901 902 0
-902 923 0
-303 -902 903 0
-903 924 0
-304 -903 904 0
-904 925 0
-305 -904 905 0
-905 926 0
-306 -905 906 0
-906 927 0
-307 -906 907 0
-907 928 0
-308 -907 908 0
-908 929 0
-309 -908 909 0
-909 930 0
-310 -909 910 0
-910 931 0
-311 -910 911 0
-911 932 0
-312 -911 0
-292 912 0
-912 933 0
-293 -912 913 0
-913 934 0
-294 -913 914 0
-914 935 0
-295 -914 915 0
-915 936 0
-296 -915 916 0
-916 937 0
-297 -916 917 0
-917 938 0
-298 -917 918 0
-918 939 0
-299 -918 919 0
-919 940 0
-300 -919 920 0
-920 941 0
-301 -920 921 0
-921 942 0
-302 -921 922 0
-922 943 0
-303 -922 923 0
-923 944 0
-304 -923 924 0
-924 945 0
-305 -924 925 0
-925 946 0
-306 -925 926 0
-926 947 0
-307 -926 927 0
-927 948 0
-308 -927 928 0
-928 949 0
-309 -928 929 0
-929 950 0
-310 -929 930 0
-930 951 0
-311 -930 931 0
-931 952 0
-312 -931 932 0
-932 953 0
-313 -932 0
-293 933 0
-933 954 0
-294 -933 934 0
-934 955 0
-295 -934 935 0
-935 956 0
-296 -935 936 0
-936 957 0
-297 -936 937 0
-937 958 0
-298 -937 938 0
-938 959 0
-299 -938 939 0
-939 960 0
-300 -939 940 0
-940 961 0
-301 -940 941 0
-941 962 0
-302 -941 942 0
-942 963 0
-303 -942 943 0
-943 964 0
-304 -943 944 0
-944 965 0
-305 -944 945 0
-945 966 0
-306 -945 946 0
-946 967 0
-307 -946 947 0
-947 968 0
-308 -947 948 0
-948 969 0
-309 -948 949 0
-949 970 0
-310 -949 950 0
-950 971 0
-311 -950 951 0
-951 972 0
-312 -951 952 0
-952 973 0
-313 -952 953 0
-953 974 0
-314 -953 0
-294 954 0
-954 975 0
-295 -954 955 0
-955 976 0
-296 -955 956 0
-956 977 0
-297 -956 957 0
-957 978 0
-298 -957 958 0
-958 979 0
-299 -958 959 0
-959 980 0
-300 -959 960 0
-960 981 0
-301 -960 961 0
-961 982 0
-302 -961 962 0
-962 983 0
-303 -962 963 0
-963 984 0
-304 -963 964 0
-964 985 0
-305 -964 965 0
-965 986 0
-306 -965 966 0
-966 987 0
-307 -966 967 0
-967 988 0
-308 -967 968 0
-968 989 0
-309 -968 969 0
-969 990 0
-310 -969 970 0
-970 991 0
-311 -970 971 0
-971 992 0
-312 -971 972 0
-972 993 0
-313 -972 973 0
-973 994 0
-314 -973 974 0
-974 995 0
-315 -974 0
-295 975 0
-975 996 0
-296 -975 976 0
-976 997 0
-297 -976 977 0
-977 998 0
-298 -977 978 0
-978 999 0
-299 -978 979 0
-979 1000 0
-300 -979 980 0
-980 1001 0
-301 -980 981 0
-981 1002 0
-302 -981 982 0
-982 1003 0
-303 -982 983 0
-983 1004 0
-304 -983 984 0
-984 1005 0
-305 -984 985 0
-985 1006 0
-306 -985 986 0
-986 1007 0
-307 -986 987 0
-987 1008 0
-308 -987 988 0
-988 1009 0
-309 -988 989 0
-989 1010 0
-310 -989 990 0
-990 1011 0
-311 -990 991 0
-991 1012 0
-312 -991 992 0
-992 1013 0
-313 -992 993 0
-993 1014 0
-314 -993 994 0
-994 1015 0
-315 -994 995 0
-995 1016 0
-316 -995 0
-296 996 0
-996 1017 0
-297 -996 997 0
-997 1018 0
-298 -997 998 0
-998 1019 0
-299 -998 999 0
-999 1020 0
-300 -999 1000 0
-1000 1021 0
-301 -1000 1001 0
-1001 1022 0
-302 -1001 1002 0
-1002 1023 0
-303 -1002 1003 0
-1003 1024 0
-304 -1003 1004 0
-1004 1025 0
-305 -1004 1005 0
-1005 1026 0
-306 -1005 1006 0
-1006 1027 0
-307 -1006 1007 0
-1007 1028 0
-308 -1007 1008 0
-1008 1029 0
-309 -1008 1009 0
-1009 1030 0
-310 -1009 1010 0
-1010 1031 0
-311 -1010 1011 0
-1011 1032 0
-312 -1011 1012 0
-1012 1033 0
-313 -1012 1013 0
-1013 1034 0
-314 -1013 1014 0
-1014 1035 0
-315 -1014 1015 0
-1015 1036 0
-316 -1015 1016 0
-1016 1037 0
-317 -1016 0
-297 1017 0
-1017 1038 0
-298 -1017 1018 0
-1018 1039 0
-299 -1018 1019 0
-1019 1040 0
-300 -1019 1020 0
-1020 1041 0
-301 -1020 1021 0
-1021 1042 0
-302 -1021 1022 0
-1022 1043 0
-303 -1022 1023 0
-1023 1044 0
-304 -1023 1024 0
-1024 1045 0
-305 -1024 1025 0
-1025 1046 0
-306 -1025 1026 0
-1026 1047 0
-307 -1026 1027 0
-1027 1048 0
-308 -1027 1028 0
-1028 1049 0
-309 -1028 1029 0
-1029 1050 0
-310 -1029 1030 0
-1030 1051 0
-311 -1030 1031 0
-1031 1052 0
-312 -1031 1032 0
-1032 1053 0
-313 -1032 1033 0
-1033 1054 0
-314 -1033 1034 0
-1034 1055 0
-315 -1034 1035 0
-1035 1056 0
-316 -1035 1036 0
-1036 1057 0
-317 -1036 1037 0
-1037 1058 0
-318 -1037 0
-298 1038 0
-1038 1059 0
-299 -1038 1039 0
-1039 1060 0
-300 -1039 1040 0
-1040 1061 0
-301 -1040 1041 0
-1041 1062 0
-302 -1041 1042 0
-1042 1063 0
-303 -1042 1043 0
-1043 1064 0
-304 -1043 1044 0
-1044 1065 0
-305 -1044 1045 0
-1045 1066 0
-306 -1045 1046 0
-1046 1067 0
-307 -1046 1047 0
-1047 1068 0
-308 -1047 1048 0
-1048 1069 0
-309 -1048 1049 0
-1049 1070 0
-310 -1049 1050 0
-1050 1071 0
-311 -1050 1051 0
-1051 1072 0
-312 -1051 1052 0
-1052 1073 0
-313 -1052 1053 0
-1053 1074 0
-314 -1053 1054 0
-1054 1075 0
-315 -1054 1055 0
-1055 1076 0
-316 -1055 1056 0
-1056 1077 0
-317 -1056 1057 0
-1057 1078 0
-318 -1057 1058 0
-1058 1079 0
-319 -1058 0
-299 1059 0
-1059 1080 0
-300 -1059 1060 0
-1060 1081 0
-301 -1060 1061 0
-1061 1082 0
-302 -1061 1062 0
-1062 1083 0
-303 -1062 1063 0
-1063 1084 0
-304 -1063 1064 0
-1064 1085 0
-305 -1064 1065 0
-1065 1086 0
-306 -1065 1066 0
-1066 1087 0
-307 -1066 1067 0
-1067 1088 0
-308 -1067 1068 0
-1068 1089 0
-309 -1068 1069 0
-1069 1090 0
-310 -1069 1070 0
-1070 1091 0
-311 -1070 1071 0
-1071 1092 0
-312 -1071 1072 0
-1072 1093 0
-313 -1072 1073 0
-1073 1094 0
-314 -1073 1074 0
-1074 1095 0
-315 -1074 1075 0
-1075 1096 0
-316 -1075 1076 0
-1076 1097 0
-317 -1076 1077 0
-1077 1098 0
-318 -1077 1078 0
-1078 1099 0
-319 -1078 1079 0
-1079 1100 0
-320 -1079 0
-300 1080 0
-1080 1101 0
-301 -1080 1081 0
-1081 1102 0
-302 -1081 1082 0
-1082 1103 0
-303 -1082 1083 0
-1083 1104 0
-304 -1083 1084 0
-1084 1105 0
-305 -1084 1085 0
-1085 1106 0
-306 -1085 1086 0
-1086 1107 0
-307 -1086 1087 0
-1087 1108 0
-308 -1087 1088 0
-1088 1109 0
-309 -1088 1089 0
-1089 1110 0
-310 -1089 1090 0
-1090 1111 0
-311 -1090 1091 0
-1091 1112 0
-312 -1091 1092 0
-1092 1113 0
-313 -1092 1093 0
-1093 1114 0
-314 -1093 1094 0
-1094 1115 0
-315 -1094 1095 0
-1095 1116 0
-316 -1095 1096 0
-1096 1117 0
-317 -1096 1097 0
-1097 1118 0
-318 -1097 1098 0
-1098 1119 0
-319 -1098 1099 0
-1099 1120 0
-320 -1099 1100 0
-1100 1121 0
-321 -1100 0
-301 1101 0
-1101 1122 0
-302 -1101 1102 0
-1102 1123 0
-303 -1102 1103 0
-1103 1124 0
-304 -1103 1104 0
-1104 1125 0
-305 -1104 1105 0
-1105 1126 0
-306 -1105 1106 0
-1106 1127 0
-307 -1106 1107 0
-1107 1128 0
-308 -1107 1108 0
-1108 1129 0
-309 -1108 1109 0
-1109 1130 0
-310 -1109 1110 0
-1110 1131 0
-311 -1110 1111 0
-1111 1132 0
-312 -1111 1112 0
-1112 1133 0
-313 -1112 1113 0
-1113 1134 0
-314 -1113 1114 0
-1114 1135 0
-315 -1114 1115 0
-1115 1136 0
-316 -1115 1116 0
-1116 1137 0
-317 -1116 1117 0
-1117 1138 0
-318 -1117 1118 0
-1118 1139 0
-319 -1118 1119 0
-1119 1140 0
-320 -1119 1120 0
-1120 1141 0
-321 -1120 1121 0
-1121 1142 0
-322 -1121 0
-302 1122 0
-1122 1143 0
-303 -1122 1123 0
-1123 1144 0
-304 -1123 1124 0
-1124 1145 0
-305 -1124 1125 0
-1125 1146 0
-306 -1125 1126 0
-1126 1147 0
-307 -1126 1127 0
-1127 1148 0
-308 -1127 1128 0
-1128 1149 0
-309 -1128 1129 0
-1129 1150 0
-310 -1129 1130 0
-1130 1151 0
-311 -1130 1131 0
-1131 1152 0
-312 -1131 1132 0
-1132 1153 0
-313 -1132 1133 0
-1133 1154 0
-314 -1133 1134 0
-1134 1155 0
-315 -1134 1135 0
-1135 1156 0
-316 -1135 1136 0
-1136 1157 0
-317 -1136 1137 0
-1137 1158 0
-318 -1137 1138 0
-1138 1159 0
-319 -1138 1139 0
-1139 1160 0
-320 -1139 1140 0
-1140 1161 0
-321 -1140 1141 0
-1141 1162 0
-322 -1141 1142 0
-1142 1163 0
-323 -1142 0
-303 1143 0
-1143 1164 0
-304 -1143 1144 0
-1144 1165 0
-305 -1144 1145 0
-1145 1166 0
-306 -1145 1146 0
-1146 1167 0
-307 -1146 1147 0
-1147 1168 0
-308 -1147 1148 0
-1148 1169 0
-309 -1148 1149 0
-1149 1170 0
-310 -1149 1150 0
-1150 1171 0
-311 -1150 1151 0
-1151 1172 0
-312 -1151 1152 0
-1152 1173 0
-313 -1152 1153 0
-1153 1174 0
-314 -1153 1154 0
-1154 1175 0
-315 -1154 1155 0
-1155 1176 0
-316 -1155 1156 0
-1156 1177 0
-317 -1156 1157 0
-1157 1178 0
-318 -1157 1158 0
-1158 1179 0
-319 -1158 1159 0
-1159 1180 0
-320 -1159 1160 0
-1160 1181 0
-321 -1160 1161 0
-1161 1182 0
-322 -1161 1162 0
-1162 1183 0
-323 -1162 1163 0
-1163 1184 0
-324 -1163 0
-304 1164 0
-1164 1185 0
-305 -1164 1165 0
-1165 1186 0
-306 -1165 1166 0
-1166 1187 0
-307 -1166 1167 0
-1167 1188 0
-308 -1167 1168 0
-1168 1189 0
-309 -1168 1169 0
-1169 1190 0
-310 -1169 1170 0
-1170 1191 0
-311 -1170 1171 0
-1171 1192 0
-312 -1171 1172 0
-1172 1193 0
-313 -1172 1173 0
-1173 1194 0
-314 -1173 1174 0
-1174 1195 0
-315 -1174 1175 0
-1175 1196 0
-316 -1175 1176 0
-1176 1197 0
-317 -1176 1177 0
-1177 1198 0
-318 -1177 1178 0
-1178 1199 0
-319 -1178 1179 0
-1179 1200 0
-320 -1179 1180 0
-1180 1201 0
-321 -1180 1181 0
-1181 1202 0
-322 -1181 1182 0
-1182 1203 0
-323 -1182 1183 0
-1183 1204 0
-324 -1183 1184 0
-1184 1205 0
-325 -1184 0
-305 1185 0
-1185 1206 0
-306 -1185 1186 0
-1186 1207 0
-307 -1186 1187 0
-1187 1208 0
-308 -1187 1188 0
-1188 1209 0
-309 -1188 1189 0
-1189 1210 0
-310 -1189 1190 0
-1190 1211 0
-311 -1190 1191 0
-1191 1212 0
-312 -1191 1192 0
-1192 1213 0
-313 -1192 1193 0
-1193 1214 0
-314 -1193 1194 0
-1194 1215 0
-315 -1194 1195 0
-1195 1216 0
-316 -1195 1196 0
-1196 1217 0
-317 -1196 1197 0
-1197 1218 0
-318 -1197 1198 0
-1198 1219 0
-319 -1198 1199 0
-1199 1220 0
-320 -1199 1200 0
-1200 1221 0
-321 -1200 1201 0
-1201 1222 0
-322 -1201 1202 0
-1202 1223 0
-323 -1202 1203 0
-1203 1224 0
-324 -1203 1204 0
-1204 1225 0
-325 -1204 1205 0
-1205 1226 0
-326 -1205 0
-306 1206 0
-1206 1227 0
-307 -1206 1207 0
-1207 1228 0
-308 -1207 1208 0
-1208 1229 0
-309 -1208 1209 0
-1209 1230 0
-310 -1209 1210 0
-1210 1231 0
-311 -1210 1211 0
-1211 1232 0
-312 -1211 1212 0
-1212 1233 0
-313 -1212 1213 0
-1213 1234 0
-314 -1213 1214 0
-1214 1235 0
-315 -1214 1215 0
-1215 1236 0
-316 -1215 1216 0
-1216 1237 0
-317 -1216 1217 0
-1217 1238 0
-318 -1217 1218 0
-1218 1239 0
-319 -1218 1219 0
-1219 1240 0
-320 -1219 1220 0
-1220 1241 0
-321 -1220 1221 0
-1221 1242 0
-322 -1221 1222 0
-1222 1243 0
-323 -1222 1223 0
-1223 1244 0
-324 -1223 1224 0
-1224 1245 0
-325 -1224 1225 0
-1225 1246 0
-326 -1225 1226 0
-1226 1247 0
-327 -1226 0
-307 1227 0
-1227 1248 0
-308 -1227 1228 0
-1228 1249 0
-309 -1228 1229 0
-1229 1250 0
-310 -1229 1230 0
-1230 1251 0
-311 -1230 1231 0
-1231 1252 0
-312 -1231 1232 0
-1232 1253 0
-313 -1232 1233 0
-1233 1254 0
-314 -1233 1234 0
-1234 1255 0
-315 -1234 1235 0
-1235 1256 0
-316 -1235 1236 0
-1236 1257 0
-317 -1236 1237 0
-1237 1258 0
-318 -1237 1238 0
-1238 1259 0
-319 -1238 1239 0
-1239 1260 0
-320 -1239 1240 0
-1240 1261 0
-321 -1240 1241 0
-1241 1262 0
-322 -1241 1242 0
-1242 1263 0
-323 -1242 1243 0
-1243 1264 0
-324 -1243 1244 0
-1244 1265 0
-325 -1244 1245 0
-1245 1266 0
-326 -1245 1246 0
-1246 1267 0
-327 -1246 1247 0
-1247 1268 0
-328 -1247 0
-308 1248 0
-1248 1269 0
-309 -1248 1249 0
-1249 1270 0
-310 -1249 1250 0
-1250 1271 0
-311 -1250 1251 0
-1251 1272 0
-312 -1251 1252 0
-1252 1273 0
-313 -1252 1253 0
-1253 1274 0
-314 -1253 1254 0
-1254 1275 0
-315 -1254 1255 0
-1255 1276 0
-316 -1255 1256 0
-1256 1277 0
-317 -1256 1257 0
-1257 1278 0
-318 -1257 1258 0
-1258 1279 0
-319 -1258 1259 0
-1259 1280 0
-320 -1259 1260 0
-1260 1281 0
-321 -1260 1261 0
-1261 1282 0
-322 -1261 1262 0
-1262 1283 0
-323 -1262 1263 0
-1263 1284 0
-324 -1263 1264 0
-1264 1285 0
-325 -1264 1265 0
-1265 1286 0
-326 -1265 1266 0
-1266 1287 0
-327 -1266 1267 0
-1267 1288 0
-328 -1267 1268 0
-1268 1289 0
-329 -1268 0
-309 1269 0
-1269 1290 0
-310 -1269 1270 0
-1270 1291 0
-311 -1270 1271 0
-1271 1292 0
-312 -1271 1272 0
-1272 1293 0
-313 -1272 1273 0
-1273 1294 0
-314 -1273 1274 0
-1274 1295 0
-315 -1274 1275 0
-1275 1296 0
-316 -1275 1276 0
-1276 1297 0
-317 -1276 1277 0
-1277 1298 0
-318 -1277 1278 0
-1278 1299 0
-319 -1278 1279 0
-1279 1300 0
-320 -1279 1280 0
-1280 1301 0
-321 -1280 1281 0
-1281 1302 0
-322 -1281 1282 0
-1282 1303 0
-323 -1282 1283 0
-1283 1304 0
-324 -1283 1284 0
-1284 1305 0
-325 -1284 1285 0
-1285 1306 0
-326 -1285 1286 0
-1286 1307 0
-327 -1286 1287 0
-1287 1308 0
-328 -1287 1288 0
-1288 1309 0
-329 -1288 1289 0
-1289 1310 0
-330 -1289 0
-310 1290 0
-1290 1311 0
-311 -1290 1291 0
-1291 1312 0
-312 -1291 1292 0
-1292 1313 0
-313 -1292 1293 0
-1293 1314 0
-314 -1293 1294 0
-1294 1315 0
-315 -1294 1295 0
-1295 1316 0
-316 -1295 1296 0
-1296 1317 0
-317 -1296 1297 0
-1297 1318 0
-318 -1297 1298 0
-1298 1319 0
-319 -1298 1299 0
-1299 1320 0
-320 -1299 1300 0
-1300 1321 0
-321 -1300 1301 0
-1301 1322 0
-322 -1301 1302 0
-1302 1323 0
-323 -1302 1303 0
-1303 1324 0
-324 -1303 1304 0
-1304 1325 0
-325 -1304 1305 0
-1305 1326 0
-326 -1305 1306 0
-1306 1327 0
-327 -1306 1307 0
-1307 1328 0
-328 -1307 1308 0
-1308 1329 0
-329 -1308 1309 0
-1309 1330 0
-330 -1309 1310 0
-1310 1331 0
-331 -1310 0
-311 1311 0
-1311 1332 0
-312 -1311 1312 0
-1312 1333 0
-313 -1312 1313 0
-1313 1334 0
-314 -1313 1314 0
-1314 1335 0
-315 -1314 1315 0
-1315 1336 0
-316 -1315 1316 0
-1316 1337 0
-317 -1316 1317 0
-1317 1338 0
-318 -1317 1318 0
-1318 1339 0
-319 -1318 1319 0
-1319 1340 0
-320 -1319 1320 0
-1320 1341 0
-321 -1320 1321 0
-1321 1342 0
-322 -1321 1322 0
-1322 1343 0
-323 -1322 1323 0
-1323 1344 0
-324 -1323 1324 0
-1324 1345 0
-325 -1324 1325 0
-1325 1346 0
-326 -1325 1326 0
-1326 1347 0
-327 -1326 1327 0
-1327 1348 0
-328 -1327 1328 0
-1328 1349 0
-329 -1328 1329 0
-1329 1350 0
-330 -1329 1330 0
-1330 1351 0
-331 -1330 1331 0
-1331 1352 0
-332 -1331 0
-312 1332 0
-1332 1353 0
-313 -1332 1333 0
-1333 1354 0
-314 -1333 1334 0
-1334 1355 0
-315 -1334 1335 0
-1335 1356 0
-316 -1335 1336 0
-1336 1357 0
-317 -1336 1337 0
-1337 1358 0
-318 -1337 1338 0
-1338 1359 0
-319 -1338 1339 0
-1339 1360 0
-320 -1339 1340 0
-1340 1361 0
-321 -1340 1341 0
-1341 1362 0
-322 -1341 1342 0
-1342 1363 0
-323 -1342 1343 0
-1343 1364 0
-324 -1343 1344 0
-1344 1365 0
-325 -1344 1345 0
-1345 1366 0
-326 -1345 1346 0
-1346 1367 0
-327 -1346 1347 0
-1347 1368 0
-328 -1347 1348 0
-1348 1369 0
-329 -1348 1349 0
-1349 1370 0
-330 -1349 1350 0
-1350 1371 0
-331 -1350 1351 0
-1351 1372 0
-332 -1351 1352 0
-1352 1373 0
-333 -1352 0
-313 1353 0
-1353 1374 0
-314 -1353 1354 0
-1354 1375 0
-315 -1354 1355 0
-1355 1376 0
-316 -1355 1356 0
-1356 1377 0
-317 -1356 1357 0
-1357 1378 0
-318 -1357 1358 0
-1358 1379 0
-319 -1358 1359 0
-1359 1380 0
-320 -1359 1360 0
-1360 1381 0
-321 -1360 1361 0
-1361 1382 0
-322 -1361 1362 0
-1362 1383 0
-323 -1362 1363 0
-1363 1384 0
-324 -1363 1364 0
-1364 1385 0
-325 -1364 1365 0
-1365 1386 0
-326 -1365 1366 0
-1366 1387 0
-327 -1366 1367 0
-1367 1388 0
-328 -1367 1368 0
-1368 1389 0
-329 -1368 1369 0
-1369 1390 0
-330 -1369 1370 0
-1370 1391 0
-331 -1370 1371 0
-1371 1392 0
-332 -1371 1372 0
-1372 1393 0
-333 -1372 1373 0
-1373 1394 0
-334 -1373 0
-314 1374 0
-1374 1395 0
-315 -1374 1375 0
-1375 1396 0
-316 -1375 1376 0
-1376 1397 0
-317 -1376 1377 0
-1377 1398 0
-318 -1377 1378 0
-1378 1399 0
-319 -1378 1379 0
-1379 1400 0
-320 -1379 1380 0
-1380 1401 0
-321 -1380 1381 0
-1381 1402 0
-322 -1381 1382 0
-1382 1403 0
-323 -1382 1383 0
-1383 1404 0
-324 -1383 1384 0
-1384 1405 0
-325 -1384 1385 0
-1385 1406 0
-326 -1385 1386 0
-1386 1407 0
-327 -1386 1387 0
-1387 1408 0
-328 -1387 1388 0
-1388 1409 0
-329 -1388 1389 0
-1389 1410 0
-330 -1389 1390 0
-1390 1411 0
-331 -1390 1391 0
-1391 1412 0
-332 -1391 1392 0
-1392 1413 0
-333 -1392 1393 0
-1393 1414 0
-334 -1393 1394 0
-1394 1415 0
-335 -1394 0
-315 1395 0
-1395 1416 0
-316 -1395 1396 0
-1396 1417 0
-317 -1396 1397 0
-1397 1418 0
-318 -1397 1398 0
-1398 1419 0
-319 -1398 1399 0
-1399 1420 0
-320 -1399 1400 0
-1400 1421 0
-321 -1400 1401 0
-1401 1422 0
-322 -1401 1402 0
-1402 1423 0
-323 -1402 1403 0
-1403 1424 0
-324 -1403 1404 0
-1404 1425 0
-325 -1404 1405 0
-1405 1426 0
-326 -1405 1406 0
-1406 1427 0
-327 -1406 1407 0
-1407 1428 0
-328 -1407 1408 0
-1408 1429 0
-329 -1408 1409 0
-1409 1430 0
-330 -1409 1410 0
-1410 1431 0
-331 -1410 1411 0
-1411 1432 0
-332 -1411 1412 0
-1412 1433 0
-333 -1412 1413 0
-1413 1434 0
-334 -1413 1414 0
-1414 1435 0
-335 -1414 1415 0
-1415 1436 0
-336 -1415 0
-316 1416 0
-1416 1437 0
-317 -1416 1417 0
-1417 1438 0
-318 -1417 1418 0
-1418 1439 0
-319 -1418 1419 0
-1419 1440 0
-320 -1419 1420 0
-1420 1441 0
-321 -1420 1421 0
-1421 1442 0
-322 -1421 1422 0
-1422 1443 0
-323 -1422 1423 0
-1423 1444 0
-324 -1423 1424 0
-1424 1445 0
-325 -1424 1425 0
-1425 1446 0
-326 -1425 1426 0
-1426 1447 0
-327 -1426 1427 0
-1427 1448 0
-328 -1427 1428 0
-1428 1449 0
-329 -1428 1429 0
-1429 1450 0
-330 -1429 1430 0
-1430 1451 0
-331 -1430 1431 0
-1431 1452 0
-332 -1431 1432 0
-1432 1453 0
-333 -1432 1433 0
-1433 1454 0
-334 -1433 1434 0
-1434 1455 0
-335 -1434 1435 0
-1435 1456 0
-336 -1435 1436 0
-1436 1457 0
-337 -1436 0
-317 1437 0
-1437 1458 0
-318 -1437 1438 0
-1438 1459 0
-319 -1438 1439 0
-1439 1460 0
-320 -1439 1440 0
-1440 1461 0
-321 -1440 1441 0
-1441 1462 0
-322 -1441 1442 0
-1442 1463 0
-323 -1442 1443 0
-1443 1464 0
-324 -1443 1444 0
-1444 1465 0
-325 -1444 1445 0
-1445 1466 0
-326 -1445 1446 0
-1446 1467 0
-327 -1446 1447 0
-1447 1468 0
-328 -1447 1448 0
-1448 1469 0
-329 -1448 1449 0
-1449 1470 0
-330 -1449 1450 0
-1450 1471 0
-331 -1450 1451 0
-1451 1472 0
-332 -1451 1452 0
-1452 1473 0
-333 -1452 1453 0
-1453 1474 0
-334 -1453 1454 0
-1454 1475 0
-335 -1454 1455 0
-1455 1476 0
-336 -1455 1456 0
-1456 1477 0
-337 -1456 1457 0
-1457 1478 0
-338 -1457 0
-318 1458 0
-1458 1479 0
-319 -1458 1459 0
-1459 1480 0
-320 -1459 1460 0
-1460 1481 0
-321 -1460 1461 0
-1461 1482 0
-322 -1461 1462 0
-1462 1483 0
-323 -1462 1463 0
-1463 1484 0
-324 -1463 1464 0
-1464 1485 0
-325 -1464 1465 0
-1465 1486 0
-326 -1465 1466 0
-1466 1487 0
-327 -1466 1467 0
-1467 1488 0
-328 -1467 1468 0
-1468 1489 0
-329 -1468 1469 0
-1469 1490 0
-330 -1469 1470 0
-1470 1491 0
-331 -1470 1471 0
-1471 1492 0
-332 -1471 1472 0
-1472 1493 0
-333 -1472 1473 0
-1473 1494 0
-334 -1473 1474 0
-1474 1495 0
-335 -1474 1475 0
-1475 1496 0
-336 -1475 1476 0
-1476 1497 0
-337 -1476 1477 0
-1477 1498 0
-338 -1477 1478 0
-1478 1499 0
-339 -1478 0
-319 1479 0
-1479 1500 0
-320 -1479 1480 0
-1480 1501 0
-321 -1480 1481 0
-1481 1502 0
-322 -1481 1482 0
-1482 1503 0
-323 -1482 1483 0
-1483 1504 0
-324 -1483 1484 0
-1484 1505 0
-325 -1484 1485 0
-1485 1506 0
-326 -1485 1486 0
-1486 1507 0
-327 -1486 1487 0
-1487 1508 0
-328 -1487 1488 0
-1488 1509 0
-329 -1488 1489 0
-1489 1510 0
-330 -1489 1490 0
-1490 1511 0
-331 -1490 1491 0
-1491 1512 0
-332 -1491 1492 0
-1492 1513 0
-333 -1492 1493 0
-1493 1514 0
-334 -1493 1494 0
-1494 1515 0
-335 -1494 1495 0
-1495 1516 0
-336 -1495 1496 0
-1496 1517 0
-337 -1496 1497 0
-1497 1518 0
-338 -1497 1498 0
-1498 1519 0
-339 -1498 1499 0
-1499 1520 0
-340 -1499 0
-320 1500 0
-1500 1521 0
-321 -1500 1501 0
-1501 1522 0
-322 -1501 1502 0
-1502 1523 0
-323 -1502 1503 0
-1503 1524 0
-324 -1503 1504 0
-1504 1525 0
-325 -1504 1505 0
-1505 1526 0
-326 -1505 1506 0
-1506 1527 0
-327 -1506 1507 0
-1507 1528 0
-328 -1507 1508 0
-1508 1529 0
-329 -1508 1509 0
-1509 1530 0
-330 -1509 1510 0
-1510 1531 0
-331 -1510 1511 0
-1511 1532 0
-332 -1511 1512 0
-1512 1533 0
-333 -1512 1513 0
-1513 1534 0
-334 -1513 1514 0
-1514 1535 0
-335 -1514 1515 0
-1515 1536 0
-336 -1515 1516 0
-1516 1537 0
-337 -1516 1517 0
-1517 1538 0
-338 -1517 1518 0
-1518 1539 0
-339 -1518 1519 0
-1519 1540 0
-340 -1519 1520 0
-1520 1541 0
-341 -1520 0
-321 1521 0
-1521 1542 0
-322 -1521 1522 0
-1522 1543 0
-323 -1522 1523 0
-1523 1544 0
-324 -1523 1524 0
-1524 1545 0
-325 -1524 1525 0
-1525 1546 0
-326 -1525 1526 0
-1526 1547 0
-327 -1526 1527 0
-1527 1548 0
-328 -1527 1528 0
-1528 1549 0
-329 -1528 1529 0
-1529 1550 0
-330 -1529 1530 0
-1530 1551 0
-331 -1530 1531 0
-1531 1552 0
-332 -1531 1532 0
-1532 1553 0
-333 -1532 1533 0
-1533 1554 0
-334 -1533 1534 0
-1534 1555 0
-335 -1534 1535 0
-1535 1556 0
-336 -1535 1536 0
-1536 1557 0
-337 -1536 1537 0
-1537 1558 0
-338 -1537 1538 0
-1538 1559 0
-339 -1538 1539 0
-1539 1560 0
-340 -1539 1540 0
-1540 1561 0
-341 -1540 1541 0
-1541 1562 0
-342 -1541 0
-322 1542 0
-1542 1563 0
-323 -1542 1543 0
-1543 1564 0
-324 -1543 1544 0
-1544 1565 0
-325 -1544 1545 0
-1545 1566 0
-326 -1545 1546 0
-1546 1567 0
-327 -1546 1547 0
-1547 1568 0
-328 -1547 1548 0
-1548 1569 0
-329 -1548 1549 0
-1549 1570 0
-330 -1549 1550 0
-1550 1571 0
-331 -1550 1551 0
-1551 1572 0
-332 -1551 1552 0
-1552 1573 0
-333 -1552 1553 0
-1553 1574 0
-334 -1553 1554 0
-1554 1575 0
-335 -1554 1555 0
-1555 1576 0
-336 -1555 1556 0
-1556 1577 0
-337 -1556 1557 0
-1557 1578 0
-338 -1557 1558 0
-1558 1579 0
-339 -1558 1559 0
-1559 1580 0
-340 -1559 1560 0
-1560 1581 0
-341 -1560 1561 0
-1561 1582 0
-342 -1561 1562 0
-1562 1583 0
-343 -1562 0
-323 1563 0
-1563 1584 0
-324 -1563 1564 0
-1564 1585 0
-325 -1564 1565 0
-1565 1586 0
-326 -1565 1566 0
-1566 1587 0
-327 -1566 1567 0
-1567 1588 0
-328 -1567 1568 0
-1568 1589 0
-329 -1568 1569 0
-1569 1590 0
-330 -1569 1570 0
-1570 1591 0
-331 -1570 1571 0
-1571 1592 0
-332 -1571 1572 0
-1572 1593 0
-333 -1572 1573 0
-1573 1594 0
-334 -1573 1574 0
-1574 1595 0
-335 -1574 1575 0
-1575 1596 0
-336 -1575 1576 0
-1576 1597 0
-337 -1576 1577 0
-1577 1598 0
-338 -1577 1578 0
-1578 1599 0
-339 -1578 1579 0
-1579 1600 0
-340 -1579 1580 0
-1580 1601 0
-341 -1580 1581 0
-1581 1602 0
-342 -1581 1582 0
-1582 1603 0
-343 -1582 1583 0
-1583 1604 0
-344 -1583 0
-324 1584 0
-1584 1605 0
-325 -1584 1585 0
-1585 1606 0
-326 -1585 1586 0
-1586 1607 0
-327 -1586 1587 0
-1587 1608 0
-328 -1587 1588 0
-1588 1609 0
-329 -1588 1589 0
-1589 1610 0
-330 -1589 1590 0
-1590 1611 0
-331 -1590 1591 0
-1591 1612 0
-332 -1591 1592 0
-1592 1613 0
-333 -1592 1593 0
-1593 1614 0
-334 -1593 1594 0
-1594 1615 0
-335 -1594 1595 0
-1595 1616 0
-336 -1595 1596 0
-1596 1617 0
-337 -1596 1597 0
-1597 1618 0
-338 -1597 1598 0
-1598 1619 0
-339 -1598 1599 0
-1599 1620 0
-340 -1599 1600 0
-1600 1621 0
-341 -1600 1601 0
-1601 1622 0
-342 -1601 1602 0
-1602 1623 0
-343 -1602 1603 0
-1603 1624 0
-344 -1603 1604 0
-1604 1625 0
-345 -1604 0
-325 1605 0
-1605 1626 0
-326 -1605 1606 0
-1606 1627 0
-327 -1606 1607 0
-1607 1628 0
-328 -1607 1608 0
-1608 1629 0
-329 -1608 1609 0
-1609 1630 0
-330 -1609 1610 0
-1610 1631 0
-331 -1610 1611 0
-1611 1632 0
-332 -1611 1612 0
-1612 1633 0
-333 -1612 1613 0
-1613 1634 0
-334 -1613 1614 0
-1614 1635 0
-335 -1614 1615 0
-1615 1636 0
-336 -1615 1616 0
-1616 1637 0
-337 -1616 1617 0
-1617 1638 0
-338 -1617 1618 0
-1618 1639 0
-339 -1618 1619 0
-1619 1640 0
-340 -1619 1620 0
-1620 1641 0
-341 -1620 1621 0
-1621 1642 0
-342 -1621 1622 0
-1622 1643 0
-343 -1622 1623 0
-1623 1644 0
-344 -1623 1624 0
-1624 1645 0
-345 -1624 1625 0
-1625 1646 0
-346 -1625 0
-326 1626 0
-1626 1647 0
-327 -1626 1627 0
-1627 1648 0
-328 -1627 1628 0
-1628 1649 0
-329 -1628 1629 0
-1629 1650 0
-330 -1629 1630 0
-1630 1651 0
-331 -1630 1631 0
-1631 1652 0
-332 -1631 1632 0
-1632 1653 0
-333 -1632 1633 0
-1633 1654 0
-334 -1633 1634 0
-1634 1655 0
-335 -1634 1635 0
-1635 1656 0
-336 -1635 1636 0
-1636 1657 0
-337 -1636 1637 0
-1637 1658 0
-338 -1637 1638 0
-1638 1659 0
-339 -1638 1639 0
-1639 1660 0
-340 -1639 1640 0
-1640 1661 0
-341 -1640 1641 0
-1641 1662 0
-342 -1641 1642 0
-1642 1663 0
-343 -1642 1643 0
-1643 1664 0
-344 -1643 1644 0
-1644 1665 0
-345 -1644 1645 0
-1645 1666 0
-346 -1645 1646 0
-1646 1667 0
-347 -1646 0
-327 1647 0
-1647 1668 0
-328 -1647 1648 0
-1648 1669 0
-329 -1648 1649 0
-1649 1670 0
-330 -1649 1650 0
-1650 1671 0
-331 -1650 1651 0
-1651 1672 0
-332 -1651 1652 0
-1652 1673 0
-333 -1652 1653 0
-1653 1674 0
-334 -1653 1654 0
-1654 1675 0
-335 -1654 1655 0
-1655 1676 0
-336 -1655 1656 0
-1656 1677 0
-337 -1656 1657 0
-1657 1678 0
-338 -1657 1658 0
-1658 1679 0
-339 -1658 1659 0
-1659 1680 0
-340 -1659 1660 0
-1660 1681 0
-341 -1660 1661 0
-1661 1682 0
-342 -1661 1662 0
-1662 1683 0
-343 -1662 1663 0
-1663 1684 0
-344 -1663 1664 0
-1664 1685 0
-345 -1664 1665 0
-1665 1686 0
-346 -1665 1666 0
-1666 1687 0
-347 -1666 1667 0
-1667 1688 0
-348 -1667 0
-328 1668 0
-1668 1689 0
-329 -1668 1669 0
-1669 1690 0
-330 -1669 1670 0
-1670 1691 0
-331 -1670 1671 0
-1671 1692 0
-332 -1671 1672 0
-1672 1693 0
-333 -1672 1673 0
-1673 1694 0
-334 -1673 1674 0
-1674 1695 0
-335 -1674 1675 0
-1675 1696 0
-336 -1675 1676 0
-1676 1697 0
-337 -1676 1677 0
-1677 1698 0
-338 -1677 1678 0
-1678 1699 0
-339 -1678 1679 0
-1679 1700 0
-340 -1679 1680 0
-1680 1701 0
-341 -1680 1681 0
-1681 1702 0
-342 -1681 1682 0
-1682 1703 0
-343 -1682 1683 0
-1683 1704 0
-344 -1683 1684 0
-1684 1705 0
-345 -1684 1685 0
-1685 1706 0
-346 -1685 1686 0
-1686 1707 0
-347 -1686 1687 0
-1687 1708 0
-348 -1687 1688 0
-1688 1709 0
-349 -1688 0
-329 1689 0
-1689 1710 0
-330 -1689 1690 0
-1690 1711 0
-331 -1690 1691 0
-1691 1712 0
-332 -1691 1692 0
-1692 1713 0
-333 -1692 1693 0
-1693 1714 0
-334 -1693 1694 0
-1694 1715 0
-335 -1694 1695 0
-1695 1716 0
-336 -1695 1696 0
-1696 1717 0
-337 -1696 1697 0
-1697 1718 0
-338 -1697 1698 0
-1698 1719 0
-339 -1698 1699 0
-1699 1720 0
-340 -1699 1700 0
-1700 1721 0
-341 -1700 1701 0
-1701 1722 0
-342 -1701 1702 0
-1702 1723 0
-343 -1702 1703 0
-1703 1724 0
-344 -1703 1704 0
-1704 1725 0
-345 -1704 1705 0
-1705 1726 0
-346 -1705 1706 0
-1706 1727 0
-347 -1706 1707 0
-1707 1728 0
-348 -1707 1708 0
-1708 1729 0
-349 -1708 1709 0
-1709 1730 0
-350 -1709 0
-330 1710 0
-1710 1731 0
-331 -1710 1711 0
-1711 1732 0
-332 -1711 1712 0
-1712 1733 0
-333 -1712 1713 0
-1713 1734 0
-334 -1713 1714 0
-1714 1735 0
-335 -1714 1715 0
-1715 1736 0
-336 -1715 1716 0
-1716 1737 0
-337 -1716 1717 0
-1717 1738 0
-338 -1717 1718 0
-1718 1739 0
-339 -1718 1719 0
-1719 1740 0
-340 -1719 1720 0
-1720 1741 0
-341 -1720 1721 0
-1721 1742 0
-342 -1721 1722 0
-1722 1743 0
-343 -1722 1723 0
-1723 1744 0
-344 -1723 1724 0
-1724 1745 0
-345 -1724 1725 0
-1725 1746 0
-346 -1725 1726 0
-1726 1747 0
-347 -1726 1727 0
-1727 1748 0
-348 -1727 1728 0
-1728 1749 0
-349 -1728 1729 0
-1729 1750 0
-350 -1729 1730 0
-1730 1751 0
-351 -1730 0
-331 1731 0
-1731 1752 0
-332 -1731 1732 0
-1732 1753 0
-333 -1732 1733 0
-1733 1754 0
-334 -1733 1734 0
-1734 1755 0
-335 -1734 1735 0
-1735 1756 0
-336 -1735 1736 0
-1736 1757 0
-337 -1736 1737 0
-1737 1758 0
-338 -1737 1738 0
-1738 1759 0
-339 -1738 1739 0
-1739 1760 0
-340 -1739 1740 0
-1740 1761 0
-341 -1740 1741 0
-1741 1762 0
-342 -1741 1742 0
-1742 1763 0
-343 -1742 1743 0
-1743 1764 0
-344 -1743 1744 0
-1744 1765 0
-345 -1744 1745 0
-1745 1766 0
-346 -1745 1746 0
-1746 1767 0
-347 -1746 1747 0
-1747 1768 0
-348 -1747 1748 0
-1748 1769 0
-349 -1748 1749 0
-1749 1770 0
-350 -1749 1750 0
-1750 1771 0
-351 -1750 1751 0
-1751 1772 0
-352 -1751 0
-332 1752 0
-1752 1773 0
-333 -1752 1753 0
-1753 1774 0
-334 -1753 1754 0
-1754 1775 0
-335 -1754 1755 0
-1755 1776 0
-336 -1755 1756 0
-1756 1777 0
-337 -1756 1757 0
-1757 1778 0
-338 -1757 1758 0
-1758 1779 0
-339 -1758 1759 0
-1759 1780 0
-340 -1759 1760 0
-1760 1781 0
-341 -1760 1761 0
-1761 1782 0
-342 -1761 1762 0
-1762 1783 0
-343 -1762 1763 0
-1763 1784 0
-344 -1763 1764 0
-1764 1785 0
-345 -1764 1765 0
-1765 1786 0
-346 -1765 1766 0
-1766 1787 0
-347 -1766 1767 0
-1767 1788 0
-348 -1767 1768 0
-1768 1789 0
-349 -1768 1769 0
-1769 1790 0
-350 -1769 1770 0
-1770 1791 0
-351 -1770 1771 0
-1771 1792 0
-352 -1771 1772 0
-1772 1793 0
-353 -1772 0
-333 1773 0
-1773 1794 0
-334 -1773 1774 0
-1774 1795 0
-335 -1774 1775 0
-1775 1796 0
-336 -1775 1776 0
-1776 1797 0
-337 -1776 1777 0
-1777 1798 0
-338 -1777 1778 0
-1778 1799 0
-339 -1778 1779 0
-1779 1800 0
-340 -1779 1780 0
-1780 1801 0
-341 -1780 1781 0
-1781 1802 0
-342 -1781 1782 0
-1782 1803 0
-343 -1782 1783 0
-1783 1804 0
-344 -1783 1784 0
-1784 1805 0
-345 -1784 1785 0
-1785 1806 0
-346 -1785 1786 0
-1786 1807 0
-347 -1786 1787 0
-1787 1808 0
-348 -1787 1788 0
-1788 1809 0
-349 -1788 1789 0
-1789 1810 0
-350 -1789 1790 0
-1790 1811 0
-351 -1790 1791 0
-1791 1812 0
-352 -1791 1792 0
-1792 1813 0
-353 -1792 1793 0
-1793 1814 0
-354 -1793 0
-334 1794 0
-1794 1815 0
-335 -1794 1795 0
-1795 1816 0
-336 -1795 1796 0
-1796 1817 0
-337 -1796 1797 0
-1797 1818 0
-338 -1797 1798 0
-1798 1819 0
-339 -1798 1799 0
-1799 1820 0
-340 -1799 1800 0
-1800 1821 0
-341 -1800 1801 0
-1801 1822 0
-342 -1801 1802 0
-1802 1823 0
-343 -1802 1803 0
-1803 1824 0
-344 -1803 1804 0
-1804 1825 0
-345 -1804 1805 0
-1805 1826 0
-346 -1805 1806 0
-1806 1827 0
-347 -1806 1807 0
-1807 1828 0
-348 -1807 1808 0
-1808 1829 0
-349 -1808 1809 0
-1809 1830 0
-350 -1809 1810 0
-1810 1831 0
-351 -1810 1811 0
-1811 1832 0
-352 -1811 1812 0
-1812 1833 0
-353 -1812 1813 0
-1813 1834 0
-354 -1813 1814 0
-1814 1835 0
-355 -1814 0
-335 1815 0
-1815 1836 0
-336 -1815 1816 0
-1816 1837 0
-337 -1816 1817 0
-1817 1838 0
-338 -1817 1818 0
-1818 1839 0
-339 -1818 1819 0
-1819 1840 0
-340 -1819 1820 0
-1820 1841 0
-341 -1820 1821 0
-1821 1842 0
-342 -1821 1822 0
-1822 1843 0
-343 -1822 1823 0
-1823 1844 0
-344 -1823 1824 0
-1824 1845 0
-345 -1824 1825 0
-1825 1846 0
-346 -1825 1826 0
-1826 1847 0
-347 -1826 1827 0
-1827 1848 0
-348 -1827 1828 0
-1828 1849 0
-349 -1828 1829 0
-1829 1850 0
-350 -1829 1830 0
-1830 1851 0
-351 -1830 1831 0
-1831 1852 0
-352 -1831 1832 0
-1832 1853 0
-353 -1832 1833 0
-1833 1854 0
-354 -1833 1834 0
-1834 1855 0
-355 -1834 1835 0
-1835 1856 0
-356 -1835 0
-336 1836 0
-1836 1857 0
-337 -1836 1837 0
-1837 1858 0
-338 -1837 1838 0
-1838 1859 0
-339 -1838 1839 0
-1839 1860 0
-340 -1839 1840 0
-1840 1861 0
-341 -1840 1841 0
-1841 1862 0
-342 -1841 1842 0
-1842 1863 0
-343 -1842 1843 0
-1843 1864 0
-344 -1843 1844 0
-1844 1865 0
-345 -1844 1845 0
-1845 1866 0
-346 -1845 1846 0
-1846 1867 0
-347 -1846 1847 0
-1847 1868 0
-348 -1847 1848 0
-1848 1869 0
-349 -1848 1849 0
-1849 1870 0
-350 -1849 1850 0
-1850 1871 0
-351 -1850 1851 0
-1851 1872 0
-352 -1851 1852 0
-1852 1873 0
-353 -1852 1853 0
-1853 1874 0
-354 -1853 1854 0
-1854 1875 0
-355 -1854 1855 0
-1855 1876 0
-356 -1855 1856 0
-1856 1877 0
-357 -1856 0
-337 1857 0
-1857 1878 0
-338 -1857 1858 0
-1858 1879 0
-339 -1858 1859 0
-1859 1880 0
-340 -1859 1860 0
-1860 1881 0
-341 -1860 1861 0
-1861 1882 0
-342 -1861 1862 0
-1862 1883 0
-343 -1862 1863 0
-1863 1884 0
-344 -1863 1864 0
-1864 1885 0
-345 -1864 1865 0
-1865 1886 0
-346 -1865 1866 0
-1866 1887 0
-347 -1866 1867 0
-1867 1888 0
-348 -1867 1868 0
-1868 1889 0
-349 -1868 1869 0
-1869 1890 0
-350 -1869 1870 0
-1870 1891 0
-351 -1870 1871 0
-1871 1892 0
-352 -1871 1872 0
-1872 1893 0
-353 -1872 1873 0
-1873 1894 0
-354 -1873 1874 0
-1874 1895 0
-355 -1874 1875 0
-1875 1896 0
-356 -1875 1876 0
-1876 1897 0
-357 -1876 1877 0
-1877 1898 0
-358 -1877 0
-338 1878 0
-1878 1899 0
-339 -1878 1879 0
-1879 1900 0
-340 -1879 1880 0
-1880 1901 0
-341 -1880 1881 0
-1881 1902 0
-342 -1881 1882 0
-1882 1903 0
-343 -1882 1883 0
-1883 1904 0
-344 -1883 1884 0
-1884 1905 0
-345 -1884 1885 0
-1885 1906 0
-346 -1885 1886 0
-1886 1907 0
-347 -1886 1887 0
-1887 1908 0
-348 -1887 1888 0
-1888 1909 0
-349 -1888 1889 0
-1889 1910 0
-350 -1889 1890 0
-1890 1911 0
-351 -1890 1891 0
-1891 1912 0
-352 -1891 1892 0
-1892 1913 0
-353 -1892 1893 0
-1893 1914 0
-354 -1893 1894 0
-1894 1915 0
-355 -1894 1895 0
-1895 1916 0
-356 -1895 1896 0
-1896 1917 0
-357 -1896 1897 0
-1897 1918 0
-358 -1897 1898 0
-1898 1919 0
-359 -1898 0
-339 1899 0
-1899 1920 0
-340 -1899 1900 0
-1900 1921 0
-341 -1900 1901 0
-1901 1922 0
-342 -1901 1902 0
-1902 1923 0
-343 -1902 1903 0
-1903 1924 0
-344 -1903 1904 0
-1904 1925 0
-345 -1904 1905 0
-1905 1926 0
-346 -1905 1906 0
-1906 1927 0
-347 -1906 1907 0
-1907 1928 0
-348 -1907 1908 0
-1908 1929 0
-349 -1908 1909 0
-1909 1930 0
-350 -1909 1910 0
-1910 1931 0
-351 -1910 1911 0
-1911 1932 0
-352 -1911 1912 0
-1912 1933 0
-353 -1912 1913 0
-1913 1934 0
-354 -1913 1914 0
-1914 1935 0
-355 -1914 1915 0
-1915 1936 0
-356 -1915 1916 0
-1916 1937 0
-357 -1916 1917 0
-1917 1938 0
-358 -1917 1918 0
-1918 1939 0
-359 -1918 1919 0
-1919 1940 0
-360 -1919 0
-340 1920 0
-1920 1941 0
-341 -1920 1921 0
-1921 1942 0
-342 -1921 1922 0
-1922 1943 0
-343 -1922 1923 0
-1923 1944 0
-344 -1923 1924 0
-1924 1945 0
-345 -1924 1925 0
-1925 1946 0
-346 -1925 1926 0
-1926 1947 0
-347 -1926 1927 0
-1927 1948 0
-348 -1927 1928 0
-1928 1949 0
-349 -1928 1929 0
-1929 1950 0
-350 -1929 1930 0
-1930 1951 0
-351 -1930 1931 0
-1931 1952 0
-352 -1931 1932 0
-1932 1953 0
-353 -1932 1933 0
-1933 1954 0
-354 -1933 1934 0
-1934 1955 0
-355 -1934 1935 0
-1935 1956 0
-356 -1935 1936 0
-1936 1957 0
-357 -1936 1937 0
-1937 1958 0
-358 -1937 1938 0
-1938 1959 0
-359 -1938 1939 0
-1939 1960 0
-360 -1939 1940 0
-1940 1961 0
-361 -1940 0
-341 1941 0
-1941 1962 0
-342 -1941 1942 0
-1942 1963 0
-343 -1942 1943 0
-1943 1964 0
-344 -1943 1944 0
-1944 1965 0
-345 -1944 1945 0
-1945 1966 0
-346 -1945 1946 0
-1946 1967 0
-347 -1946 1947 0
-1947 1968 0
-348 -1947 1948 0
-1948 1969 0
-349 -1948 1949 0
-1949 1970 0
-350 -1949 1950 0
-1950 1971 0
-351 -1950 1951 0
-1951 1972 0
-352 -1951 1952 0
-1952 1973 0
-353 -1952 1953 0
-1953 1974 0
-354 -1953 1954 0
-1954 1975 0
-355 -1954 1955 0
-1955 1976 0
-356 -1955 1956 0
-1956 1977 0
-357 -1956 1957 0
-1957 1978 0
-358 -1957 1958 0
-1958 1979 0
-359 -1958 1959 0
-1959 1980 0
-360 -1959 1960 0
-1960 1981 0
-361 -1960 1961 0
-1961 1982 0
-362 -1961 0
-342 1962 0
-1962 1983 0
-343 -1962 1963 0
-1963 1984 0
-344 -1963 1964 0
-1964 1985 0
-345 -1964 1965 0
-1965 1986 0
-346 -1965 1966 0
-1966 1987 0
-347 -1966 1967 0
-1967 1988 0
-348 -1967 1968 0
-1968 1989 0
-349 -1968 1969 0
-1969 1990 0
-350 -1969 1970 0
-1970 1991 0
-351 -1970 1971 0
-1971 1992 0
-352 -1971 1972 0
-1972 1993 0
-353 -1972 1973 0
-1973 1994 0
-354 -1973 1974 0
-1974 1995 0
-355 -1974 1975 0
-1975 1996 0
-356 -1975 1976 0
-1976 1997 0
-357 -1976 1977 0
-1977 1998 0
-358 -1977 1978 0
-1978 1999 0
-359 -1978 1979 0
-1979 2000 0
-360 -1979 1980 0
-1980 2001 0
-361 -1980 1981 0
-1981 2002 0
-362 -1981 1982 0
-1982 2003 0
-363 -1982 0
-343 1983 0
-1983 2004 0
-344 -1983 1984 0
-1984 2005 0
-345 -1984 1985 0
-1985 2006 0
-346 -1985 1986 0
-1986 2007 0
-347 -1986 1987 0
-1987 2008 0
-348 -1987 1988 0
-1988 2009 0
-349 -1988 1989 0
-1989 2010 0
-350 -1989 1990 0
-1990 2011 0
-351 -1990 1991 0
-1991 2012 0
-352 -1991 1992 0
-1992 2013 0
-353 -1992 1993 0
-1993 2014 0
-354 -1993 1994 0
-1994 2015 0
-355 -1994 1995 0
-1995 2016 0
-356 -1995 1996 0
-1996 2017 0
-357 -1996 1997 0
-1997 2018 0
-358 -1997 1998 0
-1998 2019 0
-359 -1998 1999 0
-1999 2020 0
-360 -1999 2000 0
-2000 2021 0
-361 -2000 2001 0
-2001 2022 0
-362 -2001 2002 0
-2002 2023 0
-363 -2002 2003 0
-2003 2024 0
-364 -2003 0
-344 2004 0
-2004 2025 0
-345 -2004 2005 0
-2005 2026 0
-346 -2005 2006 0
-2006 2027 0
-347 -2006 2007 0
-2007 2028 0
-348 -2007 2008 0
-2008 2029 0
-349 -2008 2009 0
-2009 2030 0
-350 -2009 2010 0
-2010 2031 0
-351 -2010 2011 0
-2011 2032 0
-352 -2011 2012 0
-2012 2033 0
-353 -2012 2013 0
-2013 2034 0
-354 -2013 2014 0
-2014 2035 0
-355 -2014 2015 0
-2015 2036 0
-356 -2015 2016 0
-2016 2037 0
-357 -2016 2017 0
-2017 2038 0
-358 -2017 2018 0
-2018 2039 0
-359 -2018 2019 0
-2019 2040 0
-360 -2019 2020 0
-2020 2041 0
-361 -2020 2021 0
-2021 2042 0
-362 -2021 2022 0
-2022 2043 0
-363 -2022 2023 0
-2023 2044 0
-364 -2023 2024 0
-2024 2045 0
-365 -2024 0
-345 2025 0
-2025 2046 0
-346 -2025 2026 0
-2026 2047 0
-347 -2026 2027 0
-2027 2048 0
-348 -2027 2028 0
-2028 2049 0
-349 -2028 2029 0
-2029 2050 0
-350 -2029 2030 0
-2030 2051 0
-351 -2030 2031 0
-2031 2052 0
-352 -2031 2032 0
-2032 2053 0
-353 -2032 2033 0
-2033 2054 0
-354 -2033 2034 0
-2034 2055 0
-355 -2034 2035 0
-2035 2056 0
-356 -2035 2036 0
-2036 2057 0
-357 -2036 2037 0
-2037 2058 0
-358 -2037 2038 0
-2038 2059 0
-359 -2038 2039 0
-2039 2060 0
-360 -2039 2040 0
-2040 2061 0
-361 -2040 2041 0
-2041 2062 0
-362 -2041 2042 0
-2042 2063 0
-363 -2042 2043 0
-2043 2064 0
-364 -2043 2044 0
-2044 2065 0
-365 -2044 2045 0
-2045 2066 0
-366 -2045 0
-346 2046 0
-2046 2067 0
-347 -2046 2047 0
-2047 2068 0
-348 -2047 2048 0
-2048 2069 0
-349 -2048 2049 0
-2049 2070 0
-350 -2049 2050 0
-2050 2071 0
-351 -2050 2051 0
-2051 2072 0
-352 -2051 2052 0
-2052 2073 0
-353 -2052 2053 0
-2053 2074 0
-354 -2053 2054 0
-2054 2075 0
-355 -2054 2055 0
-2055 2076 0
-356 -2055 2056 0
-2056 2077 0
-357 -2056 2057 0
-2057 2078 0
-358 -2057 2058 0
-2058 2079 0
-359 -2058 2059 0
-2059 2080 0
-360 -2059 2060 0
-2060 2081 0
-361 -2060 2061 0
-2061 2082 0
-362 -2061 2062 0
-2062 2083 0
-363 -2062 2063 0
-2063 2084 0
-364 -2063 2064 0
-2064 2085 0
-365 -2064 2065 0
-2065 2086 0
-366 -2065 2066 0
-2066 2087 0
-367 -2066 0
-347 2067 0
-2067 2088 0
-348 -2067 2068 0
-2068 2089 0
-349 -2068 2069 0
-2069 2090 0
-350 -2069 2070 0
-2070 2091 0
-351 -2070 2071 0
-2071 2092 0
-352 -2071 2072 0
-2072 2093 0
-353 -2072 2073 0
-2073 2094 0
-354 -2073 2074 0
-2074 2095 0
-355 -2074 2075 0
-2075 2096 0
-356 -2075 2076 0
-2076 2097 0
-357 -2076 2077 0
-2077 2098 0
-358 -2077 2078 0
-2078 2099 0
-359 -2078 2079 0
-2079 2100 0
-360 -2079 2080 0
-2080 2101 0
-361 -2080 2081 0
-2081 2102 0
-362 -2081 2082 0
-2082 2103 0
-363 -2082 2083 0
-2083 2104 0
-364 -2083 2084 0
-2084 2105 0
-365 -2084 2085 0
-2085 2106 0
-366 -2085 2086 0
-2086 2107 0
-367 -2086 2087 0
-2087 2108 0
-368 -2087 0
-348 2088 0
-2088 2109 0
-349 -2088 2089 0
-2089 2110 0
-350 -2089 2090 0
-2090 2111 0
-351 -2090 2091 0
-2091 2112 0
-352 -2091 2092 0
-2092 2113 0
-353 -2092 2093 0
-2093 2114 0
-354 -2093 2094 0
-2094 2115 0
-355 -2094 2095 0
-2095 2116 0
-356 -2095 2096 0
-2096 2117 0
-357 -2096 2097 0
-2097 2118 0
-358 -2097 2098 0
-2098 2119 0
-359 -2098 2099 0
-2099 2120 0
-360 -2099 2100 0
-2100 2121 0
-361 -2100 2101 0
-2101 2122 0
-362 -2101 2102 0
-2102 2123 0
-363 -2102 2103 0
-2103 2124 0
-364 -2103 2104 0
-2104 2125 0
-365 -2104 2105 0
-2105 2126 0
-366 -2105 2106 0
-2106 2127 0
-367 -2106 2107 0
-2107 2128 0
-368 -2107 2108 0
-2108 2129 0
-369 -2108 0
-349 2109 0
-2109 2130 0
-350 -2109 2110 0
-2110 2131 0
-351 -2110 2111 0
-2111 2132 0
-352 -2111 2112 0
-2112 2133 0
-353 -2112 2113 0
-2113 2134 0
-354 -2113 2114 0
-2114 2135 0
-355 -2114 2115 0
-2115 2136 0
-356 -2115 2116 0
-2116 2137 0
-357 -2116 2117 0
-2117 2138 0
-358 -2117 2118 0
-2118 2139 0
-359 -2118 2119 0
-2119 2140 0
-360 -2119 2120 0
-2120 2141 0
-361 -2120 2121 0
-2121 2142 0
-362 -2121 2122 0
-2122 2143 0
-363 -2122 2123 0
-2123 2144 0
-364 -2123 2124 0
-2124 2145 0
-365 -2124 2125 0
-2125 2146 0
-366 -2125 2126 0
-2126 2147 0
-367 -2126 2127 0
-2127 2148 0
-368 -2127 2128 0
-2128 2149 0
-369 -2128 2129 0
-2129 2150 0
-370 -2129 0
-350 2130 0
-2130 2151 0
-351 -2130 2131 0
-2131 2152 0
-352 -2131 2132 0
-2132 2153 0
-353 -2132 2133 0
-2133 2154 0
-354 -2133 2134 0
-2134 2155 0
-355 -2134 2135 0
-2135 2156 0
-356 -2135 2136 0
-2136 2157 0
-357 -2136 2137 0
-2137 2158 0
-358 -2137 2138 0
-2138 2159 0
-359 -2138 2139 0
-2139 2160 0
-360 -2139 2140 0
-2140 2161 0
-361 -2140 2141 0
-2141 2162 0
-362 -2141 2142 0
-2142 2163 0
-363 -2142 2143 0
-2143 2164 0
-364 -2143 2144 0
-2144 2165 0
-365 -2144 2145 0
-2145 2166 0
-366 -2145 2146 0
-2146 2167 0
-367 -2146 2147 0
-2147 2168 0
-368 -2147 2148 0
-2148 2169 0
-369 -2148 2149 0
-2149 2170 0
-370 -2149 2150 0
-2150 2171 0
-371 -2150 0
-351 2151 0
-2151 2172 0
-352 -2151 2152 0
-2152 2173 0
-353 -2152 2153 0
-2153 2174 0
-354 -2153 2154 0
-2154 2175 0
-355 -2154 2155 0
-2155 2176 0
-356 -2155 2156 0
-2156 2177 0
-357 -2156 2157 0
-2157 2178 0
-358 -2157 2158 0
-2158 2179 0
-359 -2158 2159 0
-2159 2180 0
-360 -2159 2160 0
-2160 2181 0
-361 -2160 2161 0
-2161 2182 0
-362 -2161 2162 0
-2162 2183 0
-363 -2162 2163 0
-2163 2184 0
-364 -2163 2164 0
-2164 2185 0
-365 -2164 2165 0
-2165 2186 0
-366 -2165 2166 0
-2166 2187 0
-367 -2166 2167 0
-2167 2188 0
-368 -2167 2168 0
-2168 2189 0
-369 -2168 2169 0
-2169 2190 0
-370 -2169 2170 0
-2170 2191 0
-371 -2170 2171 0
-2171 2192 0
-372 -2171 0
-352 2172 0
-2172 2193 0
-353 -2172 2173 0
-2173 2194 0
-354 -2173 2174 0
-2174 2195 0
-355 -2174 2175 0
-2175 2196 0
-356 -2175 2176 0
-2176 2197 0
-357 -2176 2177 0
-2177 2198 0
-358 -2177 2178 0
-2178 2199 0
-359 -2178 2179 0
-2179 2200 0
-360 -2179 2180 0
-2180 2201 0
-361 -2180 2181 0
-2181 2202 0
-362 -2181 2182 0
-2182 2203 0
-363 -2182 2183 0
-2183 2204 0
-364 -2183 2184 0
-2184 2205 0
-365 -2184 2185 0
-2185 2206 0
-366 -2185 2186 0
-2186 2207 0
-367 -2186 2187 0
-2187 2208 0
-368 -2187 2188 0
-2188 2209 0
-369 -2188 2189 0
-2189 2210 0
-370 -2189 2190 0
-2190 2211 0
-371 -2190 2191 0
-2191 2212 0
-372 -2191 2192 0
-2192 2213 0
-373 -2192 0
-353 2193 0
-2193 2214 0
-354 -2193 2194 0
-2194 2215 0
-355 -2194 2195 0
-2195 2216 0
-356 -2195 2196 0
-2196 2217 0
-357 -2196 2197 0
-2197 2218 0
-358 -2197 2198 0
-2198 2219 0
-359 -2198 2199 0
-2199 2220 0
-360 -2199 2200 0
-2200 2221 0
-361 -2200 2201 0
-2201 2222 0
-362 -2201 2202 0
-2202 2223 0
-363 -2202 2203 0
-2203 2224 0
-364 -2203 2204 0
-2204 2225 0
-365 -2204 2205 0
-2205 2226 0
-366 -2205 2206 0
-2206 2227 0
-367 -2206 2207 0
-2207 2228 0
-368 -2207 2208 0
-2208 2229 0
-369 -2208 2209 0
-2209 2230 0
-370 -2209 2210 0
-2210 2231 0
-371 -2210 2211 0
-2211 2232 0
-372 -2211 2212 0
-2212 2233 0
-373 -2212 2213 0
-2213 2234 0
-374 -2213 0
-354 2214 0
-2214 2235 0
-355 -2214 2215 0
-2215 2236 0
-356 -2215 2216 0
-2216 2237 0
-357 -2216 2217 0
-2217 2238 0
-358 -2217 2218 0
-2218 2239 0
-359 -2218 2219 0
-2219 2240 0
-360 -2219 2220 0
-2220 2241 0
-361 -2220 2221 0
-2221 2242 0
-362 -2221 2222 0
-2222 2243 0
-363 -2222 2223 0
-2223 2244 0
-364 -2223 2224 0
-2224 2245 0
-365 -2224 2225 0
-2225 2246 0
-366 -2225 2226 0
-2226 2247 0
-367 -2226 2227 0
-2227 2248 0
-368 -2227 2228 0
-2228 2249 0
-369 -2228 2229 0
-2229 2250 0
-370 -2229 2230 0
-2230 2251 0
-371 -2230 2231 0
-2231 2252 0
-372 -2231 2232 0
-2232 2253 0
-373 -2232 2233 0
-2233 2254 0
-374 -2233 2234 0
-2234 2255 0
-375 -2234 0
-355 2235 0
-2235 2256 0
-356 -2235 2236 0
-2236 2257 0
-357 -2236 2237 0
-2237 2258 0
-358 -2237 2238 0
-2238 2259 0
-359 -2238 2239 0
-2239 2260 0
-360 -2239 2240 0
-2240 2261 0
-361 -2240 2241 0
-2241 2262 0
-362 -2241 2242 0
-2242 2263 0
-363 -2242 2243 0
-2243 2264 0
-364 -2243 2244 0
-2244 2265 0
-365 -2244 2245 0
-2245 2266 0
-366 -2245 2246 0
-2246 2267 0
-367 -2246 2247 0
-2247 2268 0
-368 -2247 2248 0
-2248 2269 0
-369 -2248 2249 0
-2249 2270 0
-370 -2249 2250 0
-2250 2271 0
-371 -2250 2251 0
-2251 2272 0
-372 -2251 2252 0
-2252 2273 0
-373 -2252 2253 0
-2253 2274 0
-374 -2253 2254 0
-2254 2275 0
-375 -2254 2255 0
-2255 2276 0
-376 -2255 0
-356 2256 0
-2256 2277 0
-357 -2256 2257 0
-2257 2278 0
-358 -2257 2258 0
-2258 2279 0
-359 -2258 2259 0
-2259 2280 0
-360 -2259 2260 0
-2260 2281 0
-361 -2260 2261 0
-2261 2282 0
-362 -2261 2262 0
-2262 2283 0
-363 -2262 2263 0
-2263 2284 0
-364 -2263 2264 0
-2264 2285 0
-365 -2264 2265 0
-2265 2286 0
-366 -2265 2266 0
-2266 2287 0
-367 -2266 2267 0
-2267 2288 0
-368 -2267 2268 0
-2268 2289 0
-369 -2268 2269 0
-2269 2290 0
-370 -2269 2270 0
-2270 2291 0
-371 -2270 2271 0
-2271 2292 0
-372 -2271 2272 0
-2272 2293 0
-373 -2272 2273 0
-2273 2294 0
-374 -2273 2274 0
-2274 2295 0
-375 -2274 2275 0
-2275 2296 0
-376 -2275 2276 0
-2276 2297 0
-377 -2276 0
-357 2277 0
-2277 2298 0
-358 -2277 2278 0
-2278 2299 0
-359 -2278 2279 0
-2279 2300 0
-360 -2279 2280 0
-2280 2301 0
-361 -2280 2281 0
-2281 2302 0
-362 -2281 2282 0
-2282 2303 0
-363 -2282 2283 0
-2283 2304 0
-364 -2283 2284 0
-2284 2305 0
-365 -2284 2285 0
-2285 2306 0
-366 -2285 2286 0
-2286 2307 0
-367 -2286 2287 0
-2287 2308 0
-368 -2287 2288 0
-2288 2309 0
-369 -2288 2289 0
-2289 2310 0
-370 -2289 2290 0
-2290 2311 0
-371 -2290 2291 0
-2291 2312 0
-372 -2291 2292 0
-2292 2313 0
-373 -2292 2293 0
-2293 2314 0
-374 -2293 2294 0
-2294 2315 0
-375 -2294 2295 0
-2295 2316 0
-376 -2295 2296 0
-2296 2317 0
-377 -2296 2297 0
-2297 2318 0
-378 -2297 0
-358 2298 0
-2298 2319 0
-359 -2298 2299 0
-2299 2320 0
-360 -2299 2300 0
-2300 2321 0
-361 -2300 2301 0
-2301 2322 0
-362 -2301 2302 0
-2302 2323 0
-363 -2302 2303 0
-2303 2324 0
-364 -2303 2304 0
-2304 2325 0
-365 -2304 2305 0
-2305 2326 0
-366 -2305 2306 0
-2306 2327 0
-367 -2306 2307 0
-2307 2328 0
-368 -2307 2308 0
-2308 2329 0
-369 -2308 2309 0
-2309 2330 0
-370 -2309 2310 0
-2310 2331 0
-371 -2310 2311 0
-2311 2332 0
-372 -2311 2312 0
-2312 2333 0
-373 -2312 2313 0
-2313 2334 0
-374 -2313 2314 0
-2314 2335 0
-375 -2314 2315 0
-2315 2336 0
-376 -2315 2316 0
-2316 2337 0
-377 -2316 2317 0
-2317 2338 0
-378 -2317 2318 0
-2318 2339 0
-379 -2318 0
-359 2319 0
-2319 2340 0
-360 -2319 2320 0
-2320 2341 0
-361 -2320 2321 0
-2321 2342 0
-362 -2321 2322 0
-2322 2343 0
-363 -2322 2323 0
-2323 2344 0
-364 -2323 2324 0
-2324 2345 0
-365 -2324 2325 0
-2325 2346 0
-366 -2325 2326 0
-2326 2347 0
-367 -2326 2327 0
-2327 2348 0
-368 -2327 2328 0
-2328 2349 0
-369 -2328 2329 0
-2329 2350 0
-370 -2329 2330 0
-2330 2351 0
-371 -2330 2331 0
-2331 2352 0
-372 -2331 2332 0
-2332 2353 0
-373 -2332 2333 0
-2333 2354 0
-374 -2333 2334 0
-2334 2355 0
-375 -2334 2335 0
-2335 2356 0
-376 -2335 2336 0
-2336 2357 0
-377 -2336 2337 0
-2337 2358 0
-378 -2337 2338 0
-2338 2359 0
-379 -2338 2339 0
-2339 2360 0
-380 -2339 0
-360 2340 0
-2340 2361 0
-361 -2340 2341 0
-2341 2362 0
-362 -2341 2342 0
-2342 2363 0
-363 -2342 2343 0
-2343 2364 0
-364 -2343 2344 0
-2344 2365 0
-365 -2344 2345 0
-2345 2366 0
-366 -2345 2346 0
-2346 2367 0
-367 -2346 2347 0
-2347 2368 0
-368 -2347 2348 0
-2348 2369 0
-369 -2348 2349 0
-2349 2370 0
-370 -2349 2350 0
-2350 2371 0
-371 -2350 2351 0
-2351 2372 0
-372 -2351 2352 0
-2352 2373 0
-373 -2352 2353 0
-2353 2374 0
-374 -2353 2354 0
-2354 2375 0
-375 -2354 2355 0
-2355 2376 0
-376 -2355 2356 0
-2356 2377 0
-377 -2356 2357 0
-2357 2378 0
-378 -2357 2358 0
-2358 2379 0
-379 -2358 2359 0
-2359 2380 0
-380 -2359 2360 0
-2360 2381 0
-381 -2360 0
-361 2361 0
-2361 2382 0
-362 -2361 2362 0
-2362 2383 0
-363 -2362 2363 0
-2363 2384 0
-364 -2363 2364 0
-2364 2385 0
-365 -2364 2365 0
-2365 2386 0
-366 -2365 2366 0
-2366 2387 0
-367 -2366 2367 0
-2367 2388 0
-368 -2367 2368 0
-2368 2389 0
-369 -2368 2369 0
-2369 2390 0
-370 -2369 2370 0
-2370 2391 0
-371 -2370 2371 0
-2371 2392 0
-372 -2371 2372 0
-2372 2393 0
-373 -2372 2373 0
-2373 2394 0
-374 -2373 2374 0
-2374 2395 0
-375 -2374 2375 0
-2375 2396 0
-376 -2375 2376 0
-2376 2397 0
-377 -2376 2377 0
-2377 2398 0
-378 -2377 2378 0
-2378 2399 0
-379 -2378 2379 0
-2379 2400 0
-380 -2379 2380 0
-2380 2401 0
-381 -2380 2381 0
-2381 2402 0
-382 -2381 0
-362 2382 0
-2382 2403 0
-363 -2382 2383 0
-2383 2404 0
-364 -2383 2384 0
-2384 2405 0
-365 -2384 2385 0
-2385 2406 0
-366 -2385 2386 0
-2386 2407 0
-367 -2386 2387 0
-2387 2408 0
-368 -2387 2388 0
-2388 2409 0
-369 -2388 2389 0
-2389 2410 0
-370 -2389 2390 0
-2390 2411 0
-371 -2390 2391 0
-2391 2412 0
-372 -2391 2392 0
-2392 2413 0
-373 -2392 2393 0
-2393 2414 0
-374 -2393 2394 0
-2394 2415 0
-375 -2394 2395 0
-2395 2416 0
-376 -2395 2396 0
-2396 2417 0
-377 -2396 2397 0
-2397 2418 0
-378 -2397 2398 0
-2398 2419 0
-379 -2398 2399 0
-2399 2420 0
-380 -2399 2400 0
-2400 2421 0
-381 -2400 2401 0
-2401 2422 0
-382 -2401 2402 0
-2402 2423 0
-383 -2402 0
-363 2403 0
-2403 2424 0
-364 -2403 2404 0
-2404 2425 0
-365 -2404 2405 0
-2405 2426 0
-366 -2405 2406 0
-2406 2427 0
-367 -2406 2407 0
-2407 2428 0
-368 -2407 2408 0
-2408 2429 0
-369 -2408 2409 0
-2409 2430 0
-370 -2409 2410 0
-2410 2431 0
-371 -2410 2411 0
-2411 2432 0
-372 -2411 2412 0
-2412 2433 0
-373 -2412 2413 0
-2413 2434 0
-374 -2413 2414 0
-2414 2435 0
-375 -2414 2415 0
-2415 2436 0
-376 -2415 2416 0
-2416 2437 0
-377 -2416 2417 0
-2417 2438 0
-378 -2417 2418 0
-2418 2439 0
-379 -2418 2419 0
-2419 2440 0
-380 -2419 2420 0
-2420 2441 0
-381 -2420 2421 0
-2421 2442 0
-382 -2421 2422 0
-2422 2443 0
-383 -2422 2423 0
-2423 2444 0
-384 -2423 0
-364 2424 0
-2424 2445 0
-365 -2424 2425 0
-2425 2446 0
-366 -2425 2426 0
-2426 2447 0
-367 -2426 2427 0
-2427 2448 0
-368 -2427 2428 0
-2428 2449 0
-369 -2428 2429 0
-2429 2450 0
-370 -2429 2430 0
-2430 2451 0
-371 -2430 2431 0
-2431 2452 0
-372 -2431 2432 0
-2432 2453 0
-373 -2432 2433 0
-2433 2454 0
-374 -2433 2434 0
-2434 2455 0
-375 -2434 2435 0
-2435 2456 0
-376 -2435 2436 0
-2436 2457 0
-377 -2436 2437 0
-2437 2458 0
-378 -2437 2438 0
-2438 2459 0
-379 -2438 2439 0
-2439 2460 0
-380 -2439 2440 0
-2440 2461 0
-381 -2440 2441 0
-2441 2462 0
-382 -2441 2442 0
-2442 2463 0
-383 -2442 2443 0
-2443 2464 0
-384 -2443 2444 0
-2444 2465 0
-385 -2444 0
-365 2445 0
-2445 2466 0
-366 -2445 2446 0
-2446 2467 0
-367 -2446 2447 0
-2447 2468 0
-368 -2447 2448 0
-2448 2469 0
-369 -2448 2449 0
-2449 2470 0
-370 -2449 2450 0
-2450 2471 0
-371 -2450 2451 0
-2451 2472 0
-372 -2451 2452 0
-2452 2473 0
-373 -2452 2453 0
-2453 2474 0
-374 -2453 2454 0
-2454 2475 0
-375 -2454 2455 0
-2455 2476 0
-376 -2455 2456 0
-2456 2477 0
-377 -2456 2457 0
-2457 2478 0
-378 -2457 2458 0
-2458 2479 0
-379 -2458 2459 0
-2459 2480 0
-380 -2459 2460 0
-2460 2481 0
-381 -2460 2461 0
-2461 2482 0
-382 -2461 2462 0
-2462 2483 0
-383 -2462 2463 0
-2463 2484 0
-384 -2463 2464 0
-2464 2485 0
-385 -2464 2465 0
-2465 2486 0
-386 -2465 0
-366 2466 0
-2466 2487 0
-367 -2466 2467 0
-2467 2488 0
-368 -2467 2468 0
-2468 2489 0
-369 -2468 2469 0
-2469 2490 0
-370 -2469 2470 0
-2470 2491 0
-371 -2470 2471 0
-2471 2492 0
-372 -2471 2472 0
-2472 2493 0
-373 -2472 2473 0
-2473 2494 0
-374 -2473 2474 0
-2474 2495 0
-375 -2474 2475 0
-2475 2496 0
-376 -2475 2476 0
-2476 2497 0
-377 -2476 2477 0
-2477 2498 0
-378 -2477 2478 0
-2478 2499 0
-379 -2478 2479 0
-2479 2500 0
-380 -2479 2480 0
-2480 2501 0
-381 -2480 2481 0
-2481 2502 0
-382 -2481 2482 0
-2482 2503 0
-383 -2482 2483 0
-2483 2504 0
-384 -2483 2484 0
-2484 2505 0
-385 -2484 2485 0
-2485 2506 0
-386 -2485 2486 0
-2486 2507 0
-387 -2486 0
-367 2487 0
-2487 2508 0
-368 -2487 2488 0
-2488 2509 0
-369 -2488 2489 0
-2489 2510 0
-370 -2489 2490 0
-2490 2511 0
-371 -2490 2491 0
-2491 2512 0
-372 -2491 2492 0
-2492 2513 0
-373 -2492 2493 0
-2493 2514 0
-374 -2493 2494 0
-2494 2515 0
-375 -2494 2495 0
-2495 2516 0
-376 -2495 2496 0
-2496 2517 0
-377 -2496 2497 0
-2497 2518 0
-378 -2497 2498 0
-2498 2519 0
-379 -2498 2499 0
-2499 2520 0
-380 -2499 2500 0
-2500 2521 0
-381 -2500 2501 0
-2501 2522 0
-382 -2501 2502 0
-2502 2523 0
-383 -2502 2503 0
-2503 2524 0
-384 -2503 2504 0
-2504 2525 0
-385 -2504 2505 0
-2505 2526 0
-386 -2505 2506 0
-2506 2527 0
-387 -2506 2507 0
-2507 2528 0
-388 -2507 0
-368 2508 0
-2508 2529 0
-369 -2508 2509 0
-2509 2530 0
-370 -2509 2510 0
-2510 2531 0
-371 -2510 2511 0
-2511 2532 0
-372 -2511 2512 0
-2512 2533 0
-373 -2512 2513 0
-2513 2534 0
-374 -2513 2514 0
-2514 2535 0
-375 -2514 2515 0
-2515 2536 0
-376 -2515 2516 0
-2516 2537 0
-377 -2516 2517 0
-2517 2538 0
-378 -2517 2518 0
-2518 2539 0
-379 -2518 2519 0
-2519 2540 0
-380 -2519 2520 0
-2520 2541 0
-381 -2520 2521 0
-2521 2542 0
-382 -2521 2522 0
-2522 2543 0
-383 -2522 2523 0
-2523 2544 0
-384 -2523 2524 0
-2524 2545 0
-385 -2524 2525 0
-2525 2546 0
-386 -2525 2526 0
-2526 2547 0
-387 -2526 2527 0
-2527 2548 0
-388 -2527 2528 0
-2528 2549 0
-389 -2528 0
-369 2529 0
-2529 2550 0
-370 -2529 2530 0
-2530 2551 0
-371 -2530 2531 0
-2531 2552 0
-372 -2531 2532 0
-2532 2553 0
-373 -2532 2533 0
-2533 2554 0
-374 -2533 2534 0
-2534 2555 0
-375 -2534 2535 0
-2535 2556 0
-376 -2535 2536 0
-2536 2557 0
-377 -2536 2537 0
-2537 2558 0
-378 -2537 2538 0
-2538 2559 0
-379 -2538 2539 0
-2539 2560 0
-380 -2539 2540 0
-2540 2561 0
-381 -2540 2541 0
-2541 2562 0
-382 -2541 2542 0
-2542 2563 0
-383 -2542 2543 0
-2543 2564 0
-384 -2543 2544 0
-2544 2565 0
-385 -2544 2545 0
-2545 2566 0
-386 -2545 2546 0
-2546 2567 0
-387 -2546 2547 0
-2547 2568 0
-388 -2547 2548 0
-2548 2569 0
-389 -2548 2549 0
-2549 2570 0
-390 -2549 0
-370 2550 0
-2550 2571 0
-371 -2550 2551 0
-2551 2572 0
-372 -2551 2552 0
-2552 2573 0
-373 -2552 2553 0
-2553 2574 0
-374 -2553 2554 0
-2554 2575 0
-375 -2554 2555 0
-2555 2576 0
-376 -2555 2556 0
-2556 2577 0
-377 -2556 2557 0
-2557 2578 0
-378 -2557 2558 0
-2558 2579 0
-379 -2558 2559 0
-2559 2580 0
-380 -2559 2560 0
-2560 2581 0
-381 -2560 2561 0
-2561 2582 0
-382 -2561 2562 0
-2562 2583 0
-383 -2562 2563 0
-2563 2584 0
-384 -2563 2564 0
-2564 2585 0
-385 -2564 2565 0
-2565 2586 0
-386 -2565 2566 0
-2566 2587 0
-387 -2566 2567 0
-2567 2588 0
-388 -2567 2568 0
-2568 2589 0
-389 -2568 2569 0
-2569 2590 0
-390 -2569 2570 0
-2570 2591 0
-391 -2570 0
-371 2571 0
-2571 2592 0
-372 -2571 2572 0
-2572 2593 0
-373 -2572 2573 0
-2573 2594 0
-374 -2573 2574 0
-2574 2595 0
-375 -2574 2575 0
-2575 2596 0
-376 -2575 2576 0
-2576 2597 0
-377 -2576 2577 0
-2577 2598 0
-378 -2577 2578 0
-2578 2599 0
-379 -2578 2579 0
-2579 2600 0
-380 -2579 2580 0
-2580 2601 0
-381 -2580 2581 0
-2581 2602 0
-382 -2581 2582 0
-2582 2603 0
-383 -2582 2583 0
-2583 2604 0
-384 -2583 2584 0
-2584 2605 0
-385 -2584 2585 0
-2585 2606 0
-386 -2585 2586 0
-2586 2607 0
-387 -2586 2587 0
-2587 2608 0
-388 -2587 2588 0
-2588 2609 0
-389 -2588 2589 0
-2589 2610 0
-390 -2589 2590 0
-2590 2611 0
-391 -2590 2591 0
-2591 2612 0
-392 -2591 0
-372 2592 0
-2592 2613 0
-373 -2592 2593 0
-2593 2614 0
-374 -2593 2594 0
-2594 2615 0
-375 -2594 2595 0
-2595 2616 0
-376 -2595 2596 0
-2596 2617 0
-377 -2596 2597 0
-2597 2618 0
-378 -2597 2598 0
-2598 2619 0
-379 -2598 2599 0
-2599 2620 0
-380 -2599 2600 0
-2600 2621 0
-381 -2600 2601 0
-2601 2622 0
-382 -2601 2602 0
-2602 2623 0
-383 -2602 2603 0
-2603 2624 0
-384 -2603 2604 0
-2604 2625 0
-385 -2604 2605 0
-2605 2626 0
-386 -2605 2606 0
-2606 2627 0
-387 -2606 2607 0
-2607 2628 0
-388 -2607 2608 0
-2608 2629 0
-389 -2608 2609 0
-2609 2630 0
-390 -2609 2610 0
-2610 2631 0
-391 -2610 2611 0
-2611 2632 0
-392 -2611 2612 0
-2612 2633 0
-393 -2612 0
-373 2613 0
-2613 2634 0
-374 -2613 2614 0
-2614 2635 0
-375 -2614 2615 0
-2615 2636 0
-376 -2615 2616 0
-2616 2637 0
-377 -2616 2617 0
-2617 2638 0
-378 -2617 2618 0
-2618 2639 0
-379 -2618 2619 0
-2619 2640 0
-380 -2619 2620 0
-2620 2641 0
-381 -2620 2621 0
-2621 2642 0
-382 -2621 2622 0
-2622 2643 0
-383 -2622 2623 0
-2623 2644 0
-384 -2623 2624 0
-2624 2645 0
-385 -2624 2625 0
-2625 2646 0
-386 -2625 2626 0
-2626 2647 0
-387 -2626 2627 0
-2627 2648 0
-388 -2627 2628 0
-2628 2649 0
-389 -2628 2629 0
-2629 2650 0
-390 -2629 2630 0
-2630 2651 0
-391 -2630 2631 0
-2631 2652 0
-392 -2631 2632 0
-2632 2653 0
-393 -2632 2633 0
-2633 2654 0
-394 -2633 0
-374 2634 0
-2634 2655 0
-375 -2634 2635 0
-2635 2656 0
-376 -2635 2636 0
-2636 2657 0
-377 -2636 2637 0
-2637 2658 0
-378 -2637 2638 0
-2638 2659 0
-379 -2638 2639 0
-2639 2660 0
-380 -2639 2640 0
-2640 2661 0
-381 -2640 2641 0
-2641 2662 0
-382 -2641 2642 0
-2642 2663 0
-383 -2642 2643 0
-2643 2664 0
-384 -2643 2644 0
-2644 2665 0
-385 -2644 2645 0
-2645 2666 0
-386 -2645 2646 0
-2646 2667 0
-387 -2646 2647 0
-2647 2668 0
-388 -2647 2648 0
-2648 2669 0
-389 -2648 2649 0
-2649 2670 0
-390 -2649 2650 0
-2650 2671 0
-391 -2650 2651 0
-2651 2672 0
-392 -2651 2652 0
-2652 2673 0
-393 -2652 2653 0
-2653 2674 0
-394 -2653 2654 0
-2654 2675 0
-395 -2654 0
-375 2655 0
-2655 2676 0
-376 -2655 2656 0
-2656 2677 0
-377 -2656 2657 0
-2657 2678 0
-378 -2657 2658 0
-2658 2679 0
-379 -2658 2659 0
-2659 2680 0
-380 -2659 2660 0
-2660 2681 0
-381 -2660 2661 0
-2661 2682 0
-382 -2661 2662 0
-2662 2683 0
-383 -2662 2663 0
-2663 2684 0
-384 -2663 2664 0
-2664 2685 0
-385 -2664 2665 0
-2665 2686 0
-386 -2665 2666 0
-2666 2687 0
-387 -2666 2667 0
-2667 2688 0
-388 -2667 2668 0
-2668 2689 0
-389 -2668 2669 0
-2669 2690 0
-390 -2669 2670 0
-2670 2691 0
-391 -2670 2671 0
-2671 2692 0
-392 -2671 2672 0
-2672 2693 0
-393 -2672 2673 0
-2673 2694 0
-394 -2673 2674 0
-2674 2695 0
-395 -2674 2675 0
-2675 2696 0
-396 -2675 0
-376 2676 0
-2676 2697 0
-377 -2676 2677 0
-2677 2698 0
-378 -2677 2678 0
-2678 2699 0
-379 -2678 2679 0
-2679 2700 0
-380 -2679 2680 0
-2680 2701 0
-381 -2680 2681 0
-2681 2702 0
-382 -2681 2682 0
-2682 2703 0
-383 -2682 2683 0
-2683 2704 0
-384 -2683 2684 0
-2684 2705 0
-385 -2684 2685 0
-2685 2706 0
-386 -2685 2686 0
-2686 2707 0
-387 -2686 2687 0
-2687 2708 0
-388 -2687 2688 0
-2688 2709 0
-389 -2688 2689 0
-2689 2710 0
-390 -2689 2690 0
-2690 2711 0
-391 -2690 2691 0
-2691 2712 0
-392 -2691 2692 0
-2692 2713 0
-393 -2692 2693 0
-2693 2714 0
-394 -2693 2694 0
-2694 2715 0
-395 -2694 2695 0
-2695 2716 0
-396 -2695 2696 0
-2696 2717 0
-397 -2696 0
-377 2697 0
-2697 2718 0
-378 -2697 2698 0
-2698 2719 0
-379 -2698 2699 0
-2699 2720 0
-380 -2699 2700 0
-2700 2721 0
-381 -2700 2701 0
-2701 2722 0
-382 -2701 2702 0
-2702 2723 0
-383 -2702 2703 0
-2703 2724 0
-384 -2703 2704 0
-2704 2725 0
-385 -2704 2705 0
-2705 2726 0
-386 -2705 2706 0
-2706 2727 0
-387 -2706 2707 0
-2707 2728 0
-388 -2707 2708 0
-2708 2729 0
-389 -2708 2709 0
-2709 2730 0
-390 -2709 2710 0
-2710 2731 0
-391 -2710 2711 0
-2711 2732 0
-392 -2711 2712 0
-2712 2733 0
-393 -2712 2713 0
-2713 2734 0
-394 -2713 2714 0
-2714 2735 0
-395 -2714 2715 0
-2715 2736 0
-396 -2715 2716 0
-2716 2737 0
-397 -2716 2717 0
-2717 2738 0
-398 -2717 0
-378 2718 0
-2718 2739 0
-379 -2718 2719 0
-2719 2740 0
-380 -2719 2720 0
-2720 2741 0
-381 -2720 2721 0
-2721 2742 0
-382 -2721 2722 0
-2722 2743 0
-383 -2722 2723 0
-2723 2744 0
-384 -2723 2724 0
-2724 2745 0
-385 -2724 2725 0
-2725 2746 0
-386 -2725 2726 0
-2726 2747 0
-387 -2726 2727 0
-2727 2748 0
-388 -2727 2728 0
-2728 2749 0
-389 -2728 2729 0
-2729 2750 0
-390 -2729 2730 0
-2730 2751 0
-391 -2730 2731 0
-2731 2752 0
-392 -2731 2732 0
-2732 2753 0
-393 -2732 2733 0
-2733 2754 0
-394 -2733 2734 0
-2734 2755 0
-395 -2734 2735 0
-2735 2756 0
-396 -2735 2736 0
-2736 2757 0
-397 -2736 2737 0
-2737 2758 0
-398 -2737 2738 0
-2738 2759 0
-399 -2738 0
-379 2739 0
-2739 2760 0
-380 -2739 2740 0
-2740 2761 0
-381 -2740 2741 0
-2741 2762 0
-382 -2741 2742 0
-2742 2763 0
-383 -2742 2743 0
-2743 2764 0
-384 -2743 2744 0
-2744 2765 0
-385 -2744 2745 0
-2745 2766 0
-386 -2745 2746 0
-2746 2767 0
-387 -2746 2747 0
-2747 2768 0
-388 -2747 2748 0
-2748 2769 0
-389 -2748 2749 0
-2749 2770 0
-390 -2749 2750 0
-2750 2771 0
-391 -2750 2751 0
-2751 2772 0
-392 -2751 2752 0
-2752 2773 0
-393 -2752 2753 0
-2753 2774 0
-394 -2753 2754 0
-2754 2775 0
-395 -2754 2755 0
-2755 2776 0
-396 -2755 2756 0
-2756 2777 0
-397 -2756 2757 0
-2757 2778 0
-398 -2757 2758 0
-2758 2779 0
-399 -2758 2759 0
-2759 2780 0
-400 -2759 0
-380 2760 0
-2760 2781 0
-381 -2760 2761 0
-2761 2782 0
-382 -2761 2762 0
-2762 2783 0
-383 -2762 2763 0
-2763 2784 0
-384 -2763 2764 0
-2764 2785 0
-385 -2764 2765 0
-2765 2786 0
-386 -2765 2766 0
-2766 2787 0
-387 -2766 2767 0
-2767 2788 0
-388 -2767 2768 0
-2768 2789 0
-389 -2768 2769 0
-2769 2790 0
-390 -2769 2770 0
-2770 2791 0
-391 -2770 2771 0
-2771 2792 0
-392 -2771 2772 0
-2772 2793 0
-393 -2772 2773 0
-2773 2794 0
-394 -2773 2774 0
-2774 2795 0
-395 -2774 2775 0
-2775 2796 0
-396 -2775 2776 0
-2776 2797 0
-397 -2776 2777 0
-2777 2798 0
-398 -2777 2778 0
-2778 2799 0
-399 -2778 2779 0
-2779 2800 0
-400 -2779 2780 0
-2780 2801 0
-401 -2780 0
-381 2781 0
-2781 2802 0
-382 -2781 2782 0
-2782 2803 0
-383 -2782 2783 0
-2783 2804 0
-384 -2783 2784 0
-2784 2805 0
-385 -2784 2785 0
-2785 2806 0
-386 -2785 2786 0
-2786 2807 0
-387 -2786 2787 0
-2787 2808 0
-388 -2787 2788 0
-2788 2809 0
-389 -2788 2789 0
-2789 2810 0
-390 -2789 2790 0
-2790 2811 0
-391 -2790 2791 0
-2791 2812 0
-392 -2791 2792 0
-2792 2813 0
-393 -2792 2793 0
-2793 2814 0
-394 -2793 2794 0
-2794 2815 0
-395 -2794 2795 0
-2795 2816 0
-396 -2795 2796 0
-2796 2817 0
-397 -2796 2797 0
-2797 2818 0
-398 -2797 2798 0
-2798 2819 0
-399 -2798 2799 0
-2799 2820 0
-400 -2799 2800 0
-2800 2821 0
-401 -2800 2801 0
-2801 2822 0
-402 -2801 0
-382 2802 0
-2802 2823 0
-383 -2802 2803 0
-2803 2824 0
-384 -2803 2804 0
-2804 2825 0
-385 -2804 2805 0
-2805 2826 0
-386 -2805 2806 0
-2806 2827 0
-387 -2806 2807 0
-2807 2828 0
-388 -2807 2808 0
-2808 2829 0
-389 -2808 2809 0
-2809 2830 0
-390 -2809 2810 0
-2810 2831 0
-391 -2810 2811 0
-2811 2832 0
-392 -2811 2812 0
-2812 2833 0
-393 -2812 2813 0
-2813 2834 0
-394 -2813 2814 0
-2814 2835 0
-395 -2814 2815 0
-2815 2836 0
-396 -2815 2816 0
-2816 2837 0
-397 -2816 2817 0
-2817 2838 0
-398 -2817 2818 0
-2818 2839 0
-399 -2818 2819 0
-2819 2840 0
-400 -2819 2820 0
-2820 2841 0
-401 -2820 2821 0
-2821 2842 0
-402 -2821 2822 0
-2822 2843 0
-403 -2822 0
-383 2823 0
-2823 2844 0
-384 -2823 2824 0
-2824 2845 0
-385 -2824 2825 0
-2825 2846 0
-386 -2825 2826 0
-2826 2847 0
-387 -2826 2827 0
-2827 2848 0
-388 -2827 2828 0
-2828 2849 0
-389 -2828 2829 0
-2829 2850 0
-390 -2829 2830 0
-2830 2851 0
-391 -2830 2831 0
-2831 2852 0
-392 -2831 2832 0
-2832 2853 0
-393 -2832 2833 0
-2833 2854 0
-394 -2833 2834 0
-2834 2855 0
-395 -2834 2835 0
-2835 2856 0
-396 -2835 2836 0
-2836 2857 0
-397 -2836 2837 0
-2837 2858 0
-398 -2837 2838 0
-2838 2859 0
-399 -2838 2839 0
-2839 2860 0
-400 -2839 2840 0
-2840 2861 0
-401 -2840 2841 0
-2841 2862 0
-402 -2841 2842 0
-2842 2863 0
-403 -2842 2843 0
-2843 2864 0
-404 -2843 0
-384 2844 0
-2844 2865 0
-385 -2844 2845 0
-2845 2866 0
-386 -2845 2846 0
-2846 2867 0
-387 -2846 2847 0
-2847 2868 0
-388 -2847 2848 0
-2848 2869 0
-389 -2848 2849 0
-2849 2870 0
-390 -2849 2850 0
-2850 2871 0
-391 -2850 2851 0
-2851 2872 0
-392 -2851 2852 0
-2852 2873 0
-393 -2852 2853 0
-2853 2874 0
-394 -2853 2854 0
-2854 2875 0
-395 -2854 2855 0
-2855 2876 0
-396 -2855 2856 0
-2856 2877 0
-397 -2856 2857 0
-2857 2878 0
-398 -2857 2858 0
-2858 2879 0
-399 -2858 2859 0
-2859 2880 0
-400 -2859 2860 0
-2860 2881 0
-401 -2860 2861 0
-2861 2882 0
-402 -2861 2862 0
-2862 2883 0
-403 -2862 2863 0
-2863 2884 0
-404 -2863 2864 0
-2864 2885 0
-405 -2864 0
-385 2865 0
-2865 2886 0
-386 -2865 2866 0
-2866 2887 0
-387 -2866 2867 0
-2867 2888 0
-388 -2867 2868 0
-2868 2889 0
-389 -2868 2869 0
-2869 2890 0
-390 -2869 2870 0
-2870 2891 0
-391 -2870 2871 0
-2871 2892 0
-392 -2871 2872 0
-2872 2893 0
-393 -2872 2873 0
-2873 2894 0
-394 -2873 2874 0
-2874 2895 0
-395 -2874 2875 0
-2875 2896 0
-396 -2875 2876 0
-2876 2897 0
-397 -2876 2877 0
-2877 2898 0
-398 -2877 2878 0
-2878 2899 0
-399 -2878 2879 0
-2879 2900 0
-400 -2879 2880 0
-2880 2901 0
-401 -2880 2881 0
-2881 2902 0
-402 -2881 2882 0
-2882 2903 0
-403 -2882 2883 0
-2883 2904 0
-404 -2883 2884 0
-2884 2905 0
-405 -2884 2885 0
-2885 2906 0
-406 -2885 0
-386 2886 0
-2886 2907 0
-387 -2886 2887 0
-2887 2908 0
-388 -2887 2888 0
-2888 2909 0
-389 -2888 2889 0
-2889 2910 0
-390 -2889 2890 0
-2890 2911 0
-391 -2890 2891 0
-2891 2912 0
-392 -2891 2892 0
-2892 2913 0
-393 -2892 2893 0
-2893 2914 0
-394 -2893 2894 0
-2894 2915 0
-395 -2894 2895 0
-2895 2916 0
-396 -2895 2896 0
-2896 2917 0
-397 -2896 2897 0
-2897 2918 0
-398 -2897 2898 0
-2898 2919 0
-399 -2898 2899 0
-2899 2920 0
-400 -2899 2900 0
-2900 2921 0
-401 -2900 2901 0
-2901 2922 0
-402 -2901 2902 0
-2902 2923 0
-403 -2902 2903 0
-2903 2924 0
-404 -2903 2904 0
-2904 2925 0
-405 -2904 2905 0
-2905 2926 0
-406 -2905 2906 0
-2906 2927 0
-407 -2906 0
-387 2907 0
-2907 2928 0
-388 -2907 2908 0
-2908 2929 0
-389 -2908 2909 0
-2909 2930 0
-390 -2909 2910 0
-2910 2931 0
-391 -2910 2911 0
-2911 2932 0
-392 -2911 2912 0
-2912 2933 0
-393 -2912 2913 0
-2913 2934 0
-394 -2913 2914 0
-2914 2935 0
-395 -2914 2915 0
-2915 2936 0
-396 -2915 2916 0
-2916 2937 0
-397 -2916 2917 0
-2917 2938 0
-398 -2917 2918 0
-2918 2939 0
-399 -2918 2919 0
-2919 2940 0
-400 -2919 2920 0
-2920 2941 0
-401 -2920 2921 0
-2921 2942 0
-402 -2921 2922 0
-2922 2943 0
-403 -2922 2923 0
-2923 2944 0
-404 -2923 2924 0
-2924 2945 0
-405 -2924 2925 0
-2925 2946 0
-406 -2925 2926 0
-2926 2947 0
-407 -2926 2927 0
-2927 2948 0
-408 -2927 0
-388 2928 0
-2928 2949 0
-389 -2928 2929 0
-2929 2950 0
-390 -2929 2930 0
-2930 2951 0
-391 -2930 2931 0
-2931 2952 0
-392 -2931 2932 0
-2932 2953 0
-393 -2932 2933 0
-2933 2954 0
-394 -2933 2934 0
-2934 2955 0
-395 -2934 2935 0
-2935 2956 0
-396 -2935 2936 0
-2936 2957 0
-397 -2936 2937 0
-2937 2958 0
-398 -2937 2938 0
-2938 2959 0
-399 -2938 2939 0
-2939 2960 0
-400 -2939 2940 0
-2940 2961 0
-401 -2940 2941 0
-2941 2962 0
-402 -2941 2942 0
-2942 2963 0
-403 -2942 2943 0
-2943 2964 0
-404 -2943 2944 0
-2944 2965 0
-405 -2944 2945 0
-2945 2966 0
-406 -2945 2946 0
-2946 2967 0
-407 -2946 2947 0
-2947 2968 0
-408 -2947 2948 0
-2948 2969 0
-409 -2948 0
-389 2949 0
-2949 2970 0
-390 -2949 2950 0
-2950 2971 0
-391 -2950 2951 0
-2951 2972 0
-392 -2951 2952 0
-2952 2973 0
-393 -2952 2953 0
-2953 2974 0
-394 -2953 2954 0
-2954 2975 0
-395 -2954 2955 0
-2955 2976 0
-396 -2955 2956 0
-2956 2977 0
-397 -2956 2957 0
-2957 2978 0
-398 -2957 2958 0
-2958 2979 0
-399 -2958 2959 0
-2959 2980 0
-400 -2959 2960 0
-2960 2981 0
-401 -2960 2961 0
-2961 2982 0
-402 -2961 2962 0
-2962 2983 0
-403 -2962 2963 0
-2963 2984 0
-404 -2963 2964 0
-2964 2985 0
-405 -2964 2965 0
-2965 2986 0
-406 -2965 2966 0
-2966 2987 0
-407 -2966 2967 0
-2967 2988 0
-408 -2967 2968 0
-2968 2989 0
-409 -2968 2969 0
-2969 2990 0
-410 -2969 0
-390 2970 0
-2970 2991 0
-391 -2970 2971 0
-2971 2992 0
-392 -2971 2972 0
-2972 2993 0
-393 -2972 2973 0
-2973 2994 0
-394 -2973 2974 0
-2974 2995 0
-395 -2974 2975 0
-2975 2996 0
-396 -2975 2976 0
-2976 2997 0
-397 -2976 2977 0
-2977 2998 0
-398 -2977 2978 0
-2978 2999 0
-399 -2978 2979 0
-2979 3000 0
-400 -2979 2980 0
-2980 3001 0
-401 -2980 2981 0
-2981 3002 0
-402 -2981 2982 0
-2982 3003 0
-403 -2982 2983 0
-2983 3004 0
-404 -2983 2984 0
-2984 3005 0
-405 -2984 2985 0
-2985 3006 0
-406 -2985 2986 0
-2986 3007 0
-407 -2986 2987 0
-2987 3008 0
-408 -2987 2988 0
-2988 3009 0
-409 -2988 2989 0
-2989 3010 0
-410 -2989 2990 0
-2990 3011 0
-411 -2990 0
-391 2991 0
-2991 3012 0
-392 -2991 2992 0
-2992 3013 0
-393 -2992 2993 0
-2993 3014 0
-394 -2993 2994 0
-2994 3015 0
-395 -2994 2995 0
-2995 3016 0
-396 -2995 2996 0
-2996 3017 0
-397 -2996 2997 0
-2997 3018 0
-398 -2997 2998 0
-2998 3019 0
-399 -2998 2999 0
-2999 3020 0
-400 -2999 3000 0
-3000 3021 0
-401 -3000 3001 0
-3001 3022 0
-402 -3001 3002 0
-3002 3023 0
-403 -3002 3003 0
-3003 3024 0
-404 -3003 3004 0
-3004 3025 0
-405 -3004 3005 0
-3005 3026 0
-406 -3005 3006 0
-3006 3027 0
-407 -3006 3007 0
-3007 3028 0
-408 -3007 3008 0
-3008 3029 0
-409 -3008 3009 0
-3009 3030 0
-410 -3009 3010 0
-3010 3031 0
-411 -3010 3011 0
-3011 3032 0
-412 -3011 0
-392 3012 0
-3012 3033 0
-393 -3012 3013 0
-3013 3034 0
-394 -3013 3014 0
-3014 3035 0
-395 -3014 3015 0
-3015 3036 0
-396 -3015 3016 0
-3016 3037 0
-397 -3016 3017 0
-3017 3038 0
-398 -3017 3018 0
-3018 3039 0
-399 -3018 3019 0
-3019 3040 0
-400 -3019 3020 0
-3020 3041 0
-401 -3020 3021 0
-3021 3042 0
-402 -3021 3022 0
-3022 3043 0
-403 -3022 3023 0
-3023 3044 0
-404 -3023 3024 0
-3024 3045 0
-405 -3024 3025 0
-3025 3046 0
-406 -3025 3026 0
-3026 3047 0
-407 -3026 3027 0
-3027 3048 0
-408 -3027 3028 0
-3028 3049 0
-409 -3028 3029 0
-3029 3050 0
-410 -3029 3030 0
-3030 3051 0
-411 -3030 3031 0
-3031 3052 0
-412 -3031 3032 0
-3032 3053 0
-413 -3032 0
-393 3033 0
-3033 3054 0
-394 -3033 3034 0
-3034 3055 0
-395 -3034 3035 0
-3035 3056 0
-396 -3035 3036 0
-3036 3057 0
-397 -3036 3037 0
-3037 3058 0
-398 -3037 3038 0
-3038 3059 0
-399 -3038 3039 0
-3039 3060 0
-400 -3039 3040 0
-3040 3061 0
-401 -3040 3041 0
-3041 3062 0
-402 -3041 3042 0
-3042 3063 0
-403 -3042 3043 0
-3043 3064 0
-404 -3043 3044 0
-3044 3065 0
-405 -3044 3045 0
-3045 3066 0
-406 -3045 3046 0
-3046 3067 0
-407 -3046 3047 0
-3047 3068 0
-408 -3047 3048 0
-3048 3069 0
-409 -3048 3049 0
-3049 3070 0
-410 -3049 3050 0
-3050 3071 0
-411 -3050 3051 0
-3051 3072 0
-412 -3051 3052 0
-3052 3073 0
-413 -3052 3053 0
-3053 3074 0
-414 -3053 0
-394 3054 0
-3054 3075 0
-395 -3054 3055 0
-3055 3076 0
-396 -3055 3056 0
-3056 3077 0
-397 -3056 3057 0
-3057 3078 0
-398 -3057 3058 0
-3058 3079 0
-399 -3058 3059 0
-3059 3080 0
-400 -3059 3060 0
-3060 3081 0
-401 -3060 3061 0
-3061 3082 0
-402 -3061 3062 0
-3062 3083 0
-403 -3062 3063 0
-3063 3084 0
-404 -3063 3064 0
-3064 3085 0
-405 -3064 3065 0
-3065 3086 0
-406 -3065 3066 0
-3066 3087 0
-407 -3066 3067 0
-3067 3088 0
-408 -3067 3068 0
-3068 3089 0
-409 -3068 3069 0
-3069 3090 0
-410 -3069 3070 0
-3070 3091 0
-411 -3070 3071 0
-3071 3092 0
-412 -3071 3072 0
-3072 3093 0
-413 -3072 3073 0
-3073 3094 0
-414 -3073 3074 0
-3074 3095 0
-415 -3074 0
-395 3075 0
-3075 3096 0
-396 -3075 3076 0
-3076 3097 0
-397 -3076 3077 0
-3077 3098 0
-398 -3077 3078 0
-3078 3099 0
-399 -3078 3079 0
-3079 3100 0
-400 -3079 3080 0
-3080 3101 0
-401 -3080 3081 0
-3081 3102 0
-402 -3081 3082 0
-3082 3103 0
-403 -3082 3083 0
-3083 3104 0
-404 -3083 3084 0
-3084 3105 0
-405 -3084 3085 0
-3085 3106 0
-406 -3085 3086 0
-3086 3107 0
-407 -3086 3087 0
-3087 3108 0
-408 -3087 3088 0
-3088 3109 0
-409 -3088 3089 0
-3089 3110 0
-410 -3089 3090 0
-3090 3111 0
-411 -3090 3091 0
-3091 3112 0
-412 -3091 3092 0
-3092 3113 0
-413 -3092 3093 0
-3093 3114 0
-414 -3093 3094 0
-3094 3115 0
-415 -3094 3095 0
-3095 3116 0
-416 -3095 0
-396 3096 0
-3096 3117 0
-397 -3096 3097 0
-3097 3118 0
-398 -3097 3098 0
-3098 3119 0
-399 -3098 3099 0
-3099 3120 0
-400 -3099 3100 0
-3100 3121 0
-401 -3100 3101 0
-3101 3122 0
-402 -3101 3102 0
-3102 3123 0
-403 -3102 3103 0
-3103 3124 0
-404 -3103 3104 0
-3104 3125 0
-405 -3104 3105 0
-3105 3126 0
-406 -3105 3106 0
-3106 3127 0
-407 -3106 3107 0
-3107 3128 0
-408 -3107 3108 0
-3108 3129 0
-409 -3108 3109 0
-3109 3130 0
-410 -3109 3110 0
-3110 3131 0
-411 -3110 3111 0
-3111 3132 0
-412 -3111 3112 0
-3112 3133 0
-413 -3112 3113 0
-3113 3134 0
-414 -3113 3114 0
-3114 3135 0
-415 -3114 3115 0
-3115 3136 0
-416 -3115 3116 0
-3116 3137 0
-417 -3116 0
-397 3117 0
-3117 3138 0
-398 -3117 3118 0
-3118 3139 0
-399 -3118 3119 0
-3119 3140 0
-400 -3119 3120 0
-3120 3141 0
-401 -3120 3121 0
-3121 3142 0
-402 -3121 3122 0
-3122 3143 0
-403 -3122 3123 0
-3123 3144 0
-404 -3123 3124 0
-3124 3145 0
-405 -3124 3125 0
-3125 3146 0
-406 -3125 3126 0
-3126 3147 0
-407 -3126 3127 0
-3127 3148 0
-408 -3127 3128 0
-3128 3149 0
-409 -3128 3129 0
-3129 3150 0
-410 -3129 3130 0
-3130 3151 0
-411 -3130 3131 0
-3131 3152 0
-412 -3131 3132 0
-3132 3153 0
-413 -3132 3133 0
-3133 3154 0
-414 -3133 3134 0
-3134 3155 0
-415 -3134 3135 0
-3135 3156 0
-416 -3135 3136 0
-3136 3157 0
-417 -3136 3137 0
-3137 3158 0
-418 -3137 0
-398 3138 0
-3138 3159 0
-399 -3138 3139 0
-3139 3160 0
-400 -3139 3140 0
-3140 3161 0
-401 -3140 3141 0
-3141 3162 0
-402 -3141 3142 0
-3142 3163 0
-403 -3142 3143 0
-3143 3164 0
-404 -3143 3144 0
-3144 3165 0
-405 -3144 3145 0
-3145 3166 0
-406 -3145 3146 0
-3146 3167 0
-407 -3146 3147 0
-3147 3168 0
-408 -3147 3148 0
-3148 3169 0
-409 -3148 3149 0
-3149 3170 0
-410 -3149 3150 0
-3150 3171 0
-411 -3150 3151 0
-3151 3172 0
-412 -3151 3152 0
-3152 3173 0
-413 -3152 3153 0
-3153 3174 0
-414 -3153 3154 0
-3154 3175 0
-415 -3154 3155 0
-3155 3176 0
-416 -3155 3156 0
-3156 3177 0
-417 -3156 3157 0
-3157 3178 0
-418 -3157 3158 0
-3158 3179 0
-419 -3158 0
-399 3159 0
-3159 3180 0
-400 -3159 3160 0
-3160 3181 0
-401 -3160 3161 0
-3161 3182 0
-402 -3161 3162 0
-3162 3183 0
-403 -3162 3163 0
-3163 3184 0
-404 -3163 3164 0
-3164 3185 0
-405 -3164 3165 0
-3165 3186 0
-406 -3165 3166 0
-3166 3187 0
-407 -3166 3167 0
-3167 3188 0
-408 -3167 3168 0
-3168 3189 0
-409 -3168 3169 0
-3169 3190 0
-410 -3169 3170 0
-3170 3191 0
-411 -3170 3171 0
-3171 3192 0
-412 -3171 3172 0
-3172 3193 0
-413 -3172 3173 0
-3173 3194 0
-414 -3173 3174 0
-3174 3195 0
-415 -3174 3175 0
-3175 3196 0
-416 -3175 3176 0
-3176 3197 0
-417 -3176 3177 0
-3177 3198 0
-418 -3177 3178 0
-3178 3199 0
-419 -3178 3179 0
-3179 3200 0
-420 -3179 0
-400 3180 0
-3180 3201 0
-401 -3180 3181 0
-3181 3202 0
-402 -3181 3182 0
-3182 3203 0
-403 -3182 3183 0
-3183 3204 0
-404 -3183 3184 0
-3184 3205 0
-405 -3184 3185 0
-3185 3206 0
-406 -3185 3186 0
-3186 3207 0
-407 -3186 3187 0
-3187 3208 0
-408 -3187 3188 0
-3188 3209 0
-409 -3188 3189 0
-3189 3210 0
-410 -3189 3190 0
-3190 3211 0
-411 -3190 3191 0
-3191 3212 0
-412 -3191 3192 0
-3192 3213 0
-413 -3192 3193 0
-3193 3214 0
-414 -3193 3194 0
-3194 3215 0
-415 -3194 3195 0
-3195 3216 0
-416 -3195 3196 0
-3196 3217 0
-417 -3196 3197 0
-3197 3218 0
-418 -3197 3198 0
-3198 3219 0
-419 -3198 3199 0
-3199 3220 0
-420 -3199 3200 0
-3200 3221 0
-421 -3200 0
-401 3201 0
-3201 3222 0
-402 -3201 3202 0
-3202 3223 0
-403 -3202 3203 0
-3203 3224 0
-404 -3203 3204 0
-3204 3225 0
-405 -3204 3205 0
-3205 3226 0
-406 -3205 3206 0
-3206 3227 0
-407 -3206 3207 0
-3207 3228 0
-408 -3207 3208 0
-3208 3229 0
-409 -3208 3209 0
-3209 3230 0
-410 -3209 3210 0
-3210 3231 0
-411 -3210 3211 0
-3211 3232 0
-412 -3211 3212 0
-3212 3233 0
-413 -3212 3213 0
-3213 3234 0
-414 -3213 3214 0
-3214 3235 0
-415 -3214 3215 0
-3215 3236 0
-416 -3215 3216 0
-3216 3237 0
-417 -3216 3217 0
-3217 3238 0
-418 -3217 3218 0
-3218 3239 0
-419 -3218 3219 0
-3219 3240 0
-420 -3219 3220 0
-3220 3241 0
-421 -3220 3221 0
-3221 3242 0
-422 -3221 0
-402 3222 0
-3222 3243 0
-403 -3222 3223 0
-3223 3244 0
-404 -3223 3224 0
-3224 3245 0
-405 -3224 3225 0
-3225 3246 0
-406 -3225 3226 0
-3226 3247 0
-407 -3226 3227 0
-3227 3248 0
-408 -3227 3228 0
-3228 3249 0
-409 -3228 3229 0
-3229 3250 0
-410 -3229 3230 0
-3230 3251 0
-411 -3230 3231 0
-3231 3252 0
-412 -3231 3232 0
-3232 3253 0
-413 -3232 3233 0
-3233 3254 0
-414 -3233 3234 0
-3234 3255 0
-415 -3234 3235 0
-3235 3256 0
-416 -3235 3236 0
-3236 3257 0
-417 -3236 3237 0
-3237 3258 0
-418 -3237 3238 0
-3238 3259 0
-419 -3238 3239 0
-3239 3260 0
-420 -3239 3240 0
-3240 3261 0
-421 -3240 3241 0
-3241 3262 0
-422 -3241 3242 0
-3242 3263 0
-423 -3242 0
-403 3243 0
-3243 3264 0
-404 -3243 3244 0
-3244 3265 0
-405 -3244 3245 0
-3245 3266 0
-406 -3245 3246 0
-3246 3267 0
-407 -3246 3247 0
-3247 3268 0
-408 -3247 3248 0
-3248 3269 0
-409 -3248 3249 0
-3249 3270 0
-410 -3249 3250 0
-3250 3271 0
-411 -3250 3251 0
-3251 3272 0
-412 -3251 3252 0
-3252 3273 0
-413 -3252 3253 0
-3253 3274 0
-414 -3253 3254 0
-3254 3275 0
-415 -3254 3255 0
-3255 3276 0
-416 -3255 3256 0
-3256 3277 0
-417 -3256 3257 0
-3257 3278 0
-418 -3257 3258 0
-3258 3279 0
-419 -3258 3259 0
-3259 3280 0
-420 -3259 3260 0
-3260 3281 0
-421 -3260 3261 0
-3261 3282 0
-422 -3261 3262 0
-3262 3283 0
-423 -3262 3263 0
-3263 3284 0
-424 -3263 0
-404 3264 0
-3264 3285 0
-405 -3264 3265 0
-3265 3286 0
-406 -3265 3266 0
-3266 3287 0
-407 -3266 3267 0
-3267 3288 0
-408 -3267 3268 0
-3268 3289 0
-409 -3268 3269 0
-3269 3290 0
-410 -3269 3270 0
-3270 3291 0
-411 -3270 3271 0
-3271 3292 0
-412 -3271 3272 0
-3272 3293 0
-413 -3272 3273 0
-3273 3294 0
-414 -3273 3274 0
-3274 3295 0
-415 -3274 3275 0
-3275 3296 0
-416 -3275 3276 0
-3276 3297 0
-417 -3276 3277 0
-3277 3298 0
-418 -3277 3278 0
-3278 3299 0
-419 -3278 3279 0
-3279 3300 0
-420 -3279 3280 0
-3280 3301 0
-421 -3280 3281 0
-3281 3302 0
-422 -3281 3282 0
-3282 3303 0
-423 -3282 3283 0
-3283 3304 0
-424 -3283 3284 0
-3284 3305 0
-425 -3284 0
-405 3285 0
-3285 3306 0
-406 -3285 3286 0
-3286 3307 0
-407 -3286 3287 0
-3287 3308 0
-408 -3287 3288 0
-3288 3309 0
-409 -3288 3289 0
-3289 3310 0
-410 -3289 3290 0
-3290 3311 0
-411 -3290 3291 0
-3291 3312 0
-412 -3291 3292 0
-3292 3313 0
-413 -3292 3293 0
-3293 3314 0
-414 -3293 3294 0
-3294 3315 0
-415 -3294 3295 0
-3295 3316 0
-416 -3295 3296 0
-3296 3317 0
-417 -3296 3297 0
-3297 3318 0
-418 -3297 3298 0
-3298 3319 0
-419 -3298 3299 0
-3299 3320 0
-420 -3299 3300 0
-3300 3321 0
-421 -3300 3301 0
-3301 3322 0
-422 -3301 3302 0
-3302 3323 0
-423 -3302 3303 0
-3303 3324 0
-424 -3303 3304 0
-3304 3325 0
-425 -3304 3305 0
-3305 3326 0
-426 -3305 0
-406 3306 0
-3306 3327 0
-407 -3306 3307 0
-3307 3328 0
-408 -3307 3308 0
-3308 3329 0
-409 -3308 3309 0
-3309 3330 0
-410 -3309 3310 0
-3310 3331 0
-411 -3310 3311 0
-3311 3332 0
-412 -3311 3312 0
-3312 3333 0
-413 -3312 3313 0
-3313 3334 0
-414 -3313 3314 0
-3314 3335 0
-415 -3314 3315 0
-3315 3336 0
-416 -3315 3316 0
-3316 3337 0
-417 -3316 3317 0
-3317 3338 0
-418 -3317 3318 0
-3318 3339 0
-419 -3318 3319 0
-3319 3340 0
-420 -3319 3320 0
-3320 3341 0
-421 -3320 3321 0
-3321 3342 0
-422 -3321 3322 0
-3322 3343 0
-423 -3322 3323 0
-3323 3344 0
-424 -3323 3324 0
-3324 3345 0
-425 -3324 3325 0
-3325 3346 0
-426 -3325 3326 0
-3326 3347 0
-427 -3326 0
-407 3327 0
-3327 3348 0
-408 -3327 3328 0
-3328 3349 0
-409 -3328 3329 0
-3329 3350 0
-410 -3329 3330 0
-3330 3351 0
-411 -3330 3331 0
-3331 3352 0
-412 -3331 3332 0
-3332 3353 0
-413 -3332 3333 0
-3333 3354 0
-414 -3333 3334 0
-3334 3355 0
-415 -3334 3335 0
-3335 3356 0
-416 -3335 3336 0
-3336 3357 0
-417 -3336 3337 0
-3337 3358 0
-418 -3337 3338 0
-3338 3359 0
-419 -3338 3339 0
-3339 3360 0
-420 -3339 3340 0
-3340 3361 0
-421 -3340 3341 0
-3341 3362 0
-422 -3341 3342 0
-3342 3363 0
-423 -3342 3343 0
-3343 3364 0
-424 -3343 3344 0
-3344 3365 0
-425 -3344 3345 0
-3345 3366 0
-426 -3345 3346 0
-3346 3367 0
-427 -3346 3347 0
-3347 3368 0
-428 -3347 0
-408 3348 0
-3348 3369 0
-409 -3348 3349 0
-3349 3370 0
-410 -3349 3350 0
-3350 3371 0
-411 -3350 3351 0
-3351 3372 0
-412 -3351 3352 0
-3352 3373 0
-413 -3352 3353 0
-3353 3374 0
-414 -3353 3354 0
-3354 3375 0
-415 -3354 3355 0
-3355 3376 0
-416 -3355 3356 0
-3356 3377 0
-417 -3356 3357 0
-3357 3378 0
-418 -3357 3358 0
-3358 3379 0
-419 -3358 3359 0
-3359 3380 0
-420 -3359 3360 0
-3360 3381 0
-421 -3360 3361 0
-3361 3382 0
-422 -3361 3362 0
-3362 3383 0
-423 -3362 3363 0
-3363 3384 0
-424 -3363 3364 0
-3364 3385 0
-425 -3364 3365 0
-3365 3386 0
-426 -3365 3366 0
-3366 3387 0
-427 -3366 3367 0
-3367 3388 0
-428 -3367 3368 0
-3368 3389 0
-429 -3368 0
-409 3369 0
-3369 3390 0
-410 -3369 3370 0
-3370 3391 0
-411 -3370 3371 0
-3371 3392 0
-412 -3371 3372 0
-3372 3393 0
-413 -3372 3373 0
-3373 3394 0
-414 -3373 3374 0
-3374 3395 0
-415 -3374 3375 0
-3375 3396 0
-416 -3375 3376 0
-3376 3397 0
-417 -3376 3377 0
-3377 3398 0
-418 -3377 3378 0
-3378 3399 0
-419 -3378 3379 0
-3379 3400 0
-420 -3379 3380 0
-3380 3401 0
-421 -3380 3381 0
-3381 3402 0
-422 -3381 3382 0
-3382 3403 0
-423 -3382 3383 0
-3383 3404 0
-424 -3383 3384 0
-3384 3405 0
-425 -3384 3385 0
-3385 3406 0
-426 -3385 3386 0
-3386 3407 0
-427 -3386 3387 0
-3387 3408 0
-428 -3387 3388 0
-3388 3409 0
-429 -3388 3389 0
-3389 3410 0
-430 -3389 0
-410 3390 0
-3390 3411 0
-411 -3390 3391 0
-3391 3412 0
-412 -3391 3392 0
-3392 3413 0
-413 -3392 3393 0
-3393 3414 0
-414 -3393 3394 0
-3394 3415 0
-415 -3394 3395 0
-3395 3416 0
-416 -3395 3396 0
-3396 3417 0
-417 -3396 3397 0
-3397 3418 0
-418 -3397 3398 0
-3398 3419 0
-419 -3398 3399 0
-3399 3420 0
-420 -3399 3400 0
-3400 3421 0
-421 -3400 3401 0
-3401 3422 0
-422 -3401 3402 0
-3402 3423 0
-423 -3402 3403 0
-3403 3424 0
-424 -3403 3404 0
-3404 3425 0
-425 -3404 3405 0
-3405 3426 0
-426 -3405 3406 0
-3406 3427 0
-427 -3406 3407 0
-3407 3428 0
-428 -3407 3408 0
-3408 3429 0
-429 -3408 3409 0
-3409 3430 0
-430 -3409 3410 0
-3410 3431 0
-431 -3410 0
-411 3411 0
-3411 3432 0
-412 -3411 3412 0
-3412 3433 0
-413 -3412 3413 0
-3413 3434 0
-414 -3413 3414 0
-3414 3435 0
-415 -3414 3415 0
-3415 3436 0
-416 -3415 3416 0
-3416 3437 0
-417 -3416 3417 0
-3417 3438 0
-418 -3417 3418 0
-3418 3439 0
-419 -3418 3419 0
-3419 3440 0
-420 -3419 3420 0
-3420 3441 0
-421 -3420 3421 0
-3421 3442 0
-422 -3421 3422 0
-3422 3443 0
-423 -3422 3423 0
-3423 3444 0
-424 -3423 3424 0
-3424 3445 0
-425 -3424 3425 0
-3425 3446 0
-426 -3425 3426 0
-3426 3447 0
-427 -3426 3427 0
-3427 3448 0
-428 -3427 3428 0
-3428 3449 0
-429 -3428 3429 0
-3429 3450 0
-430 -3429 3430 0
-3430 3451 0
-431 -3430 3431 0
-3431 3452 0
-432 -3431 0
-412 3432 0
-3432 3453 0
-413 -3432 3433 0
-3433 3454 0
-414 -3433 3434 0
-3434 3455 0
-415 -3434 3435 0
-3435 3456 0
-416 -3435 3436 0
-3436 3457 0
-417 -3436 3437 0
-3437 3458 0
-418 -3437 3438 0
-3438 3459 0
-419 -3438 3439 0
-3439 3460 0
-420 -3439 3440 0
-3440 3461 0
-421 -3440 3441 0
-3441 3462 0
-422 -3441 3442 0
-3442 3463 0
-423 -3442 3443 0
-3443 3464 0
-424 -3443 3444 0
-3444 3465 0
-425 -3444 3445 0
-3445 3466 0
-426 -3445 3446 0
-3446 3467 0
-427 -3446 3447 0
-3447 3468 0
-428 -3447 3448 0
-3448 3469 0
-429 -3448 3449 0
-3449 3470 0
-430 -3449 3450 0
-3450 3471 0
-431 -3450 3451 0
-3451 3472 0
-432 -3451 3452 0
-3452 3473 0
-433 -3452 0
-413 3453 0
-3453 3474 0
-414 -3453 3454 0
-3454 3475 0
-415 -3454 3455 0
-3455 3476 0
-416 -3455 3456 0
-3456 3477 0
-417 -3456 3457 0
-3457 3478 0
-418 -3457 3458 0
-3458 3479 0
-419 -3458 3459 0
-3459 3480 0
-420 -3459 3460 0
-3460 3481 0
-421 -3460 3461 0
-3461 3482 0
-422 -3461 3462 0
-3462 3483 0
-423 -3462 3463 0
-3463 3484 0
-424 -3463 3464 0
-3464 3485 0
-425 -3464 3465 0
-3465 3486 0
-426 -3465 3466 0
-3466 3487 0
-427 -3466 3467 0
-3467 3488 0
-428 -3467 3468 0
-3468 3489 0
-429 -3468 3469 0
-3469 3490 0
-430 -3469 3470 0
-3470 3491 0
-431 -3470 3471 0
-3471 3492 0
-432 -3471 3472 0
-3472 3493 0
-433 -3472 3473 0
-3473 3494 0
-434 -3473 0
-414 3474 0
-3474 3495 0
-415 -3474 3475 0
-3475 3496 0
-416 -3475 3476 0
-3476 3497 0
-417 -3476 3477 0
-3477 3498 0
-418 -3477 3478 0
-3478 3499 0
-419 -3478 3479 0
-3479 3500 0
-420 -3479 3480 0
-3480 3501 0
-421 -3480 3481 0
-3481 3502 0
-422 -3481 3482 0
-3482 3503 0
-423 -3482 3483 0
-3483 3504 0
-424 -3483 3484 0
-3484 3505 0
-425 -3484 3485 0
-3485 3506 0
-426 -3485 3486 0
-3486 3507 0
-427 -3486 3487 0
-3487 3508 0
-428 -3487 3488 0
-3488 3509 0
-429 -3488 3489 0
-3489 3510 0
-430 -3489 3490 0
-3490 3511 0
-431 -3490 3491 0
-3491 3512 0
-432 -3491 3492 0
-3492 3513 0
-433 -3492 3493 0
-3493 3514 0
-434 -3493 3494 0
-3494 3515 0
-435 -3494 0
-415 3495 0
-3495 3516 0
-416 -3495 3496 0
-3496 3517 0
-417 -3496 3497 0
-3497 3518 0
-418 -3497 3498 0
-3498 3519 0
-419 -3498 3499 0
-3499 3520 0
-420 -3499 3500 0
-3500 3521 0
-421 -3500 3501 0
-3501 3522 0
-422 -3501 3502 0
-3502 3523 0
-423 -3502 3503 0
-3503 3524 0
-424 -3503 3504 0
-3504 3525 0
-425 -3504 3505 0
-3505 3526 0
-426 -3505 3506 0
-3506 3527 0
-427 -3506 3507 0
-3507 3528 0
-428 -3507 3508 0
-3508 3529 0
-429 -3508 3509 0
-3509 3530 0
-430 -3509 3510 0
-3510 3531 0
-431 -3510 3511 0
-3511 3532 0
-432 -3511 3512 0
-3512 3533 0
-433 -3512 3513 0
-3513 3534 0
-434 -3513 3514 0
-3514 3535 0
-435 -3514 3515 0
-3515 3536 0
-436 -3515 0
-416 3516 0
-3516 3537 0
-417 -3516 3517 0
-3517 3538 0
-418 -3517 3518 0
-3518 3539 0
-419 -3518 3519 0
-3519 3540 0
-420 -3519 3520 0
-3520 3541 0
-421 -3520 3521 0
-3521 3542 0
-422 -3521 3522 0
-3522 3543 0
-423 -3522 3523 0
-3523 3544 0
-424 -3523 3524 0
-3524 3545 0
-425 -3524 3525 0
-3525 3546 0
-426 -3525 3526 0
-3526 3547 0
-427 -3526 3527 0
-3527 3548 0
-428 -3527 3528 0
-3528 3549 0
-429 -3528 3529 0
-3529 3550 0
-430 -3529 3530 0
-3530 3551 0
-431 -3530 3531 0
-3531 3552 0
-432 -3531 3532 0
-3532 3553 0
-433 -3532 3533 0
-3533 3554 0
-434 -3533 3534 0
-3534 3555 0
-435 -3534 3535 0
-3535 3556 0
-436 -3535 3536 0
-3536 3557 0
-437 -3536 0
-417 3537 0
-3537 3558 0
-418 -3537 3538 0
-3538 3559 0
-419 -3538 3539 0
-3539 3560 0
-420 -3539 3540 0
-3540 3561 0
-421 -3540 3541 0
-3541 3562 0
-422 -3541 3542 0
-3542 3563 0
-423 -3542 3543 0
-3543 3564 0
-424 -3543 3544 0
-3544 3565 0
-425 -3544 3545 0
-3545 3566 0
-426 -3545 3546 0
-3546 3567 0
-427 -3546 3547 0
-3547 3568 0
-428 -3547 3548 0
-3548 3569 0
-429 -3548 3549 0
-3549 3570 0
-430 -3549 3550 0
-3550 3571 0
-431 -3550 3551 0
-3551 3572 0
-432 -3551 3552 0
-3552 3573 0
-433 -3552 3553 0
-3553 3574 0
-434 -3553 3554 0
-3554 3575 0
-435 -3554 3555 0
-3555 3576 0
-436 -3555 3556 0
-3556 3577 0
-437 -3556 3557 0
-3557 3578 0
-438 -3557 0
-418 3558 0
-3558 3579 0
-419 -3558 3559 0
-3559 3580 0
-420 -3559 3560 0
-3560 3581 0
-421 -3560 3561 0
-3561 3582 0
-422 -3561 3562 0
-3562 3583 0
-423 -3562 3563 0
-3563 3584 0
-424 -3563 3564 0
-3564 3585 0
-425 -3564 3565 0
-3565 3586 0
-426 -3565 3566 0
-3566 3587 0
-427 -3566 3567 0
-3567 3588 0
-428 -3567 3568 0
-3568 3589 0
-429 -3568 3569 0
-3569 3590 0
-430 -3569 3570 0
-3570 3591 0
-431 -3570 3571 0
-3571 3592 0
-432 -3571 3572 0
-3572 3593 0
-433 -3572 3573 0
-3573 3594 0
-434 -3573 3574 0
-3574 3595 0
-435 -3574 3575 0
-3575 3596 0
-436 -3575 3576 0
-3576 3597 0
-437 -3576 3577 0
-3577 3598 0
-438 -3577 3578 0
-3578 3599 0
-439 -3578 0
-419 3579 0
-3579 3600 0
-420 -3579 3580 0
-3580 3601 0
-421 -3580 3581 0
-3581 3602 0
-422 -3581 3582 0
-3582 3603 0
-423 -3582 3583 0
-3583 3604 0
-424 -3583 3584 0
-3584 3605 0
-425 -3584 3585 0
-3585 3606 0
-426 -3585 3586 0
-3586 3607 0
-427 -3586 3587 0
-3587 3608 0
-428 -3587 3588 0
-3588 3609 0
-429 -3588 3589 0
-3589 3610 0
-430 -3589 3590 0
-3590 3611 0
-431 -3590 3591 0
-3591 3612 0
-432 -3591 3592 0
-3592 3613 0
-433 -3592 3593 0
-3593 3614 0
-434 -3593 3594 0
-3594 3615 0
-435 -3594 3595 0
-3595 3616 0
-436 -3595 3596 0
-3596 3617 0
-437 -3596 3597 0
-3597 3618 0
-438 -3597 3598 0
-3598 3619 0
-439 -3598 3599 0
-3599 3620 0
-440 -3599 0
-420 3600 0
-3600 3621 0
-421 -3600 3601 0
-3601 3622 0
-422 -3601 3602 0
-3602 3623 0
-423 -3602 3603 0
-3603 3624 0
-424 -3603 3604 0
-3604 3625 0
-425 -3604 3605 0
-3605 3626 0
-426 -3605 3606 0
-3606 3627 0
-427 -3606 3607 0
-3607 3628 0
-428 -3607 3608 0
-3608 3629 0
-429 -3608 3609 0
-3609 3630 0
-430 -3609 3610 0
-3610 3631 0
-431 -3610 3611 0
-3611 3632 0
-432 -3611 3612 0
-3612 3633 0
-433 -3612 3613 0
-3613 3634 0
-434 -3613 3614 0
-3614 3635 0
-435 -3614 3615 0
-3615 3636 0
-436 -3615 3616 0
-3616 3637 0
-437 -3616 3617 0
-3617 3638 0
-438 -3617 3618 0
-3618 3639 0
-439 -3618 3619 0
-3619 3640 0
-440 -3619 3620 0
-3620 3641 0
-441 -3620 0
-421 3621 0
-3621 3642 0
-422 -3621 3622 0
-3622 3643 0
-423 -3622 3623 0
-3623 3644 0
-424 -3623 3624 0
-3624 3645 0
-425 -3624 3625 0
-3625 3646 0
-426 -3625 3626 0
-3626 3647 0
-427 -3626 3627 0
-3627 3648 0
-428 -3627 3628 0
-3628 3649 0
-429 -3628 3629 0
-3629 3650 0
-430 -3629 3630 0
-3630 3651 0
-431 -3630 3631 0
-3631 3652 0
-432 -3631 3632 0
-3632 3653 0
-433 -3632 3633 0
-3633 3654 0
-434 -3633 3634 0
-3634 3655 0
-435 -3634 3635 0
-3635 3656 0
-436 -3635 3636 0
-3636 3657 0
-437 -3636 3637 0
-3637 3658 0
-438 -3637 3638 0
-3638 3659 0
-439 -3638 3639 0
-3639 3660 0
-440 -3639 3640 0
-3640 3661 0
-441 -3640 3641 0
-3641 3662 0
-442 -3641 0
-422 3642 0
-3642 3663 0
-423 -3642 3643 0
-3643 3664 0
-424 -3643 3644 0
-3644 3665 0
-425 -3644 3645 0
-3645 3666 0
-426 -3645 3646 0
-3646 3667 0
-427 -3646 3647 0
-3647 3668 0
-428 -3647 3648 0
-3648 3669 0
-429 -3648 3649 0
-3649 3670 0
-430 -3649 3650 0
-3650 3671 0
-431 -3650 3651 0
-3651 3672 0
-432 -3651 3652 0
-3652 3673 0
-433 -3652 3653 0
-3653 3674 0
-434 -3653 3654 0
-3654 3675 0
-435 -3654 3655 0
-3655 3676 0
-436 -3655 3656 0
-3656 3677 0
-437 -3656 3657 0
-3657 3678 0
-438 -3657 3658 0
-3658 3679 0
-439 -3658 3659 0
-3659 3680 0
-440 -3659 3660 0
-3660 3681 0
-441 -3660 3661 0
-3661 3682 0
-442 -3661 3662 0
-3662 3683 0
-443 -3662 0
-423 3663 0
-3663 3684 0
-424 -3663 3664 0
-3664 3685 0
-425 -3664 3665 0
-3665 3686 0
-426 -3665 3666 0
-3666 3687 0
-427 -3666 3667 0
-3667 3688 0
-428 -3667 3668 0
-3668 3689 0
-429 -3668 3669 0
-3669 3690 0
-430 -3669 3670 0
-3670 3691 0
-431 -3670 3671 0
-3671 3692 0
-432 -3671 3672 0
-3672 3693 0
-433 -3672 3673 0
-3673 3694 0
-434 -3673 3674 0
-3674 3695 0
-435 -3674 3675 0
-3675 3696 0
-436 -3675 3676 0
-3676 3697 0
-437 -3676 3677 0
-3677 3698 0
-438 -3677 3678 0
-3678 3699 0
-439 -3678 3679 0
-3679 3700 0
-440 -3679 3680 0
-3680 3701 0
-441 -3680 3681 0
-3681 3702 0
-442 -3681 3682 0
-3682 3703 0
-443 -3682 3683 0
-3683 3704 0
-444 -3683 0
-424 3684 0
-3684 3705 0
-425 -3684 3685 0
-3685 3706 0
-426 -3685 3686 0
-3686 3707 0
-427 -3686 3687 0
-3687 3708 0
-428 -3687 3688 0
-3688 3709 0
-429 -3688 3689 0
-3689 3710 0
-430 -3689 3690 0
-3690 3711 0
-431 -3690 3691 0
-3691 3712 0
-432 -3691 3692 0
-3692 3713 0
-433 -3692 3693 0
-3693 3714 0
-434 -3693 3694 0
-3694 3715 0
-435 -3694 3695 0
-3695 3716 0
-436 -3695 3696 0
-3696 3717 0
-437 -3696 3697 0
-3697 3718 0
-438 -3697 3698 0
-3698 3719 0
-439 -3698 3699 0
-3699 3720 0
-440 -3699 3700 0
-3700 3721 0
-441 -3700 3701 0
-3701 3722 0
-442 -3701 3702 0
-3702 3723 0
-443 -3702 3703 0
-3703 3724 0
-444 -3703 3704 0
-3704 3725 0
-445 -3704 0
-425 3705 0
-3705 3726 0
-426 -3705 3706 0
-3706 3727 0
-427 -3706 3707 0
-3707 3728 0
-428 -3707 3708 0
-3708 3729 0
-429 -3708 3709 0
-3709 3730 0
-430 -3709 3710 0
-3710 3731 0
-431 -3710 3711 0
-3711 3732 0
-432 -3711 3712 0
-3712 3733 0
-433 -3712 3713 0
-3713 3734 0
-434 -3713 3714 0
-3714 3735 0
-435 -3714 3715 0
-3715 3736 0
-436 -3715 3716 0
-3716 3737 0
-437 -3716 3717 0
-3717 3738 0
-438 -3717 3718 0
-3718 3739 0
-439 -3718 3719 0
-3719 3740 0
-440 -3719 3720 0
-3720 3741 0
-441 -3720 3721 0
-3721 3742 0
-442 -3721 3722 0
-3722 3743 0
-443 -3722 3723 0
-3723 3744 0
-444 -3723 3724 0
-3724 3745 0
-445 -3724 3725 0
-3725 3746 0
-446 -3725 0
-426 3726 0
-3726 3747 0
-427 -3726 3727 0
-3727 3748 0
-428 -3727 3728 0
-3728 3749 0
-429 -3728 3729 0
-3729 3750 0
-430 -3729 3730 0
-3730 3751 0
-431 -3730 3731 0
-3731 3752 0
-432 -3731 3732 0
-3732 3753 0
-433 -3732 3733 0
-3733 3754 0
-434 -3733 3734 0
-3734 3755 0
-435 -3734 3735 0
-3735 3756 0
-436 -3735 3736 0
-3736 3757 0
-437 -3736 3737 0
-3737 3758 0
-438 -3737 3738 0
-3738 3759 0
-439 -3738 3739 0
-3739 3760 0
-440 -3739 3740 0
-3740 3761 0
-441 -3740 3741 0
-3741 3762 0
-442 -3741 3742 0
-3742 3763 0
-443 -3742 3743 0
-3743 3764 0
-444 -3743 3744 0
-3744 3765 0
-445 -3744 3745 0
-3745 3766 0
-446 -3745 3746 0
-3746 3767 0
-447 -3746 0
-427 3747 0
-3747 3768 0
-428 -3747 3748 0
-3748 3769 0
-429 -3748 3749 0
-3749 3770 0
-430 -3749 3750 0
-3750 3771 0
-431 -3750 3751 0
-3751 3772 0
-432 -3751 3752 0
-3752 3773 0
-433 -3752 3753 0
-3753 3774 0
-434 -3753 3754 0
-3754 3775 0
-435 -3754 3755 0
-3755 3776 0
-436 -3755 3756 0
-3756 3777 0
-437 -3756 3757 0
-3757 3778 0
-438 -3757 3758 0
-3758 3779 0
-439 -3758 3759 0
-3759 3780 0
-440 -3759 3760 0
-3760 3781 0
-441 -3760 3761 0
-3761 3782 0
-442 -3761 3762 0
-3762 3783 0
-443 -3762 3763 0
-3763 3784 0
-444 -3763 3764 0
-3764 3785 0
-445 -3764 3765 0
-3765 3786 0
-446 -3765 3766 0
-3766 3787 0
-447 -3766 3767 0
-3767 3788 0
-448 -3767 0
-428 3768 0
-3768 3789 0
-429 -3768 3769 0
-3769 3790 0
-430 -3769 3770 0
-3770 3791 0
-431 -3770 3771 0
-3771 3792 0
-432 -3771 3772 0
-3772 3793 0
-433 -3772 3773 0
-3773 3794 0
-434 -3773 3774 0
-3774 3795 0
-435 -3774 3775 0
-3775 3796 0
-436 -3775 3776 0
-3776 3797 0
-437 -3776 3777 0
-3777 3798 0
-438 -3777 3778 0
-3778 3799 0
-439 -3778 3779 0
-3779 3800 0
-440 -3779 3780 0
-3780 3801 0
-441 -3780 3781 0
-3781 3802 0
-442 -3781 3782 0
-3782 3803 0
-443 -3782 3783 0
-3783 3804 0
-444 -3783 3784 0
-3784 3805 0
-445 -3784 3785 0
-3785 3806 0
-446 -3785 3786 0
-3786 3807 0
-447 -3786 3787 0
-3787 3808 0
-448 -3787 3788 0
-3788 3809 0
-449 -3788 0
-429 3789 0
-3789 3810 0
-430 -3789 3790 0
-3790 3811 0
-431 -3790 3791 0
-3791 3812 0
-432 -3791 3792 0
-3792 3813 0
-433 -3792 3793 0
-3793 3814 0
-434 -3793 3794 0
-3794 3815 0
-435 -3794 3795 0
-3795 3816 0
-436 -3795 3796 0
-3796 3817 0
-437 -3796 3797 0
-3797 3818 0
-438 -3797 3798 0
-3798 3819 0
-439 -3798 3799 0
-3799 3820 0
-440 -3799 3800 0
-3800 3821 0
-441 -3800 3801 0
-3801 3822 0
-442 -3801 3802 0
-3802 3823 0
-443 -3802 3803 0
-3803 3824 0
-444 -3803 3804 0
-3804 3825 0
-445 -3804 3805 0
-3805 3826 0
-446 -3805 3806 0
-3806 3827 0
-447 -3806 3807 0
-3807 3828 0
-448 -3807 3808 0
-3808 3829 0
-449 -3808 3809 0
-3809 3830 0
-450 -3809 0
-430 3810 0
-3810 3831 0
-431 -3810 3811 0
-3811 3832 0
-432 -3811 3812 0
-3812 3833 0
-433 -3812 3813 0
-3813 3834 0
-434 -3813 3814 0
-3814 3835 0
-435 -3814 3815 0
-3815 3836 0
-436 -3815 3816 0
-3816 3837 0
-437 -3816 3817 0
-3817 3838 0
-438 -3817 3818 0
-3818 3839 0
-439 -3818 3819 0
-3819 3840 0
-440 -3819 3820 0
-3820 3841 0
-441 -3820 3821 0
-3821 3842 0
-442 -3821 3822 0
-3822 3843 0
-443 -3822 3823 0
-3823 3844 0
-444 -3823 3824 0
-3824 3845 0
-445 -3824 3825 0
-3825 3846 0
-446 -3825 3826 0
-3826 3847 0
-447 -3826 3827 0
-3827 3848 0
-448 -3827 3828 0
-3828 3849 0
-449 -3828 3829 0
-3829 3850 0
-450 -3829 3830 0
-3830 3851 0
-451 -3830 0
-431 3831 0
-3831 3852 0
-432 -3831 3832 0
-3832 3853 0
-433 -3832 3833 0
-3833 3854 0
-434 -3833 3834 0
-3834 3855 0
-435 -3834 3835 0
-3835 3856 0
-436 -3835 3836 0
-3836 3857 0
-437 -3836 3837 0
-3837 3858 0
-438 -3837 3838 0
-3838 3859 0
-439 -3838 3839 0
-3839 3860 0
-440 -3839 3840 0
-3840 3861 0
-441 -3840 3841 0
-3841 3862 0
-442 -3841 3842 0
-3842 3863 0
-443 -3842 3843 0
-3843 3864 0
-444 -3843 3844 0
-3844 3865 0
-445 -3844 3845 0
-3845 3866 0
-446 -3845 3846 0
-3846 3867 0
-447 -3846 3847 0
-3847 3868 0
-448 -3847 3848 0
-3848 3869 0
-449 -3848 3849 0
-3849 3870 0
-450 -3849 3850 0
-3850 3871 0
-451 -3850 3851 0
-3851 3872 0
-452 -3851 0
-432 3852 0
-3852 3873 0
-433 -3852 3853 0
-3853 3874 0
-434 -3853 3854 0
-3854 3875 0
-435 -3854 3855 0
-3855 3876 0
-436 -3855 3856 0
-3856 3877 0
-437 -3856 3857 0
-3857 3878 0
-438 -3857 3858 0
-3858 3879 0
-439 -3858 3859 0
-3859 3880 0
-440 -3859 3860 0
-3860 3881 0
-441 -3860 3861 0
-3861 3882 0
-442 -3861 3862 0
-3862 3883 0
-443 -3862 3863 0
-3863 3884 0
-444 -3863 3864 0
-3864 3885 0
-445 -3864 3865 0
-3865 3886 0
-446 -3865 3866 0
-3866 3887 0
-447 -3866 3867 0
-3867 3888 0
-448 -3867 3868 0
-3868 3889 0
-449 -3868 3869 0
-3869 3890 0
-450 -3869 3870 0
-3870 3891 0
-451 -3870 3871 0
-3871 3892 0
-452 -3871 3872 0
-3872 3893 0
-453 -3872 0
-433 3873 0
-3873 3894 0
-434 -3873 3874 0
-3874 3895 0
-435 -3874 3875 0
-3875 3896 0
-436 -3875 3876 0
-3876 3897 0
-437 -3876 3877 0
-3877 3898 0
-438 -3877 3878 0
-3878 3899 0
-439 -3878 3879 0
-3879 3900 0
-440 -3879 3880 0
-3880 3901 0
-441 -3880 3881 0
-3881 3902 0
-442 -3881 3882 0
-3882 3903 0
-443 -3882 3883 0
-3883 3904 0
-444 -3883 3884 0
-3884 3905 0
-445 -3884 3885 0
-3885 3906 0
-446 -3885 3886 0
-3886 3907 0
-447 -3886 3887 0
-3887 3908 0
-448 -3887 3888 0
-3888 3909 0
-449 -3888 3889 0
-3889 3910 0
-450 -3889 3890 0
-3890 3911 0
-451 -3890 3891 0
-3891 3912 0
-452 -3891 3892 0
-3892 3913 0
-453 -3892 3893 0
-3893 3914 0
-454 -3893 0
-434 3894 0
-3894 3915 0
-435 -3894 3895 0
-3895 3916 0
-436 -3895 3896 0
-3896 3917 0
-437 -3896 3897 0
-3897 3918 0
-438 -3897 3898 0
-3898 3919 0
-439 -3898 3899 0
-3899 3920 0
-440 -3899 3900 0
-3900 3921 0
-441 -3900 3901 0
-3901 3922 0
-442 -3901 3902 0
-3902 3923 0
-443 -3902 3903 0
-3903 3924 0
-444 -3903 3904 0
-3904 3925 0
-445 -3904 3905 0
-3905 3926 0
-446 -3905 3906 0
-3906 3927 0
-447 -3906 3907 0
-3907 3928 0
-448 -3907 3908 0
-3908 3929 0
-449 -3908 3909 0
-3909 3930 0
-450 -3909 3910 0
-3910 3931 0
-451 -3910 3911 0
-3911 3932 0
-452 -3911 3912 0
-3912 3933 0
-453 -3912 3913 0
-3913 3934 0
-454 -3913 3914 0
-3914 3935 0
-455 -3914 0
-435 3915 0
-3915 3936 0
-436 -3915 3916 0
-3916 3937 0
-437 -3916 3917 0
-3917 3938 0
-438 -3917 3918 0
-3918 3939 0
-439 -3918 3919 0
-3919 3940 0
-440 -3919 3920 0
-3920 3941 0
-441 -3920 3921 0
-3921 3942 0
-442 -3921 3922 0
-3922 3943 0
-443 -3922 3923 0
-3923 3944 0
-444 -3923 3924 0
-3924 3945 0
-445 -3924 3925 0
-3925 3946 0
-446 -3925 3926 0
-3926 3947 0
-447 -3926 3927 0
-3927 3948 0
-448 -3927 3928 0
-3928 3949 0
-449 -3928 3929 0
-3929 3950 0
-450 -3929 3930 0
-3930 3951 0
-451 -3930 3931 0
-3931 3952 0
-452 -3931 3932 0
-3932 3953 0
-453 -3932 3933 0
-3933 3954 0
-454 -3933 3934 0
-3934 3955 0
-455 -3934 3935 0
-3935 3956 0
-456 -3935 0
-436 3936 0
-3936 3957 0
-437 -3936 3937 0
-3937 3958 0
-438 -3937 3938 0
-3938 3959 0
-439 -3938 3939 0
-3939 3960 0
-440 -3939 3940 0
-3940 3961 0
-441 -3940 3941 0
-3941 3962 0
-442 -3941 3942 0
-3942 3963 0
-443 -3942 3943 0
-3943 3964 0
-444 -3943 3944 0
-3944 3965 0
-445 -3944 3945 0
-3945 3966 0
-446 -3945 3946 0
-3946 3967 0
-447 -3946 3947 0
-3947 3968 0
-448 -3947 3948 0
-3948 3969 0
-449 -3948 3949 0
-3949 3970 0
-450 -3949 3950 0
-3950 3971 0
-451 -3950 3951 0
-3951 3972 0
-452 -3951 3952 0
-3952 3973 0
-453 -3952 3953 0
-3953 3974 0
-454 -3953 3954 0
-3954 3975 0
-455 -3954 3955 0
-3955 3976 0
-456 -3955 3956 0
-3956 3977 0
-457 -3956 0
-437 3957 0
-3957 3978 0
-438 -3957 3958 0
-3958 3979 0
-439 -3958 3959 0
-3959 3980 0
-440 -3959 3960 0
-3960 3981 0
-441 -3960 3961 0
-3961 3982 0
-442 -3961 3962 0
-3962 3983 0
-443 -3962 3963 0
-3963 3984 0
-444 -3963 3964 0
-3964 3985 0
-445 -3964 3965 0
-3965 3986 0
-446 -3965 3966 0
-3966 3987 0
-447 -3966 3967 0
-3967 3988 0
-448 -3967 3968 0
-3968 3989 0
-449 -3968 3969 0
-3969 3990 0
-450 -3969 3970 0
-3970 3991 0
-451 -3970 3971 0
-3971 3992 0
-452 -3971 3972 0
-3972 3993 0
-453 -3972 3973 0
-3973 3994 0
-454 -3973 3974 0
-3974 3995 0
-455 -3974 3975 0
-3975 3996 0
-456 -3975 3976 0
-3976 3997 0
-457 -3976 3977 0
-3977 3998 0
-458 -3977 0
-438 3978 0
-3978 3999 0
-439 -3978 3979 0
-3979 4000 0
-440 -3979 3980 0
-3980 4001 0
-441 -3980 3981 0
-3981 4002 0
-442 -3981 3982 0
-3982 4003 0
-443 -3982 3983 0
-3983 4004 0
-444 -3983 3984 0
-3984 4005 0
-445 -3984 3985 0
-3985 4006 0
-446 -3985 3986 0
-3986 4007 0
-447 -3986 3987 0
-3987 4008 0
-448 -3987 3988 0
-3988 4009 0
-449 -3988 3989 0
-3989 4010 0
-450 -3989 3990 0
-3990 4011 0
-451 -3990 3991 0
-3991 4012 0
-452 -3991 3992 0
-3992 4013 0
-453 -3992 3993 0
-3993 4014 0
-454 -3993 3994 0
-3994 4015 0
-455 -3994 3995 0
-3995 4016 0
-456 -3995 3996 0
-3996 4017 0
-457 -3996 3997 0
-3997 4018 0
-458 -3997 3998 0
-3998 4019 0
-459 -3998 0
-439 3999 0
-3999 4020 0
-440 -3999 4000 0
-4000 4021 0
-441 -4000 4001 0
-4001 4022 0
-442 -4001 4002 0
-4002 4023 0
-443 -4002 4003 0
-4003 4024 0
-444 -4003 4004 0
-4004 4025 0
-445 -4004 4005 0
-4005 4026 0
-446 -4005 4006 0
-4006 4027 0
-447 -4006 4007 0
-4007 4028 0
-448 -4007 4008 0
-4008 4029 0
-449 -4008 4009 0
-4009 4030 0
-450 -4009 4010 0
-4010 4031 0
-451 -4010 4011 0
-4011 4032 0
-452 -4011 4012 0
-4012 4033 0
-453 -4012 4013 0
-4013 4034 0
-454 -4013 4014 0
-4014 4035 0
-455 -4014 4015 0
-4015 4036 0
-456 -4015 4016 0
-4016 4037 0
-457 -4016 4017 0
-4017 4038 0
-458 -4017 4018 0
-4018 4039 0
-459 -4018 4019 0
-4019 4040 0
-460 -4019 0
-440 4020 0
-4020 4041 0
-441 -4020 4021 0
-4021 4042 0
-442 -4021 4022 0
-4022 4043 0
-443 -4022 4023 0
-4023 4044 0
-444 -4023 4024 0
-4024 4045 0
-445 -4024 4025 0
-4025 4046 0
-446 -4025 4026 0
-4026 4047 0
-447 -4026 4027 0
-4027 4048 0
-448 -4027 4028 0
-4028 4049 0
-449 -4028 4029 0
-4029 4050 0
-450 -4029 4030 0
-4030 4051 0
-451 -4030 4031 0
-4031 4052 0
-452 -4031 4032 0
-4032 4053 0
-453 -4032 4033 0
-4033 4054 0
-454 -4033 4034 0
-4034 4055 0
-455 -4034 4035 0
-4035 4056 0
-456 -4035 4036 0
-4036 4057 0
-457 -4036 4037 0
-4037 4058 0
-458 -4037 4038 0
-4038 4059 0
-459 -4038 4039 0
-4039 4060 0
-460 -4039 4040 0
-4040 4061 0
-461 -4040 0
-441 4041 0
-4041 4062 0
-442 -4041 4042 0
-4042 4063 0
-443 -4042 4043 0
-4043 4064 0
-444 -4043 4044 0
-4044 4065 0
-445 -4044 4045 0
-4045 4066 0
-446 -4045 4046 0
-4046 4067 0
-447 -4046 4047 0
-4047 4068 0
-448 -4047 4048 0
-4048 4069 0
-449 -4048 4049 0
-4049 4070 0
-450 -4049 4050 0
-4050 4071 0
-451 -4050 4051 0
-4051 4072 0
-452 -4051 4052 0
-4052 4073 0
-453 -4052 4053 0
-4053 4074 0
-454 -4053 4054 0
-4054 4075 0
-455 -4054 4055 0
-4055 4076 0
-456 -4055 4056 0
-4056 4077 0
-457 -4056 4057 0
-4057 4078 0
-458 -4057 4058 0
-4058 4079 0
-459 -4058 4059 0
-4059 4080 0
-460 -4059 4060 0
-4060 4081 0
-461 -4060 4061 0
-4061 4082 0
-462 -4061 0
-442 4062 0
-4062 4083 0
-443 -4062 4063 0
-4063 4084 0
-444 -4063 4064 0
-4064 4085 0
-445 -4064 4065 0
-4065 4086 0
-446 -4065 4066 0
-4066 4087 0
-447 -4066 4067 0
-4067 4088 0
-448 -4067 4068 0
-4068 4089 0
-449 -4068 4069 0
-4069 4090 0
-450 -4069 4070 0
-4070 4091 0
-451 -4070 4071 0
-4071 4092 0
-452 -4071 4072 0
-4072 4093 0
-453 -4072 4073 0
-4073 4094 0
-454 -4073 4074 0
-4074 4095 0
-455 -4074 4075 0
-4075 4096 0
-456 -4075 4076 0
-4076 4097 0
-457 -4076 4077 0
-4077 4098 0
-458 -4077 4078 0
-4078 4099 0
-459 -4078 4079 0
-4079 4100 0
-460 -4079 4080 0
-4080 4101 0
-461 -4080 4081 0
-4081 4102 0
-462 -4081 4082 0
-4082 4103 0
-463 -4082 0
-443 4083 0
-4083 4104 0
-444 -4083 4084 0
-4084 4105 0
-445 -4084 4085 0
-4085 4106 0
-446 -4085 4086 0
-4086 4107 0
-447 -4086 4087 0
-4087 4108 0
-448 -4087 4088 0
-4088 4109 0
-449 -4088 4089 0
-4089 4110 0
-450 -4089 4090 0
-4090 4111 0
-451 -4090 4091 0
-4091 4112 0
-452 -4091 4092 0
-4092 4113 0
-453 -4092 4093 0
-4093 4114 0
-454 -4093 4094 0
-4094 4115 0
-455 -4094 4095 0
-4095 4116 0
-456 -4095 4096 0
-4096 4117 0
-457 -4096 4097 0
-4097 4118 0
-458 -4097 4098 0
-4098 4119 0
-459 -4098 4099 0
-4099 4120 0
-460 -4099 4100 0
-4100 4121 0
-461 -4100 4101 0
-4101 4122 0
-462 -4101 4102 0
-4102 4123 0
-463 -4102 4103 0
-4103 4124 0
-464 -4103 0
-444 4104 0
-4104 4125 0
-445 -4104 4105 0
-4105 4126 0
-446 -4105 4106 0
-4106 4127 0
-447 -4106 4107 0
-4107 4128 0
-448 -4107 4108 0
-4108 4129 0
-449 -4108 4109 0
-4109 4130 0
-450 -4109 4110 0
-4110 4131 0
-451 -4110 4111 0
-4111 4132 0
-452 -4111 4112 0
-4112 4133 0
-453 -4112 4113 0
-4113 4134 0
-454 -4113 4114 0
-4114 4135 0
-455 -4114 4115 0
-4115 4136 0
-456 -4115 4116 0
-4116 4137 0
-457 -4116 4117 0
-4117 4138 0
-458 -4117 4118 0
-4118 4139 0
-459 -4118 4119 0
-4119 4140 0
-460 -4119 4120 0
-4120 4141 0
-461 -4120 4121 0
-4121 4142 0
-462 -4121 4122 0
-4122 4143 0
-463 -4122 4123 0
-4123 4144 0
-464 -4123 4124 0
-4124 4145 0
-465 -4124 0
-445 4125 0
-4125 4146 0
-446 -4125 4126 0
-4126 4147 0
-447 -4126 4127 0
-4127 4148 0
-448 -4127 4128 0
-4128 4149 0
-449 -4128 4129 0
-4129 4150 0
-450 -4129 4130 0
-4130 4151 0
-451 -4130 4131 0
-4131 4152 0
-452 -4131 4132 0
-4132 4153 0
-453 -4132 4133 0
-4133 4154 0
-454 -4133 4134 0
-4134 4155 0
-455 -4134 4135 0
-4135 4156 0
-456 -4135 4136 0
-4136 4157 0
-457 -4136 4137 0
-4137 4158 0
-458 -4137 4138 0
-4138 4159 0
-459 -4138 4139 0
-4139 4160 0
-460 -4139 4140 0
-4140 4161 0
-461 -4140 4141 0
-4141 4162 0
-462 -4141 4142 0
-4142 4163 0
-463 -4142 4143 0
-4143 4164 0
-464 -4143 4144 0
-4144 4165 0
-465 -4144 4145 0
-4145 4166 0
-466 -4145 0
-446 4146 0
-4146 4167 0
-447 -4146 4147 0
-4147 4168 0
-448 -4147 4148 0
-4148 4169 0
-449 -4148 4149 0
-4149 4170 0
-450 -4149 4150 0
-4150 4171 0
-451 -4150 4151 0
-4151 4172 0
-452 -4151 4152 0
-4152 4173 0
-453 -4152 4153 0
-4153 4174 0
-454 -4153 4154 0
-4154 4175 0
-455 -4154 4155 0
-4155 4176 0
-456 -4155 4156 0
-4156 4177 0
-457 -4156 4157 0
-4157 4178 0
-458 -4157 4158 0
-4158 4179 0
-459 -4158 4159 0
-4159 4180 0
-460 -4159 4160 0
-4160 4181 0
-461 -4160 4161 0
-4161 4182 0
-462 -4161 4162 0
-4162 4183 0
-463 -4162 4163 0
-4163 4184 0
-464 -4163 4164 0
-4164 4185 0
-465 -4164 4165 0
-4165 4186 0
-466 -4165 4166 0
-4166 4187 0
-467 -4166 0
-447 4167 0
-4167 4188 0
-448 -4167 4168 0
-4168 4189 0
-449 -4168 4169 0
-4169 4190 0
-450 -4169 4170 0
-4170 4191 0
-451 -4170 4171 0
-4171 4192 0
-452 -4171 4172 0
-4172 4193 0
-453 -4172 4173 0
-4173 4194 0
-454 -4173 4174 0
-4174 4195 0
-455 -4174 4175 0
-4175 4196 0
-456 -4175 4176 0
-4176 4197 0
-457 -4176 4177 0
-4177 4198 0
-458 -4177 4178 0
-4178 4199 0
-459 -4178 4179 0
-4179 4200 0
-460 -4179 4180 0
-4180 4201 0
-461 -4180 4181 0
-4181 4202 0
-462 -4181 4182 0
-4182 4203 0
-463 -4182 4183 0
-4183 4204 0
-464 -4183 4184 0
-4184 4205 0
-465 -4184 4185 0
-4185 4206 0
-466 -4185 4186 0
-4186 4207 0
-467 -4186 4187 0
-4187 4208 0
-468 -4187 0
-448 4188 0
-4188 4209 0
-449 -4188 4189 0
-4189 4210 0
-450 -4189 4190 0
-4190 4211 0
-451 -4190 4191 0
-4191 4212 0
-452 -4191 4192 0
-4192 4213 0
-453 -4192 4193 0
-4193 4214 0
-454 -4193 4194 0
-4194 4215 0
-455 -4194 4195 0
-4195 4216 0
-456 -4195 4196 0
-4196 4217 0
-457 -4196 4197 0
-4197 4218 0
-458 -4197 4198 0
-4198 4219 0
-459 -4198 4199 0
-4199 4220 0
-460 -4199 4200 0
-4200 4221 0
-461 -4200 4201 0
-4201 4222 0
-462 -4201 4202 0
-4202 4223 0
-463 -4202 4203 0
-4203 4224 0
-464 -4203 4204 0
-4204 4225 0
-465 -4204 4205 0
-4205 4226 0
-466 -4205 4206 0
-4206 4227 0
-467 -4206 4207 0
-4207 4228 0
-468 -4207 4208 0
-4208 4229 0
-469 -4208 0
-449 4209 0
-4209 4230 0
-450 -4209 4210 0
-4210 4231 0
-451 -4210 4211 0
-4211 4232 0
-452 -4211 4212 0
-4212 4233 0
-453 -4212 4213 0
-4213 4234 0
-454 -4213 4214 0
-4214 4235 0
-455 -4214 4215 0
-4215 4236 0
-456 -4215 4216 0
-4216 4237 0
-457 -4216 4217 0
-4217 4238 0
-458 -4217 4218 0
-4218 4239 0
-459 -4218 4219 0
-4219 4240 0
-460 -4219 4220 0
-4220 4241 0
-461 -4220 4221 0
-4221 4242 0
-462 -4221 4222 0
-4222 4243 0
-463 -4222 4223 0
-4223 4244 0
-464 -4223 4224 0
-4224 4245 0
-465 -4224 4225 0
-4225 4246 0
-466 -4225 4226 0
-4226 4247 0
-467 -4226 4227 0
-4227 4248 0
-468 -4227 4228 0
-4228 4249 0
-469 -4228 4229 0
-4229 4250 0
-470 -4229 0
-450 4230 0
-4230 4251 0
-451 -4230 4231 0
-4231 4252 0
-452 -4231 4232 0
-4232 4253 0
-453 -4232 4233 0
-4233 4254 0
-454 -4233 4234 0
-4234 4255 0
-455 -4234 4235 0
-4235 4256 0
-456 -4235 4236 0
-4236 4257 0
-457 -4236 4237 0
-4237 4258 0
-458 -4237 4238 0
-4238 4259 0
-459 -4238 4239 0
-4239 4260 0
-460 -4239 4240 0
-4240 4261 0
-461 -4240 4241 0
-4241 4262 0
-462 -4241 4242 0
-4242 4263 0
-463 -4242 4243 0
-4243 4264 0
-464 -4243 4244 0
-4244 4265 0
-465 -4244 4245 0
-4245 4266 0
-466 -4245 4246 0
-4246 4267 0
-467 -4246 4247 0
-4247 4268 0
-468 -4247 4248 0
-4248 4269 0
-469 -4248 4249 0
-4249 4270 0
-470 -4249 4250 0
-4250 4271 0
-471 -4250 0
-451 4251 0
-4251 4272 0
-452 -4251 4252 0
-4252 4273 0
-453 -4252 4253 0
-4253 4274 0
-454 -4253 4254 0
-4254 4275 0
-455 -4254 4255 0
-4255 4276 0
-456 -4255 4256 0
-4256 4277 0
-457 -4256 4257 0
-4257 4278 0
-458 -4257 4258 0
-4258 4279 0
-459 -4258 4259 0
-4259 4280 0
-460 -4259 4260 0
-4260 4281 0
-461 -4260 4261 0
-4261 4282 0
-462 -4261 4262 0
-4262 4283 0
-463 -4262 4263 0
-4263 4284 0
-464 -4263 4264 0
-4264 4285 0
-465 -4264 4265 0
-4265 4286 0
-466 -4265 4266 0
-4266 4287 0
-467 -4266 4267 0
-4267 4288 0
-468 -4267 4268 0
-4268 4289 0
-469 -4268 4269 0
-4269 4290 0
-470 -4269 4270 0
-4270 4291 0
-471 -4270 4271 0
-4271 4292 0
-472 -4271 0
-452 4272 0
-4272 4293 0
-453 -4272 4273 0
-4273 4294 0
-454 -4273 4274 0
-4274 4295 0
-455 -4274 4275 0
-4275 4296 0
-456 -4275 4276 0
-4276 4297 0
-457 -4276 4277 0
-4277 4298 0
-458 -4277 4278 0
-4278 4299 0
-459 -4278 4279 0
-4279 4300 0
-460 -4279 4280 0
-4280 4301 0
-461 -4280 4281 0
-4281 4302 0
-462 -4281 4282 0
-4282 4303 0
-463 -4282 4283 0
-4283 4304 0
-464 -4283 4284 0
-4284 4305 0
-465 -4284 4285 0
-4285 4306 0
-466 -4285 4286 0
-4286 4307 0
-467 -4286 4287 0
-4287 4308 0
-468 -4287 4288 0
-4288 4309 0
-469 -4288 4289 0
-4289 4310 0
-470 -4289 4290 0
-4290 4311 0
-471 -4290 4291 0
-4291 4312 0
-472 -4291 4292 0
-4292 4313 0
-473 -4292 0
-453 4293 0
-4293 4314 0
-454 -4293 4294 0
-4294 4315 0
-455 -4294 4295 0
-4295 4316 0
-456 -4295 4296 0
-4296 4317 0
-457 -4296 4297 0
-4297 4318 0
-458 -4297 4298 0
-4298 4319 0
-459 -4298 4299 0
-4299 4320 0
-460 -4299 4300 0
-4300 4321 0
-461 -4300 4301 0
-4301 4322 0
-462 -4301 4302 0
-4302 4323 0
-463 -4302 4303 0
-4303 4324 0
-464 -4303 4304 0
-4304 4325 0
-465 -4304 4305 0
-4305 4326 0
-466 -4305 4306 0
-4306 4327 0
-467 -4306 4307 0
-4307 4328 0
-468 -4307 4308 0
-4308 4329 0
-469 -4308 4309 0
-4309 4330 0
-470 -4309 4310 0
-4310 4331 0
-471 -4310 4311 0
-4311 4332 0
-472 -4311 4312 0
-4312 4333 0
-473 -4312 4313 0
-4313 4334 0
-474 -4313 0
-454 4314 0
-4314 4335 0
-455 -4314 4315 0
-4315 4336 0
-456 -4315 4316 0
-4316 4337 0
-457 -4316 4317 0
-4317 4338 0
-458 -4317 4318 0
-4318 4339 0
-459 -4318 4319 0
-4319 4340 0
-460 -4319 4320 0
-4320 4341 0
-461 -4320 4321 0
-4321 4342 0
-462 -4321 4322 0
-4322 4343 0
-463 -4322 4323 0
-4323 4344 0
-464 -4323 4324 0
-4324 4345 0
-465 -4324 4325 0
-4325 4346 0
-466 -4325 4326 0
-4326 4347 0
-467 -4326 4327 0
-4327 4348 0
-468 -4327 4328 0
-4328 4349 0
-469 -4328 4329 0
-4329 4350 0
-470 -4329 4330 0
-4330 4351 0
-471 -4330 4331 0
-4331 4352 0
-472 -4331 4332 0
-4332 4353 0
-473 -4332 4333 0
-4333 4354 0
-474 -4333 4334 0
-4334 4355 0
-475 -4334 0
-455 4335 0
-4335 4356 0
-456 -4335 4336 0
-4336 4357 0
-457 -4336 4337 0
-4337 4358 0
-458 -4337 4338 0
-4338 4359 0
-459 -4338 4339 0
-4339 4360 0
-460 -4339 4340 0
-4340 4361 0
-461 -4340 4341 0
-4341 4362 0
-462 -4341 4342 0
-4342 4363 0
-463 -4342 4343 0
-4343 4364 0
-464 -4343 4344 0
-4344 4365 0
-465 -4344 4345 0
-4345 4366 0
-466 -4345 4346 0
-4346 4367 0
-467 -4346 4347 0
-4347 4368 0
-468 -4347 4348 0
-4348 4369 0
-469 -4348 4349 0
-4349 4370 0
-470 -4349 4350 0
-4350 4371 0
-471 -4350 4351 0
-4351 4372 0
-472 -4351 4352 0
-4352 4373 0
-473 -4352 4353 0
-4353 4374 0
-474 -4353 4354 0
-4354 4375 0
-475 -4354 4355 0
-4355 4376 0
-476 -4355 0
-456 4356 0
-4356 4377 0
-457 -4356 4357 0
-4357 4378 0
-458 -4357 4358 0
-4358 4379 0
-459 -4358 4359 0
-4359 4380 0
-460 -4359 4360 0
-4360 4381 0
-461 -4360 4361 0
-4361 4382 0
-462 -4361 4362 0
-4362 4383 0
-463 -4362 4363 0
-4363 4384 0
-464 -4363 4364 0
-4364 4385 0
-465 -4364 4365 0
-4365 4386 0
-466 -4365 4366 0
-4366 4387 0
-467 -4366 4367 0
-4367 4388 0
-468 -4367 4368 0
-4368 4389 0
-469 -4368 4369 0
-4369 4390 0
-470 -4369 4370 0
-4370 4391 0
-471 -4370 4371 0
-4371 4392 0
-472 -4371 4372 0
-4372 4393 0
-473 -4372 4373 0
-4373 4394 0
-474 -4373 4374 0
-4374 4395 0
-475 -4374 4375 0
-4375 4396 0
-476 -4375 4376 0
-4376 4397 0
-477 -4376 0
-457 4377 0
-4377 4398 0
-458 -4377 4378 0
-4378 4399 0
-459 -4378 4379 0
-4379 4400 0
-460 -4379 4380 0
-4380 4401 0
-461 -4380 4381 0
-4381 4402 0
-462 -4381 4382 0
-4382 4403 0
-463 -4382 4383 0
-4383 4404 0
-464 -4383 4384 0
-4384 4405 0
-465 -4384 4385 0
-4385 4406 0
-466 -4385 4386 0
-4386 4407 0
-467 -4386 4387 0
-4387 4408 0
-468 -4387 4388 0
-4388 4409 0
-469 -4388 4389 0
-4389 4410 0
-470 -4389 4390 0
-4390 4411 0
-471 -4390 4391 0
-4391 4412 0
-472 -4391 4392 0
-4392 4413 0
-473 -4392 4393 0
-4393 4414 0
-474 -4393 4394 0
-4394 4415 0
-475 -4394 4395 0
-4395 4416 0
-476 -4395 4396 0
-4396 4417 0
-477 -4396 4397 0
-4397 4418 0
-478 -4397 0
-458 4398 0
-4398 4419 0
-459 -4398 4399 0
-4399 4420 0
-460 -4399 4400 0
-4400 4421 0
-461 -4400 4401 0
-4401 4422 0
-462 -4401 4402 0
-4402 4423 0
-463 -4402 4403 0
-4403 4424 0
-464 -4403 4404 0
-4404 4425 0
-465 -4404 4405 0
-4405 4426 0
-466 -4405 4406 0
-4406 4427 0
-467 -4406 4407 0
-4407 4428 0
-468 -4407 4408 0
-4408 4429 0
-469 -4408 4409 0
-4409 4430 0
-470 -4409 4410 0
-4410 4431 0
-471 -4410 4411 0
-4411 4432 0
-472 -4411 4412 0
-4412 4433 0
-473 -4412 4413 0
-4413 4434 0
-474 -4413 4414 0
-4414 4435 0
-475 -4414 4415 0
-4415 4436 0
-476 -4415 4416 0
-4416 4437 0
-477 -4416 4417 0
-4417 4438 0
-478 -4417 4418 0
-4418 4439 0
-479 -4418 0
-459 4419 0
-4419 4440 0
-460 -4419 4420 0
-4420 4441 0
-461 -4420 4421 0
-4421 4442 0
-462 -4421 4422 0
-4422 4443 0
-463 -4422 4423 0
-4423 4444 0
-464 -4423 4424 0
-4424 4445 0
-465 -4424 4425 0
-4425 4446 0
-466 -4425 4426 0
-4426 4447 0
-467 -4426 4427 0
-4427 4448 0
-468 -4427 4428 0
-4428 4449 0
-469 -4428 4429 0
-4429 4450 0
-470 -4429 4430 0
-4430 4451 0
-471 -4430 4431 0
-4431 4452 0
-472 -4431 4432 0
-4432 4453 0
-473 -4432 4433 0
-4433 4454 0
-474 -4433 4434 0
-4434 4455 0
-475 -4434 4435 0
-4435 4456 0
-476 -4435 4436 0
-4436 4457 0
-477 -4436 4437 0
-4437 4458 0
-478 -4437 4438 0
-4438 4459 0
-479 -4438 4439 0
-4439 4460 0
-480 -4439 0
-460 4440 0
-4440 4461 0
-461 -4440 4441 0
-4441 4462 0
-462 -4441 4442 0
-4442 4463 0
-463 -4442 4443 0
-4443 4464 0
-464 -4443 4444 0
-4444 4465 0
-465 -4444 4445 0
-4445 4466 0
-466 -4445 4446 0
-4446 4467 0
-467 -4446 4447 0
-4447 4468 0
-468 -4447 4448 0
-4448 4469 0
-469 -4448 4449 0
-4449 4470 0
-470 -4449 4450 0
-4450 4471 0
-471 -4450 4451 0
-4451 4472 0
-472 -4451 4452 0
-4452 4473 0
-473 -4452 4453 0
-4453 4474 0
-474 -4453 4454 0
-4454 4475 0
-475 -4454 4455 0
-4455 4476 0
-476 -4455 4456 0
-4456 4477 0
-477 -4456 4457 0
-4457 4478 0
-478 -4457 4458 0
-4458 4479 0
-479 -4458 4459 0
-4459 4480 0
-480 -4459 4460 0
-4460 4481 0
-481 -4460 0
-461 4461 0
-4461 4482 0
-462 -4461 4462 0
-4462 4483 0
-463 -4462 4463 0
-4463 4484 0
-464 -4463 4464 0
-4464 4485 0
-465 -4464 4465 0
-4465 4486 0
-466 -4465 4466 0
-4466 4487 0
-467 -4466 4467 0
-4467 4488 0
-468 -4467 4468 0
-4468 4489 0
-469 -4468 4469 0
-4469 4490 0
-470 -4469 4470 0
-4470 4491 0
-471 -4470 4471 0
-4471 4492 0
-472 -4471 4472 0
-4472 4493 0
-473 -4472 4473 0
-4473 4494 0
-474 -4473 4474 0
-4474 4495 0
-475 -4474 4475 0
-4475 4496 0
-476 -4475 4476 0
-4476 4497 0
-477 -4476 4477 0
-4477 4498 0
-478 -4477 4478 0
-4478 4499 0
-479 -4478 4479 0
-4479 4500 0
-480 -4479 4480 0
-4480 4501 0
-481 -4480 4481 0
-4481 4502 0
-482 -4481 0
-462 4482 0
-4482 4503 0
-463 -4482 4483 0
-4483 4504 0
-464 -4483 4484 0
-4484 4505 0
-465 -4484 4485 0
-4485 4506 0
-466 -4485 4486 0
-4486 4507 0
-467 -4486 4487 0
-4487 4508 0
-468 -4487 4488 0
-4488 4509 0
-469 -4488 4489 0
-4489 4510 0
-470 -4489 4490 0
-4490 4511 0
-471 -4490 4491 0
-4491 4512 0
-472 -4491 4492 0
-4492 4513 0
-473 -4492 4493 0
-4493 4514 0
-474 -4493 4494 0
-4494 4515 0
-475 -4494 4495 0
-4495 4516 0
-476 -4495 4496 0
-4496 4517 0
-477 -4496 4497 0
-4497 4518 0
-478 -4497 4498 0
-4498 4519 0
-479 -4498 4499 0
-4499 4520 0
-480 -4499 4500 0
-4500 4521 0
-481 -4500 4501 0
-4501 4522 0
-482 -4501 4502 0
-4502 4523 0
-483 -4502 0
-463 4503 0
-4503 4524 0
-464 -4503 4504 0
-4504 4525 0
-465 -4504 4505 0
-4505 4526 0
-466 -4505 4506 0
-4506 4527 0
-467 -4506 4507 0
-4507 4528 0
-468 -4507 4508 0
-4508 4529 0
-469 -4508 4509 0
-4509 4530 0
-470 -4509 4510 0
-4510 4531 0
-471 -4510 4511 0
-4511 4532 0
-472 -4511 4512 0
-4512 4533 0
-473 -4512 4513 0
-4513 4534 0
-474 -4513 4514 0
-4514 4535 0
-475 -4514 4515 0
-4515 4536 0
-476 -4515 4516 0
-4516 4537 0
-477 -4516 4517 0
-4517 4538 0
-478 -4517 4518 0
-4518 4539 0
-479 -4518 4519 0
-4519 4540 0
-480 -4519 4520 0
-4520 4541 0
-481 -4520 4521 0
-4521 4542 0
-482 -4521 4522 0
-4522 4543 0
-483 -4522 4523 0
-4523 4544 0
-484 -4523 0
-464 4524 0
-4524 4545 0
-465 -4524 4525 0
-4525 4546 0
-466 -4525 4526 0
-4526 4547 0
-467 -4526 4527 0
-4527 4548 0
-468 -4527 4528 0
-4528 4549 0
-469 -4528 4529 0
-4529 4550 0
-470 -4529 4530 0
-4530 4551 0
-471 -4530 4531 0
-4531 4552 0
-472 -4531 4532 0
-4532 4553 0
-473 -4532 4533 0
-4533 4554 0
-474 -4533 4534 0
-4534 4555 0
-475 -4534 4535 0
-4535 4556 0
-476 -4535 4536 0
-4536 4557 0
-477 -4536 4537 0
-4537 4558 0
-478 -4537 4538 0
-4538 4559 0
-479 -4538 4539 0
-4539 4560 0
-480 -4539 4540 0
-4540 4561 0
-481 -4540 4541 0
-4541 4562 0
-482 -4541 4542 0
-4542 4563 0
-483 -4542 4543 0
-4543 4564 0
-484 -4543 4544 0
-4544 4565 0
-485 -4544 0
-465 4545 0
-4545 4566 0
-466 -4545 4546 0
-4546 4567 0
-467 -4546 4547 0
-4547 4568 0
-468 -4547 4548 0
-4548 4569 0
-469 -4548 4549 0
-4549 4570 0
-470 -4549 4550 0
-4550 4571 0
-471 -4550 4551 0
-4551 4572 0
-472 -4551 4552 0
-4552 4573 0
-473 -4552 4553 0
-4553 4574 0
-474 -4553 4554 0
-4554 4575 0
-475 -4554 4555 0
-4555 4576 0
-476 -4555 4556 0
-4556 4577 0
-477 -4556 4557 0
-4557 4578 0
-478 -4557 4558 0
-4558 4579 0
-479 -4558 4559 0
-4559 4580 0
-480 -4559 4560 0
-4560 4581 0
-481 -4560 4561 0
-4561 4582 0
-482 -4561 4562 0
-4562 4583 0
-483 -4562 4563 0
-4563 4584 0
-484 -4563 4564 0
-4564 4585 0
-485 -4564 4565 0
-4565 4586 0
-486 -4565 0
-466 4566 0
-4566 4587 0
-467 -4566 4567 0
-4567 4588 0
-468 -4567 4568 0
-4568 4589 0
-469 -4568 4569 0
-4569 4590 0
-470 -4569 4570 0
-4570 4591 0
-471 -4570 4571 0
-4571 4592 0
-472 -4571 4572 0
-4572 4593 0
-473 -4572 4573 0
-4573 4594 0
-474 -4573 4574 0
-4574 4595 0
-475 -4574 4575 0
-4575 4596 0
-476 -4575 4576 0
-4576 4597 0
-477 -4576 4577 0
-4577 4598 0
-478 -4577 4578 0
-4578 4599 0
-479 -4578 4579 0
-4579 4600 0
-480 -4579 4580 0
-4580 4601 0
-481 -4580 4581 0
-4581 4602 0
-482 -4581 4582 0
-4582 4603 0
-483 -4582 4583 0
-4583 4604 0
-484 -4583 4584 0
-4584 4605 0
-485 -4584 4585 0
-4585 4606 0
-486 -4585 4586 0
-4586 4607 0
-487 -4586 0
-467 4587 0
-4587 4608 0
-468 -4587 4588 0
-4588 4609 0
-469 -4588 4589 0
-4589 4610 0
-470 -4589 4590 0
-4590 4611 0
-471 -4590 4591 0
-4591 4612 0
-472 -4591 4592 0
-4592 4613 0
-473 -4592 4593 0
-4593 4614 0
-474 -4593 4594 0
-4594 4615 0
-475 -4594 4595 0
-4595 4616 0
-476 -4595 4596 0
-4596 4617 0
-477 -4596 4597 0
-4597 4618 0
-478 -4597 4598 0
-4598 4619 0
-479 -4598 4599 0
-4599 4620 0
-480 -4599 4600 0
-4600 4621 0
-481 -4600 4601 0
-4601 4622 0
-482 -4601 4602 0
-4602 4623 0
-483 -4602 4603 0
-4603 4624 0
-484 -4603 4604 0
-4604 4625 0
-485 -4604 4605 0
-4605 4626 0
-486 -4605 4606 0
-4606 4627 0
-487 -4606 4607 0
-4607 4628 0
-488 -4607 0
-468 4608 0
-4608 4629 0
-469 -4608 4609 0
-4609 4630 0
-470 -4609 4610 0
-4610 4631 0
-471 -4610 4611 0
-4611 4632 0
-472 -4611 4612 0
-4612 4633 0
-473 -4612 4613 0
-4613 4634 0
-474 -4613 4614 0
-4614 4635 0
-475 -4614 4615 0
-4615 4636 0
-476 -4615 4616 0
-4616 4637 0
-477 -4616 4617 0
-4617 4638 0
-478 -4617 4618 0
-4618 4639 0
-479 -4618 4619 0
-4619 4640 0
-480 -4619 4620 0
-4620 4641 0
-481 -4620 4621 0
-4621 4642 0
-482 -4621 4622 0
-4622 4643 0
-483 -4622 4623 0
-4623 4644 0
-484 -4623 4624 0
-4624 4645 0
-485 -4624 4625 0
-4625 4646 0
-486 -4625 4626 0
-4626 4647 0
-487 -4626 4627 0
-4627 4648 0
-488 -4627 4628 0
-4628 4649 0
-489 -4628 0
-469 4629 0
-4629 4650 0
-470 -4629 4630 0
-4630 4651 0
-471 -4630 4631 0
-4631 4652 0
-472 -4631 4632 0
-4632 4653 0
-473 -4632 4633 0
-4633 4654 0
-474 -4633 4634 0
-4634 4655 0
-475 -4634 4635 0
-4635 4656 0
-476 -4635 4636 0
-4636 4657 0
-477 -4636 4637 0
-4637 4658 0
-478 -4637 4638 0
-4638 4659 0
-479 -4638 4639 0
-4639 4660 0
-480 -4639 4640 0
-4640 4661 0
-481 -4640 4641 0
-4641 4662 0
-482 -4641 4642 0
-4642 4663 0
-483 -4642 4643 0
-4643 4664 0
-484 -4643 4644 0
-4644 4665 0
-485 -4644 4645 0
-4645 4666 0
-486 -4645 4646 0
-4646 4667 0
-487 -4646 4647 0
-4647 4668 0
-488 -4647 4648 0
-4648 4669 0
-489 -4648 4649 0
-4649 4670 0
-490 -4649 0
-470 4650 0
-4650 4671 0
-471 -4650 4651 0
-4651 4672 0
-472 -4651 4652 0
-4652 4673 0
-473 -4652 4653 0
-4653 4674 0
-474 -4653 4654 0
-4654 4675 0
-475 -4654 4655 0
-4655 4676 0
-476 -4655 4656 0
-4656 4677 0
-477 -4656 4657 0
-4657 4678 0
-478 -4657 4658 0
-4658 4679 0
-479 -4658 4659 0
-4659 4680 0
-480 -4659 4660 0
-4660 4681 0
-481 -4660 4661 0
-4661 4682 0
-482 -4661 4662 0
-4662 4683 0
-483 -4662 4663 0
-4663 4684 0
-484 -4663 4664 0
-4664 4685 0
-485 -4664 4665 0
-4665 4686 0
-486 -4665 4666 0
-4666 4687 0
-487 -4666 4667 0
-4667 4688 0
-488 -4667 4668 0
-4668 4689 0
-489 -4668 4669 0
-4669 4690 0
-490 -4669 4670 0
-4670 4691 0
-491 -4670 0
-471 4671 0
-4671 4692 0
-472 -4671 4672 0
-4672 4693 0
-473 -4672 4673 0
-4673 4694 0
-474 -4673 4674 0
-4674 4695 0
-475 -4674 4675 0
-4675 4696 0
-476 -4675 4676 0
-4676 4697 0
-477 -4676 4677 0
-4677 4698 0
-478 -4677 4678 0
-4678 4699 0
-479 -4678 4679 0
-4679 4700 0
-480 -4679 4680 0
-4680 4701 0
-481 -4680 4681 0
-4681 4702 0
-482 -4681 4682 0
-4682 4703 0
-483 -4682 4683 0
-4683 4704 0
-484 -4683 4684 0
-4684 4705 0
-485 -4684 4685 0
-4685 4706 0
-486 -4685 4686 0
-4686 4707 0
-487 -4686 4687 0
-4687 4708 0
-488 -4687 4688 0
-4688 4709 0
-489 -4688 4689 0
-4689 4710 0
-490 -4689 4690 0
-4690 4711 0
-491 -4690 4691 0
-4691 4712 0
-492 -4691 0
-472 4692 0
-4692 4713 0
-473 -4692 4693 0
-4693 4714 0
-474 -4693 4694 0
-4694 4715 0
-475 -4694 4695 0
-4695 4716 0
-476 -4695 4696 0
-4696 4717 0
-477 -4696 4697 0
-4697 4718 0
-478 -4697 4698 0
-4698 4719 0
-479 -4698 4699 0
-4699 4720 0
-480 -4699 4700 0
-4700 4721 0
-481 -4700 4701 0
-4701 4722 0
-482 -4701 4702 0
-4702 4723 0
-483 -4702 4703 0
-4703 4724 0
-484 -4703 4704 0
-4704 4725 0
-485 -4704 4705 0
-4705 4726 0
-486 -4705 4706 0
-4706 4727 0
-487 -4706 4707 0
-4707 4728 0
-488 -4707 4708 0
-4708 4729 0
-489 -4708 4709 0
-4709 4730 0
-490 -4709 4710 0
-4710 4731 0
-491 -4710 4711 0
-4711 4732 0
-492 -4711 4712 0
-4712 4733 0
-493 -4712 0
-473 4713 0
-4713 4734 0
-474 -4713 4714 0
-4714 4735 0
-475 -4714 4715 0
-4715 4736 0
-476 -4715 4716 0
-4716 4737 0
-477 -4716 4717 0
-4717 4738 0
-478 -4717 4718 0
-4718 4739 0
-479 -4718 4719 0
-4719 4740 0
-480 -4719 4720 0
-4720 4741 0
-481 -4720 4721 0
-4721 4742 0
-482 -4721 4722 0
-4722 4743 0
-483 -4722 4723 0
-4723 4744 0
-484 -4723 4724 0
-4724 4745 0
-485 -4724 4725 0
-4725 4746 0
-486 -4725 4726 0
-4726 4747 0
-487 -4726 4727 0
-4727 4748 0
-488 -4727 4728 0
-4728 4749 0
-489 -4728 4729 0
-4729 4750 0
-490 -4729 4730 0
-4730 4751 0
-491 -4730 4731 0
-4731 4752 0
-492 -4731 4732 0
-4732 4753 0
-493 -4732 4733 0
-4733 4754 0
-494 -4733 0
-474 4734 0
-4734 4755 0
-475 -4734 4735 0
-4735 4756 0
-476 -4735 4736 0
-4736 4757 0
-477 -4736 4737 0
-4737 4758 0
-478 -4737 4738 0
-4738 4759 0
-479 -4738 4739 0
-4739 4760 0
-480 -4739 4740 0
-4740 4761 0
-481 -4740 4741 0
-4741 4762 0
-482 -4741 4742 0
-4742 4763 0
-483 -4742 4743 0
-4743 4764 0
-484 -4743 4744 0
-4744 4765 0
-485 -4744 4745 0
-4745 4766 0
-486 -4745 4746 0
-4746 4767 0
-487 -4746 4747 0
-4747 4768 0
-488 -4747 4748 0
-4748 4769 0
-489 -4748 4749 0
-4749 4770 0
-490 -4749 4750 0
-4750 4771 0
-491 -4750 4751 0
-4751 4772 0
-492 -4751 4752 0
-4752 4773 0
-493 -4752 4753 0
-4753 4774 0
-494 -4753 4754 0
-4754 4775 0
-495 -4754 0
-475 4755 0
-4755 4776 0
-476 -4755 4756 0
-4756 4777 0
-477 -4756 4757 0
-4757 4778 0
-478 -4757 4758 0
-4758 4779 0
-479 -4758 4759 0
-4759 4780 0
-480 -4759 4760 0
-4760 4781 0
-481 -4760 4761 0
-4761 4782 0
-482 -4761 4762 0
-4762 4783 0
-483 -4762 4763 0
-4763 4784 0
-484 -4763 4764 0
-4764 4785 0
-485 -4764 4765 0
-4765 4786 0
-486 -4765 4766 0
-4766 4787 0
-487 -4766 4767 0
-4767 4788 0
-488 -4767 4768 0
-4768 4789 0
-489 -4768 4769 0
-4769 4790 0
-490 -4769 4770 0
-4770 4791 0
-491 -4770 4771 0
-4771 4792 0
-492 -4771 4772 0
-4772 4793 0
-493 -4772 4773 0
-4773 4794 0
-494 -4773 4774 0
-4774 4795 0
-495 -4774 4775 0
-4775 4796 0
-496 -4775 0
-476 4776 0
-4776 4797 0
-477 -4776 4777 0
-4777 4798 0
-478 -4777 4778 0
-4778 4799 0
-479 -4778 4779 0
-4779 4800 0
-480 -4779 4780 0
-4780 4801 0
-481 -4780 4781 0
-4781 4802 0
-482 -4781 4782 0
-4782 4803 0
-483 -4782 4783 0
-4783 4804 0
-484 -4783 4784 0
-4784 4805 0
-485 -4784 4785 0
-4785 4806 0
-486 -4785 4786 0
-4786 4807 0
-487 -4786 4787 0
-4787 4808 0
-488 -4787 4788 0
-4788 4809 0
-489 -4788 4789 0
-4789 4810 0
-490 -4789 4790 0
-4790 4811 0
-491 -4790 4791 0
-4791 4812 0
-492 -4791 4792 0
-4792 4813 0
-493 -4792 4793 0
-4793 4814 0
-494 -4793 4794 0
-4794 4815 0
-495 -4794 4795 0
-4795 4816 0
-496 -4795 4796 0
-4796 4817 0
-497 -4796 0
-477 4797 0
-4797 4818 0
-478 -4797 4798 0
-4798 4819 0
-479 -4798 4799 0
-4799 4820 0
-480 -4799 4800 0
-4800 4821 0
-481 -4800 4801 0
-4801 4822 0
-482 -4801 4802 0
-4802 4823 0
-483 -4802 4803 0
-4803 4824 0
-484 -4803 4804 0
-4804 4825 0
-485 -4804 4805 0
-4805 4826 0
-486 -4805 4806 0
-4806 4827 0
-487 -4806 4807 0
-4807 4828 0
-488 -4807 4808 0
-4808 4829 0
-489 -4808 4809 0
-4809 4830 0
-490 -4809 4810 0
-4810 4831 0
-491 -4810 4811 0
-4811 4832 0
-492 -4811 4812 0
-4812 4833 0
-493 -4812 4813 0
-4813 4834 0
-494 -4813 4814 0
-4814 4835 0
-495 -4814 4815 0
-4815 4836 0
-496 -4815 4816 0
-4816 4837 0
-497 -4816 4817 0
-4817 4838 0
-498 -4817 0
-478 4818 0
-4818 4839 0
-479 -4818 4819 0
-4819 4840 0
-480 -4819 4820 0
-4820 4841 0
-481 -4820 4821 0
-4821 4842 0
-482 -4821 4822 0
-4822 4843 0
-483 -4822 4823 0
-4823 4844 0
-484 -4823 4824 0
-4824 4845 0
-485 -4824 4825 0
-4825 4846 0
-486 -4825 4826 0
-4826 4847 0
-487 -4826 4827 0
-4827 4848 0
-488 -4827 4828 0
-4828 4849 0
-489 -4828 4829 0
-4829 4850 0
-490 -4829 4830 0
-4830 4851 0
-491 -4830 4831 0
-4831 4852 0
-492 -4831 4832 0
-4832 4853 0
-493 -4832 4833 0
-4833 4854 0
-494 -4833 4834 0
-4834 4855 0
-495 -4834 4835 0
-4835 4856 0
-496 -4835 4836 0
-4836 4857 0
-497 -4836 4837 0
-4837 4858 0
-498 -4837 4838 0
-4838 4859 0
-499 -4838 0
-479 4839 0
-4839 4860 0
-480 -4839 4840 0
-4840 4861 0
-481 -4840 4841 0
-4841 4862 0
-482 -4841 4842 0
-4842 4863 0
-483 -4842 4843 0
-4843 4864 0
-484 -4843 4844 0
-4844 4865 0
-485 -4844 4845 0
-4845 4866 0
-486 -4845 4846 0
-4846 4867 0
-487 -4846 4847 0
-4847 4868 0
-488 -4847 4848 0
-4848 4869 0
-489 -4848 4849 0
-4849 4870 0
-490 -4849 4850 0
-4850 4871 0
-491 -4850 4851 0
-4851 4872 0
-492 -4851 4852 0
-4852 4873 0
-493 -4852 4853 0
-4853 4874 0
-494 -4853 4854 0
-4854 4875 0
-495 -4854 4855 0
-4855 4876 0
-496 -4855 4856 0
-4856 4877 0
-497 -4856 4857 0
-4857 4878 0
-498 -4857 4858 0
-4858 4879 0
-499 -4858 4859 0
-4859 4880 0
-500 -4859 0
-480 4860 0
-4860 4881 0
-481 -4860 4861 0
-4861 4882 0
-482 -4861 4862 0
-4862 4883 0
-483 -4862 4863 0
-4863 4884 0
-484 -4863 4864 0
-4864 4885 0
-485 -4864 4865 0
-4865 4886 0
-486 -4865 4866 0
-4866 4887 0
-487 -4866 4867 0
-4867 4888 0
-488 -4867 4868 0
-4868 4889 0
-489 -4868 4869 0
-4869 4890 0
-490 -4869 4870 0
-4870 4891 0
-491 -4870 4871 0
-4871 4892 0
-492 -4871 4872 0
-4872 4893 0
-493 -4872 4873 0
-4873 4894 0
-494 -4873 4874 0
-4874 4895 0
-495 -4874 4875 0
-4875 4896 0
-496 -4875 4876 0
-4876 4897 0
-497 -4876 4877 0
-4877 4898 0
-498 -4877 4878 0
-4878 4899 0
-499 -4878 4879 0
-4879 4900 0
-500 -4879 4880 0
-4880 4901 0
-501 -4880 0
-481 4881 0
-4881 4902 0
-482 -4881 4882 0
-4882 4903 0
-483 -4882 4883 0
-4883 4904 0
-484 -4883 4884 0
-4884 4905 0
-485 -4884 4885 0
-4885 4906 0
-486 -4885 4886 0
-4886 4907 0
-487 -4886 4887 0
-4887 4908 0
-488 -4887 4888 0
-4888 4909 0
-489 -4888 4889 0
-4889 4910 0
-490 -4889 4890 0
-4890 4911 0
-491 -4890 4891 0
-4891 4912 0
-492 -4891 4892 0
-4892 4913 0
-493 -4892 4893 0
-4893 4914 0
-494 -4893 4894 0
-4894 4915 0
-495 -4894 4895 0
-4895 4916 0
-496 -4895 4896 0
-4896 4917 0
-497 -4896 4897 0
-4897 4918 0
-498 -4897 4898 0
-4898 4919 0
-499 -4898 4899 0
-4899 4920 0
-500 -4899 4900 0
-4900 4921 0
-501 -4900 4901 0
-4901 4922 0
-502 -4901 0
-482 4902 0
-4902 4923 0
-483 -4902 4903 0
-4903 4924 0
-484 -4903 4904 0
-4904 4925 0
-485 -4904 4905 0
-4905 4926 0
-486 -4905 4906 0
-4906 4927 0
-487 -4906 4907 0
-4907 4928 0
-488 -4907 4908 0
-4908 4929 0
-489 -4908 4909 0
-4909 4930 0
-490 -4909 4910 0
-4910 4931 0
-491 -4910 4911 0
-4911 4932 0
-492 -4911 4912 0
-4912 4933 0
-493 -4912 4913 0
-4913 4934 0
-494 -4913 4914 0
-4914 4935 0
-495 -4914 4915 0
-4915 4936 0
-496 -4915 4916 0
-4916 4937 0
-497 -4916 4917 0
-4917 4938 0
-498 -4917 4918 0
-4918 4939 0
-499 -4918 4919 0
-4919 4940 0
-500 -4919 4920 0
-4920 4941 0
-501 -4920 4921 0
-4921 4942 0
-502 -4921 4922 0
-4922 4943 0
-503 -4922 0
-483 4923 0
-4923 4944 0
-484 -4923 4924 0
-4924 4945 0
-485 -4924 4925 0
-4925 4946 0
-486 -4925 4926 0
-4926 4947 0
-487 -4926 4927 0
-4927 4948 0
-488 -4927 4928 0
-4928 4949 0
-489 -4928 4929 0
-4929 4950 0
-490 -4929 4930 0
-4930 4951 0
-491 -4930 4931 0
-4931 4952 0
-492 -4931 4932 0
-4932 4953 0
-493 -4932 4933 0
-4933 4954 0
-494 -4933 4934 0
-4934 4955 0
-495 -4934 4935 0
-4935 4956 0
-496 -4935 4936 0
-4936 4957 0
-497 -4936 4937 0
-4937 4958 0
-498 -4937 4938 0
-4938 4959 0
-499 -4938 4939 0
-4939 4960 0
-500 -4939 4940 0
-4940 4961 0
-501 -4940 4941 0
-4941 4962 0
-502 -4941 4942 0
-4942 4963 0
-503 -4942 4943 0
-4943 4964 0
-504 -4943 0
-484 4944 0
-4944 4965 0
-485 -4944 4945 0
-4945 4966 0
-486 -4945 4946 0
-4946 4967 0
-487 -4946 4947 0
-4947 4968 0
-488 -4947 4948 0
-4948 4969 0
-489 -4948 4949 0
-4949 4970 0
-490 -4949 4950 0
-4950 4971 0
-491 -4950 4951 0
-4951 4972 0
-492 -4951 4952 0
-4952 4973 0
-493 -4952 4953 0
-4953 4974 0
-494 -4953 4954 0
-4954 4975 0
-495 -4954 4955 0
-4955 4976 0
-496 -4955 4956 0
-4956 4977 0
-497 -4956 4957 0
-4957 4978 0
-498 -4957 4958 0
-4958 4979 0
-499 -4958 4959 0
-4959 4980 0
-500 -4959 4960 0
-4960 4981 0
-501 -4960 4961 0
-4961 4982 0
-502 -4961 4962 0
-4962 4983 0
-503 -4962 4963 0
-4963 4984 0
-504 -4963 4964 0
-4964 4985 0
-505 -4964 0
-485 4965 0
-4965 4986 0
-486 -4965 4966 0
-4966 4987 0
-487 -4966 4967 0
-4967 4988 0
-488 -4967 4968 0
-4968 4989 0
-489 -4968 4969 0
-4969 4990 0
-490 -4969 4970 0
-4970 4991 0
-491 -4970 4971 0
-4971 4992 0
-492 -4971 4972 0
-4972 4993 0
-493 -4972 4973 0
-4973 4994 0
-494 -4973 4974 0
-4974 4995 0
-495 -4974 4975 0
-4975 4996 0
-496 -4975 4976 0
-4976 4997 0
-497 -4976 4977 0
-4977 4998 0
-498 -4977 4978 0
-4978 4999 0
-499 -4978 4979 0
-4979 5000 0
-500 -4979 4980 0
-4980 5001 0
-501 -4980 4981 0
-4981 5002 0
-502 -4981 4982 0
-4982 5003 0
-503 -4982 4983 0
-4983 5004 0
-504 -4983 4984 0
-4984 5005 0
-505 -4984 4985 0
-4985 5006 0
-506 -4985 0
-486 4986 0
-4986 5007 0
-487 -4986 4987 0
-4987 5008 0
-488 -4987 4988 0
-4988 5009 0
-489 -4988 4989 0
-4989 5010 0
-490 -4989 4990 0
-4990 5011 0
-491 -4990 4991 0
-4991 5012 0
-492 -4991 4992 0
-4992 5013 0
-493 -4992 4993 0
-4993 5014 0
-494 -4993 4994 0
-4994 5015 0
-495 -4994 4995 0
-4995 5016 0
-496 -4995 4996 0
-4996 5017 0
-497 -4996 4997 0
-4997 5018 0
-498 -4997 4998 0
-4998 5019 0
-499 -4998 4999 0
-4999 5020 0
-500 -4999 5000 0
-5000 5021 0
-501 -5000 5001 0
-5001 5022 0
-502 -5001 5002 0
-5002 5023 0
-503 -5002 5003 0
-5003 5024 0
-504 -5003 5004 0
-5004 5025 0
-505 -5004 5005 0
-5005 5026 0
-506 -5005 5006 0
-5006 5027 0
-507 -5006 0
-487 5007 0
-5007 5028 0
-488 -5007 5008 0
-5008 5029 0
-489 -5008 5009 0
-5009 5030 0
-490 -5009 5010 0
-5010 5031 0
-491 -5010 5011 0
-5011 5032 0
-492 -5011 5012 0
-5012 5033 0
-493 -5012 5013 0
-5013 5034 0
-494 -5013 5014 0
-5014 5035 0
-495 -5014 5015 0
-5015 5036 0
-496 -5015 5016 0
-5016 5037 0
-497 -5016 5017 0
-5017 5038 0
-498 -5017 5018 0
-5018 5039 0
-499 -5018 5019 0
-5019 5040 0
-500 -5019 5020 0
-5020 5041 0
-501 -5020 5021 0
-5021 5042 0
-502 -5021 5022 0
-5022 5043 0
-503 -5022 5023 0
-5023 5044 0
-504 -5023 5024 0
-5024 5045 0
-505 -5024 5025 0
-5025 5046 0
-506 -5025 5026 0
-5026 5047 0
-507 -5026 5027 0
-5027 5048 0
-508 -5027 0
-488 5028 0
-5028 5049 0
-489 -5028 5029 0
-5029 5050 0
-490 -5029 5030 0
-5030 5051 0
-491 -5030 5031 0
-5031 5052 0
-492 -5031 5032 0
-5032 5053 0
-493 -5032 5033 0
-5033 5054 0
-494 -5033 5034 0
-5034 5055 0
-495 -5034 5035 0
-5035 5056 0
-496 -5035 5036 0
-5036 5057 0
-497 -5036 5037 0
-5037 5058 0
-498 -5037 5038 0
-5038 5059 0
-499 -5038 5039 0
-5039 5060 0
-500 -5039 5040 0
-5040 5061 0
-501 -5040 5041 0
-5041 5062 0
-502 -5041 5042 0
-5042 5063 0
-503 -5042 5043 0
-5043 5064 0
-504 -5043 5044 0
-5044 5065 0
-505 -5044 5045 0
-5045 5066 0
-506 -5045 5046 0
-5046 5067 0
-507 -5046 5047 0
-5047 5068 0
-508 -5047 5048 0
-5048 5069 0
-509 -5048 0
-489 5049 0
-5049 5070 0
-490 -5049 5050 0
-5050 5071 0
-491 -5050 5051 0
-5051 5072 0
-492 -5051 5052 0
-5052 5073 0
-493 -5052 5053 0
-5053 5074 0
-494 -5053 5054 0
-5054 5075 0
-495 -5054 5055 0
-5055 5076 0
-496 -5055 5056 0
-5056 5077 0
-497 -5056 5057 0
-5057 5078 0
-498 -5057 5058 0
-5058 5079 0
-499 -5058 5059 0
-5059 5080 0
-500 -5059 5060 0
-5060 5081 0
-501 -5060 5061 0
-5061 5082 0
-502 -5061 5062 0
-5062 5083 0
-503 -5062 5063 0
-5063 5084 0
-504 -5063 5064 0
-5064 5085 0
-505 -5064 5065 0
-5065 5086 0
-506 -5065 5066 0
-5066 5087 0
-507 -5066 5067 0
-5067 5088 0
-508 -5067 5068 0
-5068 5089 0
-509 -5068 5069 0
-5069 5090 0
-510 -5069 0
-490 5070 0
-5070 5091 0
-491 -5070 5071 0
-5071 5092 0
-492 -5071 5072 0
-5072 5093 0
-493 -5072 5073 0
-5073 5094 0
-494 -5073 5074 0
-5074 5095 0
-495 -5074 5075 0
-5075 5096 0
-496 -5075 5076 0
-5076 5097 0
-497 -5076 5077 0
-5077 5098 0
-498 -5077 5078 0
-5078 5099 0
-499 -5078 5079 0
-5079 5100 0
-500 -5079 5080 0
-5080 5101 0
-501 -5080 5081 0
-5081 5102 0
-502 -5081 5082 0
-5082 5103 0
-503 -5082 5083 0
-5083 5104 0
-504 -5083 5084 0
-5084 5105 0
-505 -5084 5085 0
-5085 5106 0
-506 -5085 5086 0
-5086 5107 0
-507 -5086 5087 0
-5087 5108 0
-508 -5087 5088 0
-5088 5109 0
-509 -5088 5089 0
-5089 5110 0
-510 -5089 5090 0
-5090 5111 0
-511 -5090 0
-491 5091 0
-5091 5112 0
-492 -5091 5092 0
-5092 5113 0
-493 -5092 5093 0
-5093 5114 0
-494 -5093 5094 0
-5094 5115 0
-495 -5094 5095 0
-5095 5116 0
-496 -5095 5096 0
-5096 5117 0
-497 -5096 5097 0
-5097 5118 0
-498 -5097 5098 0
-5098 5119 0
-499 -5098 5099 0
-5099 5120 0
-500 -5099 5100 0
-5100 5121 0
-501 -5100 5101 0
-5101 5122 0
-502 -5101 5102 0
-5102 5123 0
-503 -5102 5103 0
-5103 5124 0
-504 -5103 5104 0
-5104 5125 0
-505 -5104 5105 0
-5105 5126 0
-506 -5105 5106 0
-5106 5127 0
-507 -5106 5107 0
-5107 5128 0
-508 -5107 5108 0
-5108 5129 0
-509 -5108 5109 0
-5109 5130 0
-510 -5109 5110 0
-5110 5131 0
-511 -5110 5111 0
-5111 5132 0
-512 -5111 0
-492 5112 0
-5112 5133 0
-493 -5112 5113 0
-5113 5134 0
-494 -5113 5114 0
-5114 5135 0
-495 -5114 5115 0
-5115 5136 0
-496 -5115 5116 0
-5116 5137 0
-497 -5116 5117 0
-5117 5138 0
-498 -5117 5118 0
-5118 5139 0
-499 -5118 5119 0
-5119 5140 0
-500 -5119 5120 0
-5120 5141 0
-501 -5120 5121 0
-5121 5142 0
-502 -5121 5122 0
-5122 5143 0
-503 -5122 5123 0
-5123 5144 0
-504 -5123 5124 0
-5124 5145 0
-505 -5124 5125 0
-5125 5146 0
-506 -5125 5126 0
-5126 5147 0
-507 -5126 5127 0
-5127 5148 0
-508 -5127 5128 0
-5128 5149 0
-509 -5128 5129 0
-5129 5150 0
-510 -5129 5130 0
-5130 5151 0
-511 -5130 5131 0
-5131 5152 0
-512 -5131 5132 0
-5132 5153 0
-513 -5132 0
-493 5133 0
-5133 5154 0
-494 -5133 5134 0
-5134 5155 0
-495 -5134 5135 0
-5135 5156 0
-496 -5135 5136 0
-5136 5157 0
-497 -5136 5137 0
-5137 5158 0
-498 -5137 5138 0
-5138 5159 0
-499 -5138 5139 0
-5139 5160 0
-500 -5139 5140 0
-5140 5161 0
-501 -5140 5141 0
-5141 5162 0
-502 -5141 5142 0
-5142 5163 0
-503 -5142 5143 0
-5143 5164 0
-504 -5143 5144 0
-5144 5165 0
-505 -5144 5145 0
-5145 5166 0
-506 -5145 5146 0
-5146 5167 0
-507 -5146 5147 0
-5147 5168 0
-508 -5147 5148 0
-5148 5169 0
-509 -5148 5149 0
-5149 5170 0
-510 -5149 5150 0
-5150 5171 0
-511 -5150 5151 0
-5151 5172 0
-512 -5151 5152 0
-5152 5173 0
-513 -5152 5153 0
-5153 5174 0
-514 -5153 0
-494 5154 0
-5154 5175 0
-495 -5154 5155 0
-5155 5176 0
-496 -5155 5156 0
-5156 5177 0
-497 -5156 5157 0
-5157 5178 0
-498 -5157 5158 0
-5158 5179 0
-499 -5158 5159 0
-5159 5180 0
-500 -5159 5160 0
-5160 5181 0
-501 -5160 5161 0
-5161 5182 0
-502 -5161 5162 0
-5162 5183 0
-503 -5162 5163 0
-5163 5184 0
-504 -5163 5164 0
-5164 5185 0
-505 -5164 5165 0
-5165 5186 0
-506 -5165 5166 0
-5166 5187 0
-507 -5166 5167 0
-5167 5188 0
-508 -5167 5168 0
-5168 5189 0
-509 -5168 5169 0
-5169 5190 0
-510 -5169 5170 0
-5170 5191 0
-511 -5170 5171 0
-5171 5192 0
-512 -5171 5172 0
-5172 5193 0
-513 -5172 5173 0
-5173 5194 0
-514 -5173 5174 0
-5174 5195 0
-515 -5174 0
-495 5175 0
-5175 5196 0
-496 -5175 5176 0
-5176 5197 0
-497 -5176 5177 0
-5177 5198 0
-498 -5177 5178 0
-5178 5199 0
-499 -5178 5179 0
-5179 5200 0
-500 -5179 5180 0
-5180 5201 0
-501 -5180 5181 0
-5181 5202 0
-502 -5181 5182 0
-5182 5203 0
-503 -5182 5183 0
-5183 5204 0
-504 -5183 5184 0
-5184 5205 0
-505 -5184 5185 0
-5185 5206 0
-506 -5185 5186 0
-5186 5207 0
-507 -5186 5187 0
-5187 5208 0
-508 -5187 5188 0
-5188 5209 0
-509 -5188 5189 0
-5189 5210 0
-510 -5189 5190 0
-5190 5211 0
-511 -5190 5191 0
-5191 5212 0
-512 -5191 5192 0
-5192 5213 0
-513 -5192 5193 0
-5193 5214 0
-514 -5193 5194 0
-5194 5215 0
-515 -5194 5195 0
-5195 5216 0
-516 -5195 0
-496 5196 0
-5196 5217 0
-497 -5196 5197 0
-5197 5218 0
-498 -5197 5198 0
-5198 5219 0
-499 -5198 5199 0
-5199 5220 0
-500 -5199 5200 0
-5200 5221 0
-501 -5200 5201 0
-5201 5222 0
-502 -5201 5202 0
-5202 5223 0
-503 -5202 5203 0
-5203 5224 0
-504 -5203 5204 0
-5204 5225 0
-505 -5204 5205 0
-5205 5226 0
-506 -5205 5206 0
-5206 5227 0
-507 -5206 5207 0
-5207 5228 0
-508 -5207 5208 0
-5208 5229 0
-509 -5208 5209 0
-5209 5230 0
-510 -5209 5210 0
-5210 5231 0
-511 -5210 5211 0
-5211 5232 0
-512 -5211 5212 0
-5212 5233 0
-513 -5212 5213 0
-5213 5234 0
-514 -5213 5214 0
-5214 5235 0
-515 -5214 5215 0
-5215 5236 0
-516 -5215 5216 0
-5216 5237 0
-517 -5216 0
-497 5217 0
-5217 5238 0
-498 -5217 5218 0
-5218 5239 0
-499 -5218 5219 0
-5219 5240 0
-500 -5219 5220 0
-5220 5241 0
-501 -5220 5221 0
-5221 5242 0
-502 -5221 5222 0
-5222 5243 0
-503 -5222 5223 0
-5223 5244 0
-504 -5223 5224 0
-5224 5245 0
-505 -5224 5225 0
-5225 5246 0
-506 -5225 5226 0
-5226 5247 0
-507 -5226 5227 0
-5227 5248 0
-508 -5227 5228 0
-5228 5249 0
-509 -5228 5229 0
-5229 5250 0
-510 -5229 5230 0
-5230 5251 0
-511 -5230 5231 0
-5231 5252 0
-512 -5231 5232 0
-5232 5253 0
-513 -5232 5233 0
-5233 5254 0
-514 -5233 5234 0
-5234 5255 0
-515 -5234 5235 0
-5235 5256 0
-516 -5235 5236 0
-5236 5257 0
-517 -5236 5237 0
-5237 5258 0
-518 -5237 0
-498 5238 0
-5238 5259 0
-499 -5238 5239 0
-5239 5260 0
-500 -5239 5240 0
-5240 5261 0
-501 -5240 5241 0
-5241 5262 0
-502 -5241 5242 0
-5242 5263 0
-503 -5242 5243 0
-5243 5264 0
-504 -5243 5244 0
-5244 5265 0
-505 -5244 5245 0
-5245 5266 0
-506 -5245 5246 0
-5246 5267 0
-507 -5246 5247 0
-5247 5268 0
-508 -5247 5248 0
-5248 5269 0
-509 -5248 5249 0
-5249 5270 0
-510 -5249 5250 0
-5250 5271 0
-511 -5250 5251 0
-5251 5272 0
-512 -5251 5252 0
-5252 5273 0
-513 -5252 5253 0
-5253 5274 0
-514 -5253 5254 0
-5254 5275 0
-515 -5254 5255 0
-5255 5276 0
-516 -5255 5256 0
-5256 5277 0
-517 -5256 5257 0
-5257 5278 0
-518 -5257 5258 0
-5258 5279 0
-519 -5258 0
-499 5259 0
-5259 5280 0
-500 -5259 5260 0
-5260 5281 0
-501 -5260 5261 0
-5261 5282 0
-502 -5261 5262 0
-5262 5283 0
-503 -5262 5263 0
-5263 5284 0
-504 -5263 5264 0
-5264 5285 0
-505 -5264 5265 0
-5265 5286 0
-506 -5265 5266 0
-5266 5287 0
-507 -5266 5267 0
-5267 5288 0
-508 -5267 5268 0
-5268 5289 0
-509 -5268 5269 0
-5269 5290 0
-510 -5269 5270 0
-5270 5291 0
-511 -5270 5271 0
-5271 5292 0
-512 -5271 5272 0
-5272 5293 0
-513 -5272 5273 0
-5273 5294 0
-514 -5273 5274 0
-5274 5295 0
-515 -5274 5275 0
-5275 5296 0
-516 -5275 5276 0
-5276 5297 0
-517 -5276 5277 0
-5277 5298 0
-518 -5277 5278 0
-5278 5299 0
-519 -5278 5279 0
-5279 5300 0
-520 -5279 0
-500 5280 0
-5280 5301 0
-501 -5280 5281 0
-5281 5302 0
-502 -5281 5282 0
-5282 5303 0
-503 -5282 5283 0
-5283 5304 0
-504 -5283 5284 0
-5284 5305 0
-505 -5284 5285 0
-5285 5306 0
-506 -5285 5286 0
-5286 5307 0
-507 -5286 5287 0
-5287 5308 0
-508 -5287 5288 0
-5288 5309 0
-509 -5288 5289 0
-5289 5310 0
-510 -5289 5290 0
-5290 5311 0
-511 -5290 5291 0
-5291 5312 0
-512 -5291 5292 0
-5292 5313 0
-513 -5292 5293 0
-5293 5314 0
-514 -5293 5294 0
-5294 5315 0
-515 -5294 5295 0
-5295 5316 0
-516 -5295 5296 0
-5296 5317 0
-517 -5296 5297 0
-5297 5318 0
-518 -5297 5298 0
-5298 5319 0
-519 -5298 5299 0
-5299 5320 0
-520 -5299 5300 0
-5300 5321 0
-521 -5300 0
-501 5301 0
-5301 5322 0
-502 -5301 5302 0
-5302 5323 0
-503 -5302 5303 0
-5303 5324 0
-504 -5303 5304 0
-5304 5325 0
-505 -5304 5305 0
-5305 5326 0
-506 -5305 5306 0
-5306 5327 0
-507 -5306 5307 0
-5307 5328 0
-508 -5307 5308 0
-5308 5329 0
-509 -5308 5309 0
-5309 5330 0
-510 -5309 5310 0
-5310 5331 0
-511 -5310 5311 0
-5311 5332 0
-512 -5311 5312 0
-5312 5333 0
-513 -5312 5313 0
-5313 5334 0
-514 -5313 5314 0
-5314 5335 0
-515 -5314 5315 0
-5315 5336 0
-516 -5315 5316 0
-5316 5337 0
-517 -5316 5317 0
-5317 5338 0
-518 -5317 5318 0
-5318 5339 0
-519 -5318 5319 0
-5319 5340 0
-520 -5319 5320 0
-5320 5341 0
-521 -5320 5321 0
-5321 5342 0
-522 -5321 0
-502 5322 0
-5322 5343 0
-503 -5322 5323 0
-5323 5344 0
-504 -5323 5324 0
-5324 5345 0
-505 -5324 5325 0
-5325 5346 0
-506 -5325 5326 0
-5326 5347 0
-507 -5326 5327 0
-5327 5348 0
-508 -5327 5328 0
-5328 5349 0
-509 -5328 5329 0
-5329 5350 0
-510 -5329 5330 0
-5330 5351 0
-511 -5330 5331 0
-5331 5352 0
-512 -5331 5332 0
-5332 5353 0
-513 -5332 5333 0
-5333 5354 0
-514 -5333 5334 0
-5334 5355 0
-515 -5334 5335 0
-5335 5356 0
-516 -5335 5336 0
-5336 5357 0
-517 -5336 5337 0
-5337 5358 0
-518 -5337 5338 0
-5338 5359 0
-519 -5338 5339 0
-5339 5360 0
-520 -5339 5340 0
-5340 5361 0
-521 -5340 5341 0
-5341 5362 0
-522 -5341 5342 0
-5342 5363 0
-523 -5342 0
-503 5343 0
-5343 5364 0
-504 -5343 5344 0
-5344 5365 0
-505 -5344 5345 0
-5345 5366 0
-506 -5345 5346 0
-5346 5367 0
-507 -5346 5347 0
-5347 5368 0
-508 -5347 5348 0
-5348 5369 0
-509 -5348 5349 0
-5349 5370 0
-510 -5349 5350 0
-5350 5371 0
-511 -5350 5351 0
-5351 5372 0
-512 -5351 5352 0
-5352 5373 0
-513 -5352 5353 0
-5353 5374 0
-514 -5353 5354 0
-5354 5375 0
-515 -5354 5355 0
-5355 5376 0
-516 -5355 5356 0
-5356 5377 0
-517 -5356 5357 0
-5357 5378 0
-518 -5357 5358 0
-5358 5379 0
-519 -5358 5359 0
-5359 5380 0
-520 -5359 5360 0
-5360 5381 0
-521 -5360 5361 0
-5361 5382 0
-522 -5361 5362 0
-5362 5383 0
-523 -5362 5363 0
-5363 5384 0
-524 -5363 0
-504 5364 0
-5364 5385 0
-505 -5364 5365 0
-5365 5386 0
-506 -5365 5366 0
-5366 5387 0
-507 -5366 5367 0
-5367 5388 0
-508 -5367 5368 0
-5368 5389 0
-509 -5368 5369 0
-5369 5390 0
-510 -5369 5370 0
-5370 5391 0
-511 -5370 5371 0
-5371 5392 0
-512 -5371 5372 0
-5372 5393 0
-513 -5372 5373 0
-5373 5394 0
-514 -5373 5374 0
-5374 5395 0
-515 -5374 5375 0
-5375 5396 0
-516 -5375 5376 0
-5376 5397 0
-517 -5376 5377 0
-5377 5398 0
-518 -5377 5378 0
-5378 5399 0
-519 -5378 5379 0
-5379 5400 0
-520 -5379 5380 0
-5380 5401 0
-521 -5380 5381 0
-5381 5402 0
-522 -5381 5382 0
-5382 5403 0
-523 -5382 5383 0
-5383 5404 0
-524 -5383 5384 0
-5384 5405 0
-525 -5384 0
-505 5385 0
-5385 5406 0
-506 -5385 5386 0
-5386 5407 0
-507 -5386 5387 0
-5387 5408 0
-508 -5387 5388 0
-5388 5409 0
-509 -5388 5389 0
-5389 5410 0
-510 -5389 5390 0
-5390 5411 0
-511 -5390 5391 0
-5391 5412 0
-512 -5391 5392 0
-5392 5413 0
-513 -5392 5393 0
-5393 5414 0
-514 -5393 5394 0
-5394 5415 0
-515 -5394 5395 0
-5395 5416 0
-516 -5395 5396 0
-5396 5417 0
-517 -5396 5397 0
-5397 5418 0
-518 -5397 5398 0
-5398 5419 0
-519 -5398 5399 0
-5399 5420 0
-520 -5399 5400 0
-5400 5421 0
-521 -5400 5401 0
-5401 5422 0
-522 -5401 5402 0
-5402 5423 0
-523 -5402 5403 0
-5403 5424 0
-524 -5403 5404 0
-5404 5425 0
-525 -5404 5405 0
-5405 5426 0
-526 -5405 0
-506 5406 0
-5406 5427 0
-507 -5406 5407 0
-5407 5428 0
-508 -5407 5408 0
-5408 5429 0
-509 -5408 5409 0
-5409 5430 0
-510 -5409 5410 0
-5410 5431 0
-511 -5410 5411 0
-5411 5432 0
-512 -5411 5412 0
-5412 5433 0
-513 -5412 5413 0
-5413 5434 0
-514 -5413 5414 0
-5414 5435 0
-515 -5414 5415 0
-5415 5436 0
-516 -5415 5416 0
-5416 5437 0
-517 -5416 5417 0
-5417 5438 0
-518 -5417 5418 0
-5418 5439 0
-519 -5418 5419 0
-5419 5440 0
-520 -5419 5420 0
-5420 5441 0
-521 -5420 5421 0
-5421 5442 0
-522 -5421 5422 0
-5422 5443 0
-523 -5422 5423 0
-5423 5444 0
-524 -5423 5424 0
-5424 5445 0
-525 -5424 5425 0
-5425 5446 0
-526 -5425 5426 0
-5426 5447 0
-527 -5426 0
-507 5427 0
-5427 5448 0
-508 -5427 5428 0
-5428 5449 0
-509 -5428 5429 0
-5429 5450 0
-510 -5429 5430 0
-5430 5451 0
-511 -5430 5431 0
-5431 5452 0
-512 -5431 5432 0
-5432 5453 0
-513 -5432 5433 0
-5433 5454 0
-514 -5433 5434 0
-5434 5455 0
-515 -5434 5435 0
-5435 5456 0
-516 -5435 5436 0
-5436 5457 0
-517 -5436 5437 0
-5437 5458 0
-518 -5437 5438 0
-5438 5459 0
-519 -5438 5439 0
-5439 5460 0
-520 -5439 5440 0
-5440 5461 0
-521 -5440 5441 0
-5441 5462 0
-522 -5441 5442 0
-5442 5463 0
-523 -5442 5443 0
-5443 5464 0
-524 -5443 5444 0
-5444 5465 0
-525 -5444 5445 0
-5445 5466 0
-526 -5445 5446 0
-5446 5467 0
-527 -5446 5447 0
-5447 5468 0
-528 -5447 0
-508 5448 0
-5448 5469 0
-509 -5448 5449 0
-5449 5470 0
-510 -5449 5450 0
-5450 5471 0
-511 -5450 5451 0
-5451 5472 0
-512 -5451 5452 0
-5452 5473 0
-513 -5452 5453 0
-5453 5474 0
-514 -5453 5454 0
-5454 5475 0
-515 -5454 5455 0
-5455 5476 0
-516 -5455 5456 0
-5456 5477 0
-517 -5456 5457 0
-5457 5478 0
-518 -5457 5458 0
-5458 5479 0
-519 -5458 5459 0
-5459 5480 0
-520 -5459 5460 0
-5460 5481 0
-521 -5460 5461 0
-5461 5482 0
-522 -5461 5462 0
-5462 5483 0
-523 -5462 5463 0
-5463 5484 0
-524 -5463 5464 0
-5464 5485 0
-525 -5464 5465 0
-5465 5486 0
-526 -5465 5466 0
-5466 5487 0
-527 -5466 5467 0
-5467 5488 0
-528 -5467 5468 0
-5468 5489 0
-529 -5468 0
-509 5469 0
-5469 5490 0
-510 -5469 5470 0
-5470 5491 0
-511 -5470 5471 0
-5471 5492 0
-512 -5471 5472 0
-5472 5493 0
-513 -5472 5473 0
-5473 5494 0
-514 -5473 5474 0
-5474 5495 0
-515 -5474 5475 0
-5475 5496 0
-516 -5475 5476 0
-5476 5497 0
-517 -5476 5477 0
-5477 5498 0
-518 -5477 5478 0
-5478 5499 0
-519 -5478 5479 0
-5479 5500 0
-520 -5479 5480 0
-5480 5501 0
-521 -5480 5481 0
-5481 5502 0
-522 -5481 5482 0
-5482 5503 0
-523 -5482 5483 0
-5483 5504 0
-524 -5483 5484 0
-5484 5505 0
-525 -5484 5485 0
-5485 5506 0
-526 -5485 5486 0
-5486 5507 0
-527 -5486 5487 0
-5487 5508 0
-528 -5487 5488 0
-5488 5509 0
-529 -5488 5489 0
-5489 5510 0
-530 -5489 0
-510 5490 0
-5490 5511 0
-511 -5490 5491 0
-5491 5512 0
-512 -5491 5492 0
-5492 5513 0
-513 -5492 5493 0
-5493 5514 0
-514 -5493 5494 0
-5494 5515 0
-515 -5494 5495 0
-5495 5516 0
-516 -5495 5496 0
-5496 5517 0
-517 -5496 5497 0
-5497 5518 0
-518 -5497 5498 0
-5498 5519 0
-519 -5498 5499 0
-5499 5520 0
-520 -5499 5500 0
-5500 5521 0
-521 -5500 5501 0
-5501 5522 0
-522 -5501 5502 0
-5502 5523 0
-523 -5502 5503 0
-5503 5524 0
-524 -5503 5504 0
-5504 5525 0
-525 -5504 5505 0
-5505 5526 0
-526 -5505 5506 0
-5506 5527 0
-527 -5506 5507 0
-5507 5528 0
-528 -5507 5508 0
-5508 5529 0
-529 -5508 5509 0
-5509 5530 0
-530 -5509 5510 0
-5510 5531 0
-531 -5510 0
-511 5511 0
-5511 5532 0
-512 -5511 5512 0
-5512 5533 0
-513 -5512 5513 0
-5513 5534 0
-514 -5513 5514 0
-5514 5535 0
-515 -5514 5515 0
-5515 5536 0
-516 -5515 5516 0
-5516 5537 0
-517 -5516 5517 0
-5517 5538 0
-518 -5517 5518 0
-5518 5539 0
-519 -5518 5519 0
-5519 5540 0
-520 -5519 5520 0
-5520 5541 0
-521 -5520 5521 0
-5521 5542 0
-522 -5521 5522 0
-5522 5543 0
-523 -5522 5523 0
-5523 5544 0
-524 -5523 5524 0
-5524 5545 0
-525 -5524 5525 0
-5525 5546 0
-526 -5525 5526 0
-5526 5547 0
-527 -5526 5527 0
-5527 5548 0
-528 -5527 5528 0
-5528 5549 0
-529 -5528 5529 0
-5529 5550 0
-530 -5529 5530 0
-5530 5551 0
-531 -5530 5531 0
-5531 5552 0
-532 -5531 0
-512 5532 0
-5532 5553 0
-513 -5532 5533 0
-5533 5554 0
-514 -5533 5534 0
-5534 5555 0
-515 -5534 5535 0
-5535 5556 0
-516 -5535 5536 0
-5536 5557 0
-517 -5536 5537 0
-5537 5558 0
-518 -5537 5538 0
-5538 5559 0
-519 -5538 5539 0
-5539 5560 0
-520 -5539 5540 0
-5540 5561 0
-521 -5540 5541 0
-5541 5562 0
-522 -5541 5542 0
-5542 5563 0
-523 -5542 5543 0
-5543 5564 0
-524 -5543 5544 0
-5544 5565 0
-525 -5544 5545 0
-5545 5566 0
-526 -5545 5546 0
-5546 5567 0
-527 -5546 5547 0
-5547 5568 0
-528 -5547 5548 0
-5548 5569 0
-529 -5548 5549 0
-5549 5570 0
-530 -5549 5550 0
-5550 5571 0
-531 -5550 5551 0
-5551 5572 0
-532 -5551 5552 0
-5552 5573 0
-533 -5552 0
-513 5553 0
-5553 5574 0
-514 -5553 5554 0
-5554 5575 0
-515 -5554 5555 0
-5555 5576 0
-516 -5555 5556 0
-5556 5577 0
-517 -5556 5557 0
-5557 5578 0
-518 -5557 5558 0
-5558 5579 0
-519 -5558 5559 0
-5559 5580 0
-520 -5559 5560 0
-5560 5581 0
-521 -5560 5561 0
-5561 5582 0
-522 -5561 5562 0
-5562 5583 0
-523 -5562 5563 0
-5563 5584 0
-524 -5563 5564 0
-5564 5585 0
-525 -5564 5565 0
-5565 5586 0
-526 -5565 5566 0
-5566 5587 0
-527 -5566 5567 0
-5567 5588 0
-528 -5567 5568 0
-5568 5589 0
-529 -5568 5569 0
-5569 5590 0
-530 -5569 5570 0
-5570 5591 0
-531 -5570 5571 0
-5571 5592 0
-532 -5571 5572 0
-5572 5593 0
-533 -5572 5573 0
-5573 5594 0
-534 -5573 0
-514 5574 0
-5574 5595 0
-515 -5574 5575 0
-5575 5596 0
-516 -5575 5576 0
-5576 5597 0
-517 -5576 5577 0
-5577 5598 0
-518 -5577 5578 0
-5578 5599 0
-519 -5578 5579 0
-5579 5600 0
-520 -5579 5580 0
-5580 5601 0
-521 -5580 5581 0
-5581 5602 0
-522 -5581 5582 0
-5582 5603 0
-523 -5582 5583 0
-5583 5604 0
-524 -5583 5584 0
-5584 5605 0
-525 -5584 5585 0
-5585 5606 0
-526 -5585 5586 0
-5586 5607 0
-527 -5586 5587 0
-5587 5608 0
-528 -5587 5588 0
-5588 5609 0
-529 -5588 5589 0
-5589 5610 0
-530 -5589 5590 0
-5590 5611 0
-531 -5590 5591 0
-5591 5612 0
-532 -5591 5592 0
-5592 5613 0
-533 -5592 5593 0
-5593 5614 0
-534 -5593 5594 0
-5594 5615 0
-535 -5594 0
-515 5595 0
-5595 5616 0
-516 -5595 5596 0
-5596 5617 0
-517 -5596 5597 0
-5597 5618 0
-518 -5597 5598 0
-5598 5619 0
-519 -5598 5599 0
-5599 5620 0
-520 -5599 5600 0
-5600 5621 0
-521 -5600 5601 0
-5601 5622 0
-522 -5601 5602 0
-5602 5623 0
-523 -5602 5603 0
-5603 5624 0
-524 -5603 5604 0
-5604 5625 0
-525 -5604 5605 0
-5605 5626 0
-526 -5605 5606 0
-5606 5627 0
-527 -5606 5607 0
-5607 5628 0
-528 -5607 5608 0
-5608 5629 0
-529 -5608 5609 0
-5609 5630 0
-530 -5609 5610 0
-5610 5631 0
-531 -5610 5611 0
-5611 5632 0
-532 -5611 5612 0
-5612 5633 0
-533 -5612 5613 0
-5613 5634 0
-534 -5613 5614 0
-5614 5635 0
-535 -5614 5615 0
-5615 5636 0
-536 -5615 0
-516 5616 0
-5616 5637 0
-517 -5616 5617 0
-5617 5638 0
-518 -5617 5618 0
-5618 5639 0
-519 -5618 5619 0
-5619 5640 0
-520 -5619 5620 0
-5620 5641 0
-521 -5620 5621 0
-5621 5642 0
-522 -5621 5622 0
-5622 5643 0
-523 -5622 5623 0
-5623 5644 0
-524 -5623 5624 0
-5624 5645 0
-525 -5624 5625 0
-5625 5646 0
-526 -5625 5626 0
-5626 5647 0
-527 -5626 5627 0
-5627 5648 0
-528 -5627 5628 0
-5628 5649 0
-529 -5628 5629 0
-5629 5650 0
-530 -5629 5630 0
-5630 5651 0
-531 -5630 5631 0
-5631 5652 0
-532 -5631 5632 0
-5632 5653 0
-533 -5632 5633 0
-5633 5654 0
-534 -5633 5634 0
-5634 5655 0
-535 -5634 5635 0
-5635 5656 0
-536 -5635 5636 0
-5636 5657 0
-537 -5636 0
-517 5637 0
-5637 5658 0
-518 -5637 5638 0
-5638 5659 0
-519 -5638 5639 0
-5639 5660 0
-520 -5639 5640 0
-5640 5661 0
-521 -5640 5641 0
-5641 5662 0
-522 -5641 5642 0
-5642 5663 0
-523 -5642 5643 0
-5643 5664 0
-524 -5643 5644 0
-5644 5665 0
-525 -5644 5645 0
-5645 5666 0
-526 -5645 5646 0
-5646 5667 0
-527 -5646 5647 0
-5647 5668 0
-528 -5647 5648 0
-5648 5669 0
-529 -5648 5649 0
-5649 5670 0
-530 -5649 5650 0
-5650 5671 0
-531 -5650 5651 0
-5651 5672 0
-532 -5651 5652 0
-5652 5673 0
-533 -5652 5653 0
-5653 5674 0
-534 -5653 5654 0
-5654 5675 0
-535 -5654 5655 0
-5655 5676 0
-536 -5655 5656 0
-5656 5677 0
-537 -5656 5657 0
-5657 5678 0
-538 -5657 0
-518 5658 0
-5658 5679 0
-519 -5658 5659 0
-5659 5680 0
-520 -5659 5660 0
-5660 5681 0
-521 -5660 5661 0
-5661 5682 0
-522 -5661 5662 0
-5662 5683 0
-523 -5662 5663 0
-5663 5684 0
-524 -5663 5664 0
-5664 5685 0
-525 -5664 5665 0
-5665 5686 0
-526 -5665 5666 0
-5666 5687 0
-527 -5666 5667 0
-5667 5688 0
-528 -5667 5668 0
-5668 5689 0
-529 -5668 5669 0
-5669 5690 0
-530 -5669 5670 0
-5670 5691 0
-531 -5670 5671 0
-5671 5692 0
-532 -5671 5672 0
-5672 5693 0
-533 -5672 5673 0
-5673 5694 0
-534 -5673 5674 0
-5674 5695 0
-535 -5674 5675 0
-5675 5696 0
-536 -5675 5676 0
-5676 5697 0
-537 -5676 5677 0
-5677 5698 0
-538 -5677 5678 0
-5678 5699 0
-539 -5678 0
-519 5679 0
-5679 5700 0
-520 -5679 5680 0
-5680 5701 0
-521 -5680 5681 0
-5681 5702 0
-522 -5681 5682 0
-5682 5703 0
-523 -5682 5683 0
-5683 5704 0
-524 -5683 5684 0
-5684 5705 0
-525 -5684 5685 0
-5685 5706 0
-526 -5685 5686 0
-5686 5707 0
-527 -5686 5687 0
-5687 5708 0
-528 -5687 5688 0
-5688 5709 0
-529 -5688 5689 0
-5689 5710 0
-530 -5689 5690 0
-5690 5711 0
-531 -5690 5691 0
-5691 5712 0
-532 -5691 5692 0
-5692 5713 0
-533 -5692 5693 0
-5693 5714 0
-534 -5693 5694 0
-5694 5715 0
-535 -5694 5695 0
-5695 5716 0
-536 -5695 5696 0
-5696 5717 0
-537 -5696 5697 0
-5697 5718 0
-538 -5697 5698 0
-5698 5719 0
-539 -5698 5699 0
-5699 5720 0
-540 -5699 0
-520 5700 0
-5700 5721 0
-521 -5700 5701 0
-5701 5722 0
-522 -5701 5702 0
-5702 5723 0
-523 -5702 5703 0
-5703 5724 0
-524 -5703 5704 0
-5704 5725 0
-525 -5704 5705 0
-5705 5726 0
-526 -5705 5706 0
-5706 5727 0
-527 -5706 5707 0
-5707 5728 0
-528 -5707 5708 0
-5708 5729 0
-529 -5708 5709 0
-5709 5730 0
-530 -5709 5710 0
-5710 5731 0
-531 -5710 5711 0
-5711 5732 0
-532 -5711 5712 0
-5712 5733 0
-533 -5712 5713 0
-5713 5734 0
-534 -5713 5714 0
-5714 5735 0
-535 -5714 5715 0
-5715 5736 0
-536 -5715 5716 0
-5716 5737 0
-537 -5716 5717 0
-5717 5738 0
-538 -5717 5718 0
-5718 5739 0
-539 -5718 5719 0
-5719 5740 0
-540 -5719 5720 0
-5720 5741 0
-541 -5720 0
-521 5721 0
-5721 5742 0
-522 -5721 5722 0
-5722 5743 0
-523 -5722 5723 0
-5723 5744 0
-524 -5723 5724 0
-5724 5745 0
-525 -5724 5725 0
-5725 5746 0
-526 -5725 5726 0
-5726 5747 0
-527 -5726 5727 0
-5727 5748 0
-528 -5727 5728 0
-5728 5749 0
-529 -5728 5729 0
-5729 5750 0
-530 -5729 5730 0
-5730 5751 0
-531 -5730 5731 0
-5731 5752 0
-532 -5731 5732 0
-5732 5753 0
-533 -5732 5733 0
-5733 5754 0
-534 -5733 5734 0
-5734 5755 0
-535 -5734 5735 0
-5735 5756 0
-536 -5735 5736 0
-5736 5757 0
-537 -5736 5737 0
-5737 5758 0
-538 -5737 5738 0
-5738 5759 0
-539 -5738 5739 0
-5739 5760 0
-540 -5739 5740 0
-5740 5761 0
-541 -5740 5741 0
-5741 5762 0
-542 -5741 0
-522 5742 0
-5742 5763 0
-523 -5742 5743 0
-5743 5764 0
-524 -5743 5744 0
-5744 5765 0
-525 -5744 5745 0
-5745 5766 0
-526 -5745 5746 0
-5746 5767 0
-527 -5746 5747 0
-5747 5768 0
-528 -5747 5748 0
-5748 5769 0
-529 -5748 5749 0
-5749 5770 0
-530 -5749 5750 0
-5750 5771 0
-531 -5750 5751 0
-5751 5772 0
-532 -5751 5752 0
-5752 5773 0
-533 -5752 5753 0
-5753 5774 0
-534 -5753 5754 0
-5754 5775 0
-535 -5754 5755 0
-5755 5776 0
-536 -5755 5756 0
-5756 5777 0
-537 -5756 5757 0
-5757 5778 0
-538 -5757 5758 0
-5758 5779 0
-539 -5758 5759 0
-5759 5780 0
-540 -5759 5760 0
-5760 5781 0
-541 -5760 5761 0
-5761 5782 0
-542 -5761 5762 0
-5762 5783 0
-543 -5762 0
-523 5763 0
-5763 5784 0
-524 -5763 5764 0
-5764 5785 0
-525 -5764 5765 0
-5765 5786 0
-526 -5765 5766 0
-5766 5787 0
-527 -5766 5767 0
-5767 5788 0
-528 -5767 5768 0
-5768 5789 0
-529 -5768 5769 0
-5769 5790 0
-530 -5769 5770 0
-5770 5791 0
-531 -5770 5771 0
-5771 5792 0
-532 -5771 5772 0
-5772 5793 0
-533 -5772 5773 0
-5773 5794 0
-534 -5773 5774 0
-5774 5795 0
-535 -5774 5775 0
-5775 5796 0
-536 -5775 5776 0
-5776 5797 0
-537 -5776 5777 0
-5777 5798 0
-538 -5777 5778 0
-5778 5799 0
-539 -5778 5779 0
-5779 5800 0
-540 -5779 5780 0
-5780 5801 0
-541 -5780 5781 0
-5781 5802 0
-542 -5781 5782 0
-5782 5803 0
-543 -5782 5783 0
-5783 5804 0
-544 -5783 0
-524 5784 0
-5784 5805 0
-525 -5784 5785 0
-5785 5806 0
-526 -5785 5786 0
-5786 5807 0
-527 -5786 5787 0
-5787 5808 0
-528 -5787 5788 0
-5788 5809 0
-529 -5788 5789 0
-5789 5810 0
-530 -5789 5790 0
-5790 5811 0
-531 -5790 5791 0
-5791 5812 0
-532 -5791 5792 0
-5792 5813 0
-533 -5792 5793 0
-5793 5814 0
-534 -5793 5794 0
-5794 5815 0
-535 -5794 5795 0
-5795 5816 0
-536 -5795 5796 0
-5796 5817 0
-537 -5796 5797 0
-5797 5818 0
-538 -5797 5798 0
-5798 5819 0
-539 -5798 5799 0
-5799 5820 0
-540 -5799 5800 0
-5800 5821 0
-541 -5800 5801 0
-5801 5822 0
-542 -5801 5802 0
-5802 5823 0
-543 -5802 5803 0
-5803 5824 0
-544 -5803 5804 0
-5804 5825 0
-545 -5804 0
-525 5805 0
-5805 5826 0
-526 -5805 5806 0
-5806 5827 0
-527 -5806 5807 0
-5807 5828 0
-528 -5807 5808 0
-5808 5829 0
-529 -5808 5809 0
-5809 5830 0
-530 -5809 5810 0
-5810 5831 0
-531 -5810 5811 0
-5811 5832 0
-532 -5811 5812 0
-5812 5833 0
-533 -5812 5813 0
-5813 5834 0
-534 -5813 5814 0
-5814 5835 0
-535 -5814 5815 0
-5815 5836 0
-536 -5815 5816 0
-5816 5837 0
-537 -5816 5817 0
-5817 5838 0
-538 -5817 5818 0
-5818 5839 0
-539 -5818 5819 0
-5819 5840 0
-540 -5819 5820 0
-5820 5841 0
-541 -5820 5821 0
-5821 5842 0
-542 -5821 5822 0
-5822 5843 0
-543 -5822 5823 0
-5823 5844 0
-544 -5823 5824 0
-5824 5845 0
-545 -5824 5825 0
-5825 5846 0
-546 -5825 0
-526 5826 0
-5826 5847 0
-527 -5826 5827 0
-5827 5848 0
-528 -5827 5828 0
-5828 5849 0
-529 -5828 5829 0
-5829 5850 0
-530 -5829 5830 0
-5830 5851 0
-531 -5830 5831 0
-5831 5852 0
-532 -5831 5832 0
-5832 5853 0
-533 -5832 5833 0
-5833 5854 0
-534 -5833 5834 0
-5834 5855 0
-535 -5834 5835 0
-5835 5856 0
-536 -5835 5836 0
-5836 5857 0
-537 -5836 5837 0
-5837 5858 0
-538 -5837 5838 0
-5838 5859 0
-539 -5838 5839 0
-5839 5860 0
-540 -5839 5840 0
-5840 5861 0
-541 -5840 5841 0
-5841 5862 0
-542 -5841 5842 0
-5842 5863 0
-543 -5842 5843 0
-5843 5864 0
-544 -5843 5844 0
-5844 5865 0
-545 -5844 5845 0
-5845 5866 0
-546 -5845 5846 0
-5846 5867 0
-547 -5846 0
-527 5847 0
-5847 5868 0
-528 -5847 5848 0
-5848 5869 0
-529 -5848 5849 0
-5849 5870 0
-530 -5849 5850 0
-5850 5871 0
-531 -5850 5851 0
-5851 5872 0
-532 -5851 5852 0
-5852 5873 0
-533 -5852 5853 0
-5853 5874 0
-534 -5853 5854 0
-5854 5875 0
-535 -5854 5855 0
-5855 5876 0
-536 -5855 5856 0
-5856 5877 0
-537 -5856 5857 0
-5857 5878 0
-538 -5857 5858 0
-5858 5879 0
-539 -5858 5859 0
-5859 5880 0
-540 -5859 5860 0
-5860 5881 0
-541 -5860 5861 0
-5861 5882 0
-542 -5861 5862 0
-5862 5883 0
-543 -5862 5863 0
-5863 5884 0
-544 -5863 5864 0
-5864 5885 0
-545 -5864 5865 0
-5865 5886 0
-546 -5865 5866 0
-5866 5887 0
-547 -5866 5867 0
-5867 5888 0
-548 -5867 0
-528 5868 0
-5868 5889 0
-529 -5868 5869 0
-5869 5890 0
-530 -5869 5870 0
-5870 5891 0
-531 -5870 5871 0
-5871 5892 0
-532 -5871 5872 0
-5872 5893 0
-533 -5872 5873 0
-5873 5894 0
-534 -5873 5874 0
-5874 5895 0
-535 -5874 5875 0
-5875 5896 0
-536 -5875 5876 0
-5876 5897 0
-537 -5876 5877 0
-5877 5898 0
-538 -5877 5878 0
-5878 5899 0
-539 -5878 5879 0
-5879 5900 0
-540 -5879 5880 0
-5880 5901 0
-541 -5880 5881 0
-5881 5902 0
-542 -5881 5882 0
-5882 5903 0
-543 -5882 5883 0
-5883 5904 0
-544 -5883 5884 0
-5884 5905 0
-545 -5884 5885 0
-5885 5906 0
-546 -5885 5886 0
-5886 5907 0
-547 -5886 5887 0
-5887 5908 0
-548 -5887 5888 0
-5888 5909 0
-549 -5888 0
-529 5889 0
-5889 5910 0
-530 -5889 5890 0
-5890 5911 0
-531 -5890 5891 0
-5891 5912 0
-532 -5891 5892 0
-5892 5913 0
-533 -5892 5893 0
-5893 5914 0
-534 -5893 5894 0
-5894 5915 0
-535 -5894 5895 0
-5895 5916 0
-536 -5895 5896 0
-5896 5917 0
-537 -5896 5897 0
-5897 5918 0
-538 -5897 5898 0
-5898 5919 0
-539 -5898 5899 0
-5899 5920 0
-540 -5899 5900 0
-5900 5921 0
-541 -5900 5901 0
-5901 5922 0
-542 -5901 5902 0
-5902 5923 0
-543 -5902 5903 0
-5903 5924 0
-544 -5903 5904 0
-5904 5925 0
-545 -5904 5905 0
-5905 5926 0
-546 -5905 5906 0
-5906 5927 0
-547 -5906 5907 0
-5907 5928 0
-548 -5907 5908 0
-5908 5929 0
-549 -5908 5909 0
-5909 5930 0
-550 -5909 0
-530 5910 0
-5910 5931 0
-531 -5910 5911 0
-5911 5932 0
-532 -5911 5912 0
-5912 5933 0
-533 -5912 5913 0
-5913 5934 0
-534 -5913 5914 0
-5914 5935 0
-535 -5914 5915 0
-5915 5936 0
-536 -5915 5916 0
-5916 5937 0
-537 -5916 5917 0
-5917 5938 0
-538 -5917 5918 0
-5918 5939 0
-539 -5918 5919 0
-5919 5940 0
-540 -5919 5920 0
-5920 5941 0
-541 -5920 5921 0
-5921 5942 0
-542 -5921 5922 0
-5922 5943 0
-543 -5922 5923 0
-5923 5944 0
-544 -5923 5924 0
-5924 5945 0
-545 -5924 5925 0
-5925 5946 0
-546 -5925 5926 0
-5926 5947 0
-547 -5926 5927 0
-5927 5948 0
-548 -5927 5928 0
-5928 5949 0
-549 -5928 5929 0
-5929 5950 0
-550 -5929 5930 0
-5930 5951 0
-551 -5930 0
-531 5931 0
-5931 5952 0
-532 -5931 5932 0
-5932 5953 0
-533 -5932 5933 0
-5933 5954 0
-534 -5933 5934 0
-5934 5955 0
-535 -5934 5935 0
-5935 5956 0
-536 -5935 5936 0
-5936 5957 0
-537 -5936 5937 0
-5937 5958 0
-538 -5937 5938 0
-5938 5959 0
-539 -5938 5939 0
-5939 5960 0
-540 -5939 5940 0
-5940 5961 0
-541 -5940 5941 0
-5941 5962 0
-542 -5941 5942 0
-5942 5963 0
-543 -5942 5943 0
-5943 5964 0
-544 -5943 5944 0
-5944 5965 0
-545 -5944 5945 0
-5945 5966 0
-546 -5945 5946 0
-5946 5967 0
-547 -5946 5947 0
-5947 5968 0
-548 -5947 5948 0
-5948 5969 0
-549 -5948 5949 0
-5949 5970 0
-550 -5949 5950 0
-5950 5971 0
-551 -5950 5951 0
-5951 5972 0
-552 -5951 0
-532 5952 0
-5952 5973 0
-533 -5952 5953 0
-5953 5974 0
-534 -5953 5954 0
-5954 5975 0
-535 -5954 5955 0
-5955 5976 0
-536 -5955 5956 0
-5956 5977 0
-537 -5956 5957 0
-5957 5978 0
-538 -5957 5958 0
-5958 5979 0
-539 -5958 5959 0
-5959 5980 0
-540 -5959 5960 0
-5960 5981 0
-541 -5960 5961 0
-5961 5982 0
-542 -5961 5962 0
-5962 5983 0
-543 -5962 5963 0
-5963 5984 0
-544 -5963 5964 0
-5964 5985 0
-545 -5964 5965 0
-5965 5986 0
-546 -5965 5966 0
-5966 5987 0
-547 -5966 5967 0
-5967 5988 0
-548 -5967 5968 0
-5968 5989 0
-549 -5968 5969 0
-5969 5990 0
-550 -5969 5970 0
-5970 5991 0
-551 -5970 5971 0
-5971 5992 0
-552 -5971 5972 0
-5972 5993 0
-553 -5972 0
-533 5973 0
-5973 5994 0
-534 -5973 5974 0
-5974 5995 0
-535 -5974 5975 0
-5975 5996 0
-536 -5975 5976 0
-5976 5997 0
-537 -5976 5977 0
-5977 5998 0
-538 -5977 5978 0
-5978 5999 0
-539 -5978 5979 0
-5979 6000 0
-540 -5979 5980 0
-5980 6001 0
-541 -5980 5981 0
-5981 6002 0
-542 -5981 5982 0
-5982 6003 0
-543 -5982 5983 0
-5983 6004 0
-544 -5983 5984 0
-5984 6005 0
-545 -5984 5985 0
-5985 6006 0
-546 -5985 5986 0
-5986 6007 0
-547 -5986 5987 0
-5987 6008 0
-548 -5987 5988 0
-5988 6009 0
-549 -5988 5989 0
-5989 6010 0
-550 -5989 5990 0
-5990 6011 0
-551 -5990 5991 0
-5991 6012 0
-552 -5991 5992 0
-5992 6013 0
-553 -5992 5993 0
-5993 6014 0
-554 -5993 0
-534 5994 0
-5994 6015 0
-535 -5994 5995 0
-5995 6016 0
-536 -5995 5996 0
-5996 6017 0
-537 -5996 5997 0
-5997 6018 0
-538 -5997 5998 0
-5998 6019 0
-539 -5998 5999 0
-5999 6020 0
-540 -5999 6000 0
-6000 6021 0
-541 -6000 6001 0
-6001 6022 0
-542 -6001 6002 0
-6002 6023 0
-543 -6002 6003 0
-6003 6024 0
-544 -6003 6004 0
-6004 6025 0
-545 -6004 6005 0
-6005 6026 0
-546 -6005 6006 0
-6006 6027 0
-547 -6006 6007 0
-6007 6028 0
-548 -6007 6008 0
-6008 6029 0
-549 -6008 6009 0
-6009 6030 0
-550 -6009 6010 0
-6010 6031 0
-551 -6010 6011 0
-6011 6032 0
-552 -6011 6012 0
-6012 6033 0
-553 -6012 6013 0
-6013 6034 0
-554 -6013 6014 0
-6014 6035 0
-555 -6014 0
-535 6015 0
-6015 6036 0
-536 -6015 6016 0
-6016 6037 0
-537 -6016 6017 0
-6017 6038 0
-538 -6017 6018 0
-6018 6039 0
-539 -6018 6019 0
-6019 6040 0
-540 -6019 6020 0
-6020 6041 0
-541 -6020 6021 0
-6021 6042 0
-542 -6021 6022 0
-6022 6043 0
-543 -6022 6023 0
-6023 6044 0
-544 -6023 6024 0
-6024 6045 0
-545 -6024 6025 0
-6025 6046 0
-546 -6025 6026 0
-6026 6047 0
-547 -6026 6027 0
-6027 6048 0
-548 -6027 6028 0
-6028 6049 0
-549 -6028 6029 0
-6029 6050 0
-550 -6029 6030 0
-6030 6051 0
-551 -6030 6031 0
-6031 6052 0
-552 -6031 6032 0
-6032 6053 0
-553 -6032 6033 0
-6033 6054 0
-554 -6033 6034 0
-6034 6055 0
-555 -6034 6035 0
-6035 6056 0
-556 -6035 0
-536 6036 0
-6036 6057 0
-537 -6036 6037 0
-6037 6058 0
-538 -6037 6038 0
-6038 6059 0
-539 -6038 6039 0
-6039 6060 0
-540 -6039 6040 0
-6040 6061 0
-541 -6040 6041 0
-6041 6062 0
-542 -6041 6042 0
-6042 6063 0
-543 -6042 6043 0
-6043 6064 0
-544 -6043 6044 0
-6044 6065 0
-545 -6044 6045 0
-6045 6066 0
-546 -6045 6046 0
-6046 6067 0
-547 -6046 6047 0
-6047 6068 0
-548 -6047 6048 0
-6048 6069 0
-549 -6048 6049 0
-6049 6070 0
-550 -6049 6050 0
-6050 6071 0
-551 -6050 6051 0
-6051 6072 0
-552 -6051 6052 0
-6052 6073 0
-553 -6052 6053 0
-6053 6074 0
-554 -6053 6054 0
-6054 6075 0
-555 -6054 6055 0
-6055 6076 0
-556 -6055 6056 0
-6056 6077 0
-557 -6056 0
-537 6057 0
-6057 6078 0
-538 -6057 6058 0
-6058 6079 0
-539 -6058 6059 0
-6059 6080 0
-540 -6059 6060 0
-6060 6081 0
-541 -6060 6061 0
-6061 6082 0
-542 -6061 6062 0
-6062 6083 0
-543 -6062 6063 0
-6063 6084 0
-544 -6063 6064 0
-6064 6085 0
-545 -6064 6065 0
-6065 6086 0
-546 -6065 6066 0
-6066 6087 0
-547 -6066 6067 0
-6067 6088 0
-548 -6067 6068 0
-6068 6089 0
-549 -6068 6069 0
-6069 6090 0
-550 -6069 6070 0
-6070 6091 0
-551 -6070 6071 0
-6071 6092 0
-552 -6071 6072 0
-6072 6093 0
-553 -6072 6073 0
-6073 6094 0
-554 -6073 6074 0
-6074 6095 0
-555 -6074 6075 0
-6075 6096 0
-556 -6075 6076 0
-6076 6097 0
-557 -6076 6077 0
-6077 6098 0
-558 -6077 0
-538 6078 0
-6078 6099 0
-539 -6078 6079 0
-6079 6100 0
-540 -6079 6080 0
-6080 6101 0
-541 -6080 6081 0
-6081 6102 0
-542 -6081 6082 0
-6082 6103 0
-543 -6082 6083 0
-6083 6104 0
-544 -6083 6084 0
-6084 6105 0
-545 -6084 6085 0
-6085 6106 0
-546 -6085 6086 0
-6086 6107 0
-547 -6086 6087 0
-6087 6108 0
-548 -6087 6088 0
-6088 6109 0
-549 -6088 6089 0
-6089 6110 0
-550 -6089 6090 0
-6090 6111 0
-551 -6090 6091 0
-6091 6112 0
-552 -6091 6092 0
-6092 6113 0
-553 -6092 6093 0
-6093 6114 0
-554 -6093 6094 0
-6094 6115 0
-555 -6094 6095 0
-6095 6116 0
-556 -6095 6096 0
-6096 6117 0
-557 -6096 6097 0
-6097 6118 0
-558 -6097 6098 0
-6098 6119 0
-559 -6098 0
-539 6099 0
-540 -6099 6100 0
-541 -6100 6101 0
-542 -6101 6102 0
-543 -6102 6103 0
-544 -6103 6104 0
-545 -6104 6105 0
-546 -6105 6106 0
-547 -6106 6107 0
-548 -6107 6108 0
-549 -6108 6109 0
-550 -6109 6110 0
-551 -6110 6111 0
-552 -6111 6112 0
-553 -6112 6113 0
-554 -6113 6114 0
-555 -6114 6115 0
-556 -6115 6116 0
-557 -6116 6117 0
-558 -6117 6118 0
-559 -6118 6119 0
-560 -6119 0
