p cnf 3256 35917
-1 -2 -3 0
-1 -2 -4 0
-1 -3 -4 0
-2 -3 -4 0
2 3 4 0
1 3 4 0
1 2 4 0
1 2 3 0
-5 -6 -7 0
-5 -6 -8 0
-5 -7 -8 0
-6 -7 -8 0
6 7 8 0
5 7 8 0
5 6 8 0
5 6 7 0
-9 -10 -11 0
-9 -10 -12 0
-9 -11 -12 0
-10 -11 -12 0
10 11 12 0
9 11 12 0
9 10 12 0
9 10 11 0
-13 -14 -15 0
-13 -14 -16 0
-13 -15 -16 0
-14 -15 -16 0
14 15 16 0
13 15 16 0
13 14 16 0
13 14 15 0
-17 -18 -19 0
-17 -18 -20 0
-17 -19 -20 0
-18 -19 -20 0
18 19 20 0
17 19 20 0
17 18 20 0
17 18 19 0
-21 -22 -23 0
-21 -22 -24 0
-21 -23 -24 0
-22 -23 -24 0
22 23 24 0
21 23 24 0
21 22 24 0
21 22 23 0
-25 -26 -27 0
-25 -26 -28 0
-25 -27 -28 0
-26 -27 -28 0
26 27 28 0
25 27 28 0
25 26 28 0
25 26 27 0
-29 -30 -31 0
-29 -30 -32 0
-29 -31 -32 0
-30 -31 -32 0
30 31 32 0
29 31 32 0
29 30 32 0
29 30 31 0
-10 -25 -33 0
-10 -25 -34 0
-10 -25 -35 0
-10 -25 -36 0
-10 -33 -34 0
-10 -33 -35 0
-10 -33 -36 0
-10 -34 -35 0
-10 -34 -36 0
-10 -35 -36 0
-25 -33 -34 0
-25 -33 -35 0
-25 -33 -36 0
-25 -34 -35 0
-25 -34 -36 0
-25 -35 -36 0
-33 -34 -35 0
-33 -34 -36 0
-33 -35 -36 0
-34 -35 -36 0
25 33 34 35 36 0
10 33 34 35 36 0
10 25 34 35 36 0
10 25 33 35 36 0
10 25 33 34 36 0
10 25 33 34 35 0
-14 -29 -37 0
-14 -29 -38 0
-14 -29 -39 0
-14 -29 -40 0
-14 -37 -38 0
-14 -37 -39 0
-14 -37 -40 0
-14 -38 -39 0
-14 -38 -40 0
-14 -39 -40 0
-29 -37 -38 0
-29 -37 -39 0
-29 -37 -40 0
-29 -38 -39 0
-29 -38 -40 0
-29 -39 -40 0
-37 -38 -39 0
-37 -38 -40 0
-37 -39 -40 0
-38 -39 -40 0
29 37 38 39 40 0
14 37 38 39 40 0
14 29 38 39 40 0
14 29 37 39 40 0
14 29 37 38 40 0
14 29 37 38 39 0
-1 -18 -41 0
-1 -18 -42 0
-1 -18 -43 0
-1 -18 -44 0
-1 -41 -42 0
-1 -41 -43 0
-1 -41 -44 0
-1 -42 -43 0
-1 -42 -44 0
-1 -43 -44 0
-18 -41 -42 0
-18 -41 -43 0
-18 -41 -44 0
-18 -42 -43 0
-18 -42 -44 0
-18 -43 -44 0
-41 -42 -43 0
-41 -42 -44 0
-41 -43 -44 0
-42 -43 -44 0
18 41 42 43 44 0
1 41 42 43 44 0
1 18 42 43 44 0
1 18 41 43 44 0
1 18 41 42 44 0
1 18 41 42 43 0
-5 -22 -45 0
-5 -22 -46 0
-5 -22 -47 0
-5 -22 -48 0
-5 -45 -46 0
-5 -45 -47 0
-5 -45 -48 0
-5 -46 -47 0
-5 -46 -48 0
-5 -47 -48 0
-22 -45 -46 0
-22 -45 -47 0
-22 -45 -48 0
-22 -46 -47 0
-22 -46 -48 0
-22 -47 -48 0
-45 -46 -47 0
-45 -46 -48 0
-45 -47 -48 0
-46 -47 -48 0
22 45 46 47 48 0
5 45 46 47 48 0
5 22 46 47 48 0
5 22 45 47 48 0
5 22 45 46 48 0
5 22 45 46 47 0
-9 -26 -49 0
-9 -26 -50 0
-9 -26 -51 0
-9 -26 -52 0
-9 -49 -50 0
-9 -49 -51 0
-9 -49 -52 0
-9 -50 -51 0
-9 -50 -52 0
-9 -51 -52 0
-26 -49 -50 0
-26 -49 -51 0
-26 -49 -52 0
-26 -50 -51 0
-26 -50 -52 0
-26 -51 -52 0
-49 -50 -51 0
-49 -50 -52 0
-49 -51 -52 0
-50 -51 -52 0
26 49 50 51 52 0
9 49 50 51 52 0
9 26 50 51 52 0
9 26 49 51 52 0
9 26 49 50 52 0
9 26 49 50 51 0
-13 -30 -53 0
-13 -30 -54 0
-13 -30 -55 0
-13 -30 -56 0
-13 -53 -54 0
-13 -53 -55 0
-13 -53 -56 0
-13 -54 -55 0
-13 -54 -56 0
-13 -55 -56 0
-30 -53 -54 0
-30 -53 -55 0
-30 -53 -56 0
-30 -54 -55 0
-30 -54 -56 0
-30 -55 -56 0
-53 -54 -55 0
-53 -54 -56 0
-53 -55 -56 0
-54 -55 -56 0
30 53 54 55 56 0
13 53 54 55 56 0
13 30 54 55 56 0
13 30 53 55 56 0
13 30 53 54 56 0
13 30 53 54 55 0
-2 -17 -57 0
-2 -17 -58 0
-2 -17 -59 0
-2 -17 -60 0
-2 -57 -58 0
-2 -57 -59 0
-2 -57 -60 0
-2 -58 -59 0
-2 -58 -60 0
-2 -59 -60 0
-17 -57 -58 0
-17 -57 -59 0
-17 -57 -60 0
-17 -58 -59 0
-17 -58 -60 0
-17 -59 -60 0
-57 -58 -59 0
-57 -58 -60 0
-57 -59 -60 0
-58 -59 -60 0
17 57 58 59 60 0
2 57 58 59 60 0
2 17 58 59 60 0
2 17 57 59 60 0
2 17 57 58 60 0
2 17 57 58 59 0
-6 -21 -61 0
-6 -21 -62 0
-6 -21 -63 0
-6 -21 -64 0
-6 -61 -62 0
-6 -61 -63 0
-6 -61 -64 0
-6 -62 -63 0
-6 -62 -64 0
-6 -63 -64 0
-21 -61 -62 0
-21 -61 -63 0
-21 -61 -64 0
-21 -62 -63 0
-21 -62 -64 0
-21 -63 -64 0
-61 -62 -63 0
-61 -62 -64 0
-61 -63 -64 0
-62 -63 -64 0
21 61 62 63 64 0
6 61 62 63 64 0
6 21 62 63 64 0
6 21 61 63 64 0
6 21 61 62 64 0
6 21 61 62 63 0
-8 -31 -42 0
-8 -31 -57 0
-8 -31 -65 0
-8 -31 -66 0
-8 -31 -67 0
-8 -31 -68 0
-8 -42 -57 0
-8 -42 -65 0
-8 -42 -66 0
-8 -42 -67 0
-8 -42 -68 0
-8 -57 -65 0
-8 -57 -66 0
-8 -57 -67 0
-8 -57 -68 0
-8 -65 -66 0
-8 -65 -67 0
-8 -65 -68 0
-8 -66 -67 0
-8 -66 -68 0
-8 -67 -68 0
-31 -42 -57 0
-31 -42 -65 0
-31 -42 -66 0
-31 -42 -67 0
-31 -42 -68 0
-31 -57 -65 0
-31 -57 -66 0
-31 -57 -67 0
-31 -57 -68 0
-31 -65 -66 0
-31 -65 -67 0
-31 -65 -68 0
-31 -66 -67 0
-31 -66 -68 0
-31 -67 -68 0
-42 -57 -65 0
-42 -57 -66 0
-42 -57 -67 0
-42 -57 -68 0
-42 -65 -66 0
-42 -65 -67 0
-42 -65 -68 0
-42 -66 -67 0
-42 -66 -68 0
-42 -67 -68 0
-57 -65 -66 0
-57 -65 -67 0
-57 -65 -68 0
-57 -66 -67 0
-57 -66 -68 0
-57 -67 -68 0
-65 -66 -67 0
-65 -66 -68 0
-65 -67 -68 0
-66 -67 -68 0
31 42 57 65 66 67 68 0
8 42 57 65 66 67 68 0
8 31 57 65 66 67 68 0
8 31 42 65 66 67 68 0
8 31 42 57 66 67 68 0
8 31 42 57 65 67 68 0
8 31 42 57 65 66 68 0
8 31 42 57 65 66 67 0
-3 -12 -46 0
-3 -12 -61 0
-3 -12 -69 0
-3 -12 -70 0
-3 -12 -71 0
-3 -12 -72 0
-3 -46 -61 0
-3 -46 -69 0
-3 -46 -70 0
-3 -46 -71 0
-3 -46 -72 0
-3 -61 -69 0
-3 -61 -70 0
-3 -61 -71 0
-3 -61 -72 0
-3 -69 -70 0
-3 -69 -71 0
-3 -69 -72 0
-3 -70 -71 0
-3 -70 -72 0
-3 -71 -72 0
-12 -46 -61 0
-12 -46 -69 0
-12 -46 -70 0
-12 -46 -71 0
-12 -46 -72 0
-12 -61 -69 0
-12 -61 -70 0
-12 -61 -71 0
-12 -61 -72 0
-12 -69 -70 0
-12 -69 -71 0
-12 -69 -72 0
-12 -70 -71 0
-12 -70 -72 0
-12 -71 -72 0
-46 -61 -69 0
-46 -61 -70 0
-46 -61 -71 0
-46 -61 -72 0
-46 -69 -70 0
-46 -69 -71 0
-46 -69 -72 0
-46 -70 -71 0
-46 -70 -72 0
-46 -71 -72 0
-61 -69 -70 0
-61 -69 -71 0
-61 -69 -72 0
-61 -70 -71 0
-61 -70 -72 0
-61 -71 -72 0
-69 -70 -71 0
-69 -70 -72 0
-69 -71 -72 0
-70 -71 -72 0
12 46 61 69 70 71 72 0
3 46 61 69 70 71 72 0
3 12 61 69 70 71 72 0
3 12 46 69 70 71 72 0
3 12 46 61 70 71 72 0
3 12 46 61 69 71 72 0
3 12 46 61 69 70 72 0
3 12 46 61 69 70 71 0
-7 -16 -33 0
-7 -16 -50 0
-7 -16 -73 0
-7 -16 -74 0
-7 -16 -75 0
-7 -16 -76 0
-7 -33 -50 0
-7 -33 -73 0
-7 -33 -74 0
-7 -33 -75 0
-7 -33 -76 0
-7 -50 -73 0
-7 -50 -74 0
-7 -50 -75 0
-7 -50 -76 0
-7 -73 -74 0
-7 -73 -75 0
-7 -73 -76 0
-7 -74 -75 0
-7 -74 -76 0
-7 -75 -76 0
-16 -33 -50 0
-16 -33 -73 0
-16 -33 -74 0
-16 -33 -75 0
-16 -33 -76 0
-16 -50 -73 0
-16 -50 -74 0
-16 -50 -75 0
-16 -50 -76 0
-16 -73 -74 0
-16 -73 -75 0
-16 -73 -76 0
-16 -74 -75 0
-16 -74 -76 0
-16 -75 -76 0
-33 -50 -73 0
-33 -50 -74 0
-33 -50 -75 0
-33 -50 -76 0
-33 -73 -74 0
-33 -73 -75 0
-33 -73 -76 0
-33 -74 -75 0
-33 -74 -76 0
-33 -75 -76 0
-50 -73 -74 0
-50 -73 -75 0
-50 -73 -76 0
-50 -74 -75 0
-50 -74 -76 0
-50 -75 -76 0
-73 -74 -75 0
-73 -74 -76 0
-73 -75 -76 0
-74 -75 -76 0
16 33 50 73 74 75 76 0
7 33 50 73 74 75 76 0
7 16 50 73 74 75 76 0
7 16 33 73 74 75 76 0
7 16 33 50 74 75 76 0
7 16 33 50 73 75 76 0
7 16 33 50 73 74 76 0
7 16 33 50 73 74 75 0
-11 -20 -37 0
-11 -20 -54 0
-11 -20 -77 0
-11 -20 -78 0
-11 -20 -79 0
-11 -20 -80 0
-11 -37 -54 0
-11 -37 -77 0
-11 -37 -78 0
-11 -37 -79 0
-11 -37 -80 0
-11 -54 -77 0
-11 -54 -78 0
-11 -54 -79 0
-11 -54 -80 0
-11 -77 -78 0
-11 -77 -79 0
-11 -77 -80 0
-11 -78 -79 0
-11 -78 -80 0
-11 -79 -80 0
-20 -37 -54 0
-20 -37 -77 0
-20 -37 -78 0
-20 -37 -79 0
-20 -37 -80 0
-20 -54 -77 0
-20 -54 -78 0
-20 -54 -79 0
-20 -54 -80 0
-20 -77 -78 0
-20 -77 -79 0
-20 -77 -80 0
-20 -78 -79 0
-20 -78 -80 0
-20 -79 -80 0
-37 -54 -77 0
-37 -54 -78 0
-37 -54 -79 0
-37 -54 -80 0
-37 -77 -78 0
-37 -77 -79 0
-37 -77 -80 0
-37 -78 -79 0
-37 -78 -80 0
-37 -79 -80 0
-54 -77 -78 0
-54 -77 -79 0
-54 -77 -80 0
-54 -78 -79 0
-54 -78 -80 0
-54 -79 -80 0
-77 -78 -79 0
-77 -78 -80 0
-77 -79 -80 0
-78 -79 -80 0
20 37 54 77 78 79 80 0
11 37 54 77 78 79 80 0
11 20 54 77 78 79 80 0
11 20 37 77 78 79 80 0
11 20 37 54 78 79 80 0
11 20 37 54 77 79 80 0
11 20 37 54 77 78 80 0
11 20 37 54 77 78 79 0
-15 -24 -41 0
-15 -24 -58 0
-15 -24 -81 0
-15 -24 -82 0
-15 -24 -83 0
-15 -24 -84 0
-15 -41 -58 0
-15 -41 -81 0
-15 -41 -82 0
-15 -41 -83 0
-15 -41 -84 0
-15 -58 -81 0
-15 -58 -82 0
-15 -58 -83 0
-15 -58 -84 0
-15 -81 -82 0
-15 -81 -83 0
-15 -81 -84 0
-15 -82 -83 0
-15 -82 -84 0
-15 -83 -84 0
-24 -41 -58 0
-24 -41 -81 0
-24 -41 -82 0
-24 -41 -83 0
-24 -41 -84 0
-24 -58 -81 0
-24 -58 -82 0
-24 -58 -83 0
-24 -58 -84 0
-24 -81 -82 0
-24 -81 -83 0
-24 -81 -84 0
-24 -82 -83 0
-24 -82 -84 0
-24 -83 -84 0
-41 -58 -81 0
-41 -58 -82 0
-41 -58 -83 0
-41 -58 -84 0
-41 -81 -82 0
-41 -81 -83 0
-41 -81 -84 0
-41 -82 -83 0
-41 -82 -84 0
-41 -83 -84 0
-58 -81 -82 0
-58 -81 -83 0
-58 -81 -84 0
-58 -82 -83 0
-58 -82 -84 0
-58 -83 -84 0
-81 -82 -83 0
-81 -82 -84 0
-81 -83 -84 0
-82 -83 -84 0
24 41 58 81 82 83 84 0
15 41 58 81 82 83 84 0
15 24 58 81 82 83 84 0
15 24 41 81 82 83 84 0
15 24 41 58 82 83 84 0
15 24 41 58 81 83 84 0
15 24 41 58 81 82 84 0
15 24 41 58 81 82 83 0
-19 -28 -45 0
-19 -28 -62 0
-19 -28 -85 0
-19 -28 -86 0
-19 -28 -87 0
-19 -28 -88 0
-19 -45 -62 0
-19 -45 -85 0
-19 -45 -86 0
-19 -45 -87 0
-19 -45 -88 0
-19 -62 -85 0
-19 -62 -86 0
-19 -62 -87 0
-19 -62 -88 0
-19 -85 -86 0
-19 -85 -87 0
-19 -85 -88 0
-19 -86 -87 0
-19 -86 -88 0
-19 -87 -88 0
-28 -45 -62 0
-28 -45 -85 0
-28 -45 -86 0
-28 -45 -87 0
-28 -45 -88 0
-28 -62 -85 0
-28 -62 -86 0
-28 -62 -87 0
-28 -62 -88 0
-28 -85 -86 0
-28 -85 -87 0
-28 -85 -88 0
-28 -86 -87 0
-28 -86 -88 0
-28 -87 -88 0
-45 -62 -85 0
-45 -62 -86 0
-45 -62 -87 0
-45 -62 -88 0
-45 -85 -86 0
-45 -85 -87 0
-45 -85 -88 0
-45 -86 -87 0
-45 -86 -88 0
-45 -87 -88 0
-62 -85 -86 0
-62 -85 -87 0
-62 -85 -88 0
-62 -86 -87 0
-62 -86 -88 0
-62 -87 -88 0
-85 -86 -87 0
-85 -86 -88 0
-85 -87 -88 0
-86 -87 -88 0
28 45 62 85 86 87 88 0
19 45 62 85 86 87 88 0
19 28 62 85 86 87 88 0
19 28 45 85 86 87 88 0
19 28 45 62 86 87 88 0
19 28 45 62 85 87 88 0
19 28 45 62 85 86 88 0
19 28 45 62 85 86 87 0
-23 -32 -34 0
-23 -32 -49 0
-23 -32 -89 0
-23 -32 -90 0
-23 -32 -91 0
-23 -32 -92 0
-23 -34 -49 0
-23 -34 -89 0
-23 -34 -90 0
-23 -34 -91 0
-23 -34 -92 0
-23 -49 -89 0
-23 -49 -90 0
-23 -49 -91 0
-23 -49 -92 0
-23 -89 -90 0
-23 -89 -91 0
-23 -89 -92 0
-23 -90 -91 0
-23 -90 -92 0
-23 -91 -92 0
-32 -34 -49 0
-32 -34 -89 0
-32 -34 -90 0
-32 -34 -91 0
-32 -34 -92 0
-32 -49 -89 0
-32 -49 -90 0
-32 -49 -91 0
-32 -49 -92 0
-32 -89 -90 0
-32 -89 -91 0
-32 -89 -92 0
-32 -90 -91 0
-32 -90 -92 0
-32 -91 -92 0
-34 -49 -89 0
-34 -49 -90 0
-34 -49 -91 0
-34 -49 -92 0
-34 -89 -90 0
-34 -89 -91 0
-34 -89 -92 0
-34 -90 -91 0
-34 -90 -92 0
-34 -91 -92 0
-49 -89 -90 0
-49 -89 -91 0
-49 -89 -92 0
-49 -90 -91 0
-49 -90 -92 0
-49 -91 -92 0
-89 -90 -91 0
-89 -90 -92 0
-89 -91 -92 0
-90 -91 -92 0
32 34 49 89 90 91 92 0
23 34 49 89 90 91 92 0
23 32 49 89 90 91 92 0
23 32 34 89 90 91 92 0
23 32 34 49 90 91 92 0
23 32 34 49 89 91 92 0
23 32 34 49 89 90 92 0
23 32 34 49 89 90 91 0
-4 -27 -38 0
-4 -27 -53 0
-4 -27 -93 0
-4 -27 -94 0
-4 -27 -95 0
-4 -27 -96 0
-4 -38 -53 0
-4 -38 -93 0
-4 -38 -94 0
-4 -38 -95 0
-4 -38 -96 0
-4 -53 -93 0
-4 -53 -94 0
-4 -53 -95 0
-4 -53 -96 0
-4 -93 -94 0
-4 -93 -95 0
-4 -93 -96 0
-4 -94 -95 0
-4 -94 -96 0
-4 -95 -96 0
-27 -38 -53 0
-27 -38 -93 0
-27 -38 -94 0
-27 -38 -95 0
-27 -38 -96 0
-27 -53 -93 0
-27 -53 -94 0
-27 -53 -95 0
-27 -53 -96 0
-27 -93 -94 0
-27 -93 -95 0
-27 -93 -96 0
-27 -94 -95 0
-27 -94 -96 0
-27 -95 -96 0
-38 -53 -93 0
-38 -53 -94 0
-38 -53 -95 0
-38 -53 -96 0
-38 -93 -94 0
-38 -93 -95 0
-38 -93 -96 0
-38 -94 -95 0
-38 -94 -96 0
-38 -95 -96 0
-53 -93 -94 0
-53 -93 -95 0
-53 -93 -96 0
-53 -94 -95 0
-53 -94 -96 0
-53 -95 -96 0
-93 -94 -95 0
-93 -94 -96 0
-93 -95 -96 0
-94 -95 -96 0
27 38 53 93 94 95 96 0
4 38 53 93 94 95 96 0
4 27 53 93 94 95 96 0
4 27 38 93 94 95 96 0
4 27 38 53 94 95 96 0
4 27 38 53 93 95 96 0
4 27 38 53 93 94 96 0
4 27 38 53 93 94 95 0
-40 -63 -74 0
-40 -63 -89 0
-40 -63 -97 0
-40 -63 -98 0
-40 -63 -99 0
-40 -63 -100 0
-40 -74 -89 0
-40 -74 -97 0
-40 -74 -98 0
-40 -74 -99 0
-40 -74 -100 0
-40 -89 -97 0
-40 -89 -98 0
-40 -89 -99 0
-40 -89 -100 0
-40 -97 -98 0
-40 -97 -99 0
-40 -97 -100 0
-40 -98 -99 0
-40 -98 -100 0
-40 -99 -100 0
-63 -74 -89 0
-63 -74 -97 0
-63 -74 -98 0
-63 -74 -99 0
-63 -74 -100 0
-63 -89 -97 0
-63 -89 -98 0
-63 -89 -99 0
-63 -89 -100 0
-63 -97 -98 0
-63 -97 -99 0
-63 -97 -100 0
-63 -98 -99 0
-63 -98 -100 0
-63 -99 -100 0
-74 -89 -97 0
-74 -89 -98 0
-74 -89 -99 0
-74 -89 -100 0
-74 -97 -98 0
-74 -97 -99 0
-74 -97 -100 0
-74 -98 -99 0
-74 -98 -100 0
-74 -99 -100 0
-89 -97 -98 0
-89 -97 -99 0
-89 -97 -100 0
-89 -98 -99 0
-89 -98 -100 0
-89 -99 -100 0
-97 -98 -99 0
-97 -98 -100 0
-97 -99 -100 0
-98 -99 -100 0
63 74 89 97 98 99 100 0
40 74 89 97 98 99 100 0
40 63 89 97 98 99 100 0
40 63 74 97 98 99 100 0
40 63 74 89 98 99 100 0
40 63 74 89 97 99 100 0
40 63 74 89 97 98 100 0
40 63 74 89 97 98 99 0
-35 -44 -78 0
-35 -44 -93 0
-35 -44 -101 0
-35 -44 -102 0
-35 -44 -103 0
-35 -44 -104 0
-35 -78 -93 0
-35 -78 -101 0
-35 -78 -102 0
-35 -78 -103 0
-35 -78 -104 0
-35 -93 -101 0
-35 -93 -102 0
-35 -93 -103 0
-35 -93 -104 0
-35 -101 -102 0
-35 -101 -103 0
-35 -101 -104 0
-35 -102 -103 0
-35 -102 -104 0
-35 -103 -104 0
-44 -78 -93 0
-44 -78 -101 0
-44 -78 -102 0
-44 -78 -103 0
-44 -78 -104 0
-44 -93 -101 0
-44 -93 -102 0
-44 -93 -103 0
-44 -93 -104 0
-44 -101 -102 0
-44 -101 -103 0
-44 -101 -104 0
-44 -102 -103 0
-44 -102 -104 0
-44 -103 -104 0
-78 -93 -101 0
-78 -93 -102 0
-78 -93 -103 0
-78 -93 -104 0
-78 -101 -102 0
-78 -101 -103 0
-78 -101 -104 0
-78 -102 -103 0
-78 -102 -104 0
-78 -103 -104 0
-93 -101 -102 0
-93 -101 -103 0
-93 -101 -104 0
-93 -102 -103 0
-93 -102 -104 0
-93 -103 -104 0
-101 -102 -103 0
-101 -102 -104 0
-101 -103 -104 0
-102 -103 -104 0
44 78 93 101 102 103 104 0
35 78 93 101 102 103 104 0
35 44 93 101 102 103 104 0
35 44 78 101 102 103 104 0
35 44 78 93 102 103 104 0
35 44 78 93 101 103 104 0
35 44 78 93 101 102 104 0
35 44 78 93 101 102 103 0
-39 -48 -65 0
-39 -48 -82 0
-39 -48 -105 0
-39 -48 -106 0
-39 -48 -107 0
-39 -48 -108 0
-39 -65 -82 0
-39 -65 -105 0
-39 -65 -106 0
-39 -65 -107 0
-39 -65 -108 0
-39 -82 -105 0
-39 -82 -106 0
-39 -82 -107 0
-39 -82 -108 0
-39 -105 -106 0
-39 -105 -107 0
-39 -105 -108 0
-39 -106 -107 0
-39 -106 -108 0
-39 -107 -108 0
-48 -65 -82 0
-48 -65 -105 0
-48 -65 -106 0
-48 -65 -107 0
-48 -65 -108 0
-48 -82 -105 0
-48 -82 -106 0
-48 -82 -107 0
-48 -82 -108 0
-48 -105 -106 0
-48 -105 -107 0
-48 -105 -108 0
-48 -106 -107 0
-48 -106 -108 0
-48 -107 -108 0
-65 -82 -105 0
-65 -82 -106 0
-65 -82 -107 0
-65 -82 -108 0
-65 -105 -106 0
-65 -105 -107 0
-65 -105 -108 0
-65 -106 -107 0
-65 -106 -108 0
-65 -107 -108 0
-82 -105 -106 0
-82 -105 -107 0
-82 -105 -108 0
-82 -106 -107 0
-82 -106 -108 0
-82 -107 -108 0
-105 -106 -107 0
-105 -106 -108 0
-105 -107 -108 0
-106 -107 -108 0
48 65 82 105 106 107 108 0
39 65 82 105 106 107 108 0
39 48 82 105 106 107 108 0
39 48 65 105 106 107 108 0
39 48 65 82 106 107 108 0
39 48 65 82 105 107 108 0
39 48 65 82 105 106 108 0
39 48 65 82 105 106 107 0
-43 -52 -69 0
-43 -52 -86 0
-43 -52 -109 0
-43 -52 -110 0
-43 -52 -111 0
-43 -52 -112 0
-43 -69 -86 0
-43 -69 -109 0
-43 -69 -110 0
-43 -69 -111 0
-43 -69 -112 0
-43 -86 -109 0
-43 -86 -110 0
-43 -86 -111 0
-43 -86 -112 0
-43 -109 -110 0
-43 -109 -111 0
-43 -109 -112 0
-43 -110 -111 0
-43 -110 -112 0
-43 -111 -112 0
-52 -69 -86 0
-52 -69 -109 0
-52 -69 -110 0
-52 -69 -111 0
-52 -69 -112 0
-52 -86 -109 0
-52 -86 -110 0
-52 -86 -111 0
-52 -86 -112 0
-52 -109 -110 0
-52 -109 -111 0
-52 -109 -112 0
-52 -110 -111 0
-52 -110 -112 0
-52 -111 -112 0
-69 -86 -109 0
-69 -86 -110 0
-69 -86 -111 0
-69 -86 -112 0
-69 -109 -110 0
-69 -109 -111 0
-69 -109 -112 0
-69 -110 -111 0
-69 -110 -112 0
-69 -111 -112 0
-86 -109 -110 0
-86 -109 -111 0
-86 -109 -112 0
-86 -110 -111 0
-86 -110 -112 0
-86 -111 -112 0
-109 -110 -111 0
-109 -110 -112 0
-109 -111 -112 0
-110 -111 -112 0
52 69 86 109 110 111 112 0
43 69 86 109 110 111 112 0
43 52 86 109 110 111 112 0
43 52 69 109 110 111 112 0
43 52 69 86 110 111 112 0
43 52 69 86 109 111 112 0
43 52 69 86 109 110 112 0
43 52 69 86 109 110 111 0
-47 -56 -73 0
-47 -56 -90 0
-47 -56 -113 0
-47 -56 -114 0
-47 -56 -115 0
-47 -56 -116 0
-47 -73 -90 0
-47 -73 -113 0
-47 -73 -114 0
-47 -73 -115 0
-47 -73 -116 0
-47 -90 -113 0
-47 -90 -114 0
-47 -90 -115 0
-47 -90 -116 0
-47 -113 -114 0
-47 -113 -115 0
-47 -113 -116 0
-47 -114 -115 0
-47 -114 -116 0
-47 -115 -116 0
-56 -73 -90 0
-56 -73 -113 0
-56 -73 -114 0
-56 -73 -115 0
-56 -73 -116 0
-56 -90 -113 0
-56 -90 -114 0
-56 -90 -115 0
-56 -90 -116 0
-56 -113 -114 0
-56 -113 -115 0
-56 -113 -116 0
-56 -114 -115 0
-56 -114 -116 0
-56 -115 -116 0
-73 -90 -113 0
-73 -90 -114 0
-73 -90 -115 0
-73 -90 -116 0
-73 -113 -114 0
-73 -113 -115 0
-73 -113 -116 0
-73 -114 -115 0
-73 -114 -116 0
-73 -115 -116 0
-90 -113 -114 0
-90 -113 -115 0
-90 -113 -116 0
-90 -114 -115 0
-90 -114 -116 0
-90 -115 -116 0
-113 -114 -115 0
-113 -114 -116 0
-113 -115 -116 0
-114 -115 -116 0
56 73 90 113 114 115 116 0
47 73 90 113 114 115 116 0
47 56 90 113 114 115 116 0
47 56 73 113 114 115 116 0
47 56 73 90 114 115 116 0
47 56 73 90 113 115 116 0
47 56 73 90 113 114 116 0
47 56 73 90 113 114 115 0
-51 -60 -77 0
-51 -60 -94 0
-51 -60 -117 0
-51 -60 -118 0
-51 -60 -119 0
-51 -60 -120 0
-51 -77 -94 0
-51 -77 -117 0
-51 -77 -118 0
-51 -77 -119 0
-51 -77 -120 0
-51 -94 -117 0
-51 -94 -118 0
-51 -94 -119 0
-51 -94 -120 0
-51 -117 -118 0
-51 -117 -119 0
-51 -117 -120 0
-51 -118 -119 0
-51 -118 -120 0
-51 -119 -120 0
-60 -77 -94 0
-60 -77 -117 0
-60 -77 -118 0
-60 -77 -119 0
-60 -77 -120 0
-60 -94 -117 0
-60 -94 -118 0
-60 -94 -119 0
-60 -94 -120 0
-60 -117 -118 0
-60 -117 -119 0
-60 -117 -120 0
-60 -118 -119 0
-60 -118 -120 0
-60 -119 -120 0
-77 -94 -117 0
-77 -94 -118 0
-77 -94 -119 0
-77 -94 -120 0
-77 -117 -118 0
-77 -117 -119 0
-77 -117 -120 0
-77 -118 -119 0
-77 -118 -120 0
-77 -119 -120 0
-94 -117 -118 0
-94 -117 -119 0
-94 -117 -120 0
-94 -118 -119 0
-94 -118 -120 0
-94 -119 -120 0
-117 -118 -119 0
-117 -118 -120 0
-117 -119 -120 0
-118 -119 -120 0
60 77 94 117 118 119 120 0
51 77 94 117 118 119 120 0
51 60 94 117 118 119 120 0
51 60 77 117 118 119 120 0
51 60 77 94 118 119 120 0
51 60 77 94 117 119 120 0
51 60 77 94 117 118 120 0
51 60 77 94 117 118 119 0
-55 -64 -66 0
-55 -64 -81 0
-55 -64 -121 0
-55 -64 -122 0
-55 -64 -123 0
-55 -64 -124 0
-55 -66 -81 0
-55 -66 -121 0
-55 -66 -122 0
-55 -66 -123 0
-55 -66 -124 0
-55 -81 -121 0
-55 -81 -122 0
-55 -81 -123 0
-55 -81 -124 0
-55 -121 -122 0
-55 -121 -123 0
-55 -121 -124 0
-55 -122 -123 0
-55 -122 -124 0
-55 -123 -124 0
-64 -66 -81 0
-64 -66 -121 0
-64 -66 -122 0
-64 -66 -123 0
-64 -66 -124 0
-64 -81 -121 0
-64 -81 -122 0
-64 -81 -123 0
-64 -81 -124 0
-64 -121 -122 0
-64 -121 -123 0
-64 -121 -124 0
-64 -122 -123 0
-64 -122 -124 0
-64 -123 -124 0
-66 -81 -121 0
-66 -81 -122 0
-66 -81 -123 0
-66 -81 -124 0
-66 -121 -122 0
-66 -121 -123 0
-66 -121 -124 0
-66 -122 -123 0
-66 -122 -124 0
-66 -123 -124 0
-81 -121 -122 0
-81 -121 -123 0
-81 -121 -124 0
-81 -122 -123 0
-81 -122 -124 0
-81 -123 -124 0
-121 -122 -123 0
-121 -122 -124 0
-121 -123 -124 0
-122 -123 -124 0
64 66 81 121 122 123 124 0
55 66 81 121 122 123 124 0
55 64 81 121 122 123 124 0
55 64 66 121 122 123 124 0
55 64 66 81 122 123 124 0
55 64 66 81 121 123 124 0
55 64 66 81 121 122 124 0
55 64 66 81 121 122 123 0
-36 -59 -70 0
-36 -59 -85 0
-36 -59 -125 0
-36 -59 -126 0
-36 -59 -127 0
-36 -59 -128 0
-36 -70 -85 0
-36 -70 -125 0
-36 -70 -126 0
-36 -70 -127 0
-36 -70 -128 0
-36 -85 -125 0
-36 -85 -126 0
-36 -85 -127 0
-36 -85 -128 0
-36 -125 -126 0
-36 -125 -127 0
-36 -125 -128 0
-36 -126 -127 0
-36 -126 -128 0
-36 -127 -128 0
-59 -70 -85 0
-59 -70 -125 0
-59 -70 -126 0
-59 -70 -127 0
-59 -70 -128 0
-59 -85 -125 0
-59 -85 -126 0
-59 -85 -127 0
-59 -85 -128 0
-59 -125 -126 0
-59 -125 -127 0
-59 -125 -128 0
-59 -126 -127 0
-59 -126 -128 0
-59 -127 -128 0
-70 -85 -125 0
-70 -85 -126 0
-70 -85 -127 0
-70 -85 -128 0
-70 -125 -126 0
-70 -125 -127 0
-70 -125 -128 0
-70 -126 -127 0
-70 -126 -128 0
-70 -127 -128 0
-85 -125 -126 0
-85 -125 -127 0
-85 -125 -128 0
-85 -126 -127 0
-85 -126 -128 0
-85 -127 -128 0
-125 -126 -127 0
-125 -126 -128 0
-125 -127 -128 0
-126 -127 -128 0
59 70 85 125 126 127 128 0
36 70 85 125 126 127 128 0
36 59 85 125 126 127 128 0
36 59 70 125 126 127 128 0
36 59 70 85 126 127 128 0
36 59 70 85 125 127 128 0
36 59 70 85 125 126 128 0
36 59 70 85 125 126 127 0
-72 -95 -106 0
-72 -95 -121 0
-72 -95 -129 0
-72 -95 -130 0
-72 -95 -131 0
-72 -95 -132 0
-72 -106 -121 0
-72 -106 -129 0
-72 -106 -130 0
-72 -106 -131 0
-72 -106 -132 0
-72 -121 -129 0
-72 -121 -130 0
-72 -121 -131 0
-72 -121 -132 0
-72 -129 -130 0
-72 -129 -131 0
-72 -129 -132 0
-72 -130 -131 0
-72 -130 -132 0
-72 -131 -132 0
-95 -106 -121 0
-95 -106 -129 0
-95 -106 -130 0
-95 -106 -131 0
-95 -106 -132 0
-95 -121 -129 0
-95 -121 -130 0
-95 -121 -131 0
-95 -121 -132 0
-95 -129 -130 0
-95 -129 -131 0
-95 -129 -132 0
-95 -130 -131 0
-95 -130 -132 0
-95 -131 -132 0
-106 -121 -129 0
-106 -121 -130 0
-106 -121 -131 0
-106 -121 -132 0
-106 -129 -130 0
-106 -129 -131 0
-106 -129 -132 0
-106 -130 -131 0
-106 -130 -132 0
-106 -131 -132 0
-121 -129 -130 0
-121 -129 -131 0
-121 -129 -132 0
-121 -130 -131 0
-121 -130 -132 0
-121 -131 -132 0
-129 -130 -131 0
-129 -130 -132 0
-129 -131 -132 0
-130 -131 -132 0
95 106 121 129 130 131 132 0
72 106 121 129 130 131 132 0
72 95 121 129 130 131 132 0
72 95 106 129 130 131 132 0
72 95 106 121 130 131 132 0
72 95 106 121 129 131 132 0
72 95 106 121 129 130 132 0
72 95 106 121 129 130 131 0
-67 -76 -110 0
-67 -76 -125 0
-67 -76 -133 0
-67 -76 -134 0
-67 -76 -135 0
-67 -76 -136 0
-67 -110 -125 0
-67 -110 -133 0
-67 -110 -134 0
-67 -110 -135 0
-67 -110 -136 0
-67 -125 -133 0
-67 -125 -134 0
-67 -125 -135 0
-67 -125 -136 0
-67 -133 -134 0
-67 -133 -135 0
-67 -133 -136 0
-67 -134 -135 0
-67 -134 -136 0
-67 -135 -136 0
-76 -110 -125 0
-76 -110 -133 0
-76 -110 -134 0
-76 -110 -135 0
-76 -110 -136 0
-76 -125 -133 0
-76 -125 -134 0
-76 -125 -135 0
-76 -125 -136 0
-76 -133 -134 0
-76 -133 -135 0
-76 -133 -136 0
-76 -134 -135 0
-76 -134 -136 0
-76 -135 -136 0
-110 -125 -133 0
-110 -125 -134 0
-110 -125 -135 0
-110 -125 -136 0
-110 -133 -134 0
-110 -133 -135 0
-110 -133 -136 0
-110 -134 -135 0
-110 -134 -136 0
-110 -135 -136 0
-125 -133 -134 0
-125 -133 -135 0
-125 -133 -136 0
-125 -134 -135 0
-125 -134 -136 0
-125 -135 -136 0
-133 -134 -135 0
-133 -134 -136 0
-133 -135 -136 0
-134 -135 -136 0
76 110 125 133 134 135 136 0
67 110 125 133 134 135 136 0
67 76 125 133 134 135 136 0
67 76 110 133 134 135 136 0
67 76 110 125 134 135 136 0
67 76 110 125 133 135 136 0
67 76 110 125 133 134 136 0
67 76 110 125 133 134 135 0
-71 -80 -97 0
-71 -80 -114 0
-71 -80 -137 0
-71 -80 -138 0
-71 -80 -139 0
-71 -80 -140 0
-71 -97 -114 0
-71 -97 -137 0
-71 -97 -138 0
-71 -97 -139 0
-71 -97 -140 0
-71 -114 -137 0
-71 -114 -138 0
-71 -114 -139 0
-71 -114 -140 0
-71 -137 -138 0
-71 -137 -139 0
-71 -137 -140 0
-71 -138 -139 0
-71 -138 -140 0
-71 -139 -140 0
-80 -97 -114 0
-80 -97 -137 0
-80 -97 -138 0
-80 -97 -139 0
-80 -97 -140 0
-80 -114 -137 0
-80 -114 -138 0
-80 -114 -139 0
-80 -114 -140 0
-80 -137 -138 0
-80 -137 -139 0
-80 -137 -140 0
-80 -138 -139 0
-80 -138 -140 0
-80 -139 -140 0
-97 -114 -137 0
-97 -114 -138 0
-97 -114 -139 0
-97 -114 -140 0
-97 -137 -138 0
-97 -137 -139 0
-97 -137 -140 0
-97 -138 -139 0
-97 -138 -140 0
-97 -139 -140 0
-114 -137 -138 0
-114 -137 -139 0
-114 -137 -140 0
-114 -138 -139 0
-114 -138 -140 0
-114 -139 -140 0
-137 -138 -139 0
-137 -138 -140 0
-137 -139 -140 0
-138 -139 -140 0
80 97 114 137 138 139 140 0
71 97 114 137 138 139 140 0
71 80 114 137 138 139 140 0
71 80 97 137 138 139 140 0
71 80 97 114 138 139 140 0
71 80 97 114 137 139 140 0
71 80 97 114 137 138 140 0
71 80 97 114 137 138 139 0
-75 -84 -101 0
-75 -84 -118 0
-75 -84 -141 0
-75 -84 -142 0
-75 -84 -143 0
-75 -84 -144 0
-75 -101 -118 0
-75 -101 -141 0
-75 -101 -142 0
-75 -101 -143 0
-75 -101 -144 0
-75 -118 -141 0
-75 -118 -142 0
-75 -118 -143 0
-75 -118 -144 0
-75 -141 -142 0
-75 -141 -143 0
-75 -141 -144 0
-75 -142 -143 0
-75 -142 -144 0
-75 -143 -144 0
-84 -101 -118 0
-84 -101 -141 0
-84 -101 -142 0
-84 -101 -143 0
-84 -101 -144 0
-84 -118 -141 0
-84 -118 -142 0
-84 -118 -143 0
-84 -118 -144 0
-84 -141 -142 0
-84 -141 -143 0
-84 -141 -144 0
-84 -142 -143 0
-84 -142 -144 0
-84 -143 -144 0
-101 -118 -141 0
-101 -118 -142 0
-101 -118 -143 0
-101 -118 -144 0
-101 -141 -142 0
-101 -141 -143 0
-101 -141 -144 0
-101 -142 -143 0
-101 -142 -144 0
-101 -143 -144 0
-118 -141 -142 0
-118 -141 -143 0
-118 -141 -144 0
-118 -142 -143 0
-118 -142 -144 0
-118 -143 -144 0
-141 -142 -143 0
-141 -142 -144 0
-141 -143 -144 0
-142 -143 -144 0
84 101 118 141 142 143 144 0
75 101 118 141 142 143 144 0
75 84 118 141 142 143 144 0
75 84 101 141 142 143 144 0
75 84 101 118 142 143 144 0
75 84 101 118 141 143 144 0
75 84 101 118 141 142 144 0
75 84 101 118 141 142 143 0
-79 -88 -105 0
-79 -88 -122 0
-79 -88 -145 0
-79 -88 -146 0
-79 -88 -147 0
-79 -88 -148 0
-79 -105 -122 0
-79 -105 -145 0
-79 -105 -146 0
-79 -105 -147 0
-79 -105 -148 0
-79 -122 -145 0
-79 -122 -146 0
-79 -122 -147 0
-79 -122 -148 0
-79 -145 -146 0
-79 -145 -147 0
-79 -145 -148 0
-79 -146 -147 0
-79 -146 -148 0
-79 -147 -148 0
-88 -105 -122 0
-88 -105 -145 0
-88 -105 -146 0
-88 -105 -147 0
-88 -105 -148 0
-88 -122 -145 0
-88 -122 -146 0
-88 -122 -147 0
-88 -122 -148 0
-88 -145 -146 0
-88 -145 -147 0
-88 -145 -148 0
-88 -146 -147 0
-88 -146 -148 0
-88 -147 -148 0
-105 -122 -145 0
-105 -122 -146 0
-105 -122 -147 0
-105 -122 -148 0
-105 -145 -146 0
-105 -145 -147 0
-105 -145 -148 0
-105 -146 -147 0
-105 -146 -148 0
-105 -147 -148 0
-122 -145 -146 0
-122 -145 -147 0
-122 -145 -148 0
-122 -146 -147 0
-122 -146 -148 0
-122 -147 -148 0
-145 -146 -147 0
-145 -146 -148 0
-145 -147 -148 0
-146 -147 -148 0
88 105 122 145 146 147 148 0
79 105 122 145 146 147 148 0
79 88 122 145 146 147 148 0
79 88 105 145 146 147 148 0
79 88 105 122 146 147 148 0
79 88 105 122 145 147 148 0
79 88 105 122 145 146 148 0
79 88 105 122 145 146 147 0
-83 -92 -109 0
-83 -92 -126 0
-83 -92 -149 0
-83 -92 -150 0
-83 -92 -151 0
-83 -92 -152 0
-83 -109 -126 0
-83 -109 -149 0
-83 -109 -150 0
-83 -109 -151 0
-83 -109 -152 0
-83 -126 -149 0
-83 -126 -150 0
-83 -126 -151 0
-83 -126 -152 0
-83 -149 -150 0
-83 -149 -151 0
-83 -149 -152 0
-83 -150 -151 0
-83 -150 -152 0
-83 -151 -152 0
-92 -109 -126 0
-92 -109 -149 0
-92 -109 -150 0
-92 -109 -151 0
-92 -109 -152 0
-92 -126 -149 0
-92 -126 -150 0
-92 -126 -151 0
-92 -126 -152 0
-92 -149 -150 0
-92 -149 -151 0
-92 -149 -152 0
-92 -150 -151 0
-92 -150 -152 0
-92 -151 -152 0
-109 -126 -149 0
-109 -126 -150 0
-109 -126 -151 0
-109 -126 -152 0
-109 -149 -150 0
-109 -149 -151 0
-109 -149 -152 0
-109 -150 -151 0
-109 -150 -152 0
-109 -151 -152 0
-126 -149 -150 0
-126 -149 -151 0
-126 -149 -152 0
-126 -150 -151 0
-126 -150 -152 0
-126 -151 -152 0
-149 -150 -151 0
-149 -150 -152 0
-149 -151 -152 0
-150 -151 -152 0
92 109 126 149 150 151 152 0
83 109 126 149 150 151 152 0
83 92 126 149 150 151 152 0
83 92 109 149 150 151 152 0
83 92 109 126 150 151 152 0
83 92 109 126 149 151 152 0
83 92 109 126 149 150 152 0
83 92 109 126 149 150 151 0
-87 -96 -98 0
-87 -96 -113 0
-87 -96 -153 0
-87 -96 -154 0
-87 -96 -155 0
-87 -96 -156 0
-87 -98 -113 0
-87 -98 -153 0
-87 -98 -154 0
-87 -98 -155 0
-87 -98 -156 0
-87 -113 -153 0
-87 -113 -154 0
-87 -113 -155 0
-87 -113 -156 0
-87 -153 -154 0
-87 -153 -155 0
-87 -153 -156 0
-87 -154 -155 0
-87 -154 -156 0
-87 -155 -156 0
-96 -98 -113 0
-96 -98 -153 0
-96 -98 -154 0
-96 -98 -155 0
-96 -98 -156 0
-96 -113 -153 0
-96 -113 -154 0
-96 -113 -155 0
-96 -113 -156 0
-96 -153 -154 0
-96 -153 -155 0
-96 -153 -156 0
-96 -154 -155 0
-96 -154 -156 0
-96 -155 -156 0
-98 -113 -153 0
-98 -113 -154 0
-98 -113 -155 0
-98 -113 -156 0
-98 -153 -154 0
-98 -153 -155 0
-98 -153 -156 0
-98 -154 -155 0
-98 -154 -156 0
-98 -155 -156 0
-113 -153 -154 0
-113 -153 -155 0
-113 -153 -156 0
-113 -154 -155 0
-113 -154 -156 0
-113 -155 -156 0
-153 -154 -155 0
-153 -154 -156 0
-153 -155 -156 0
-154 -155 -156 0
96 98 113 153 154 155 156 0
87 98 113 153 154 155 156 0
87 96 113 153 154 155 156 0
87 96 98 153 154 155 156 0
87 96 98 113 154 155 156 0
87 96 98 113 153 155 156 0
87 96 98 113 153 154 156 0
87 96 98 113 153 154 155 0
-68 -91 -102 0
-68 -91 -117 0
-68 -91 -157 0
-68 -91 -158 0
-68 -91 -159 0
-68 -91 -160 0
-68 -102 -117 0
-68 -102 -157 0
-68 -102 -158 0
-68 -102 -159 0
-68 -102 -160 0
-68 -117 -157 0
-68 -117 -158 0
-68 -117 -159 0
-68 -117 -160 0
-68 -157 -158 0
-68 -157 -159 0
-68 -157 -160 0
-68 -158 -159 0
-68 -158 -160 0
-68 -159 -160 0
-91 -102 -117 0
-91 -102 -157 0
-91 -102 -158 0
-91 -102 -159 0
-91 -102 -160 0
-91 -117 -157 0
-91 -117 -158 0
-91 -117 -159 0
-91 -117 -160 0
-91 -157 -158 0
-91 -157 -159 0
-91 -157 -160 0
-91 -158 -159 0
-91 -158 -160 0
-91 -159 -160 0
-102 -117 -157 0
-102 -117 -158 0
-102 -117 -159 0
-102 -117 -160 0
-102 -157 -158 0
-102 -157 -159 0
-102 -157 -160 0
-102 -158 -159 0
-102 -158 -160 0
-102 -159 -160 0
-117 -157 -158 0
-117 -157 -159 0
-117 -157 -160 0
-117 -158 -159 0
-117 -158 -160 0
-117 -159 -160 0
-157 -158 -159 0
-157 -158 -160 0
-157 -159 -160 0
-158 -159 -160 0
91 102 117 157 158 159 160 0
68 102 117 157 158 159 160 0
68 91 117 157 158 159 160 0
68 91 102 157 158 159 160 0
68 91 102 117 158 159 160 0
68 91 102 117 157 159 160 0
68 91 102 117 157 158 160 0
68 91 102 117 157 158 159 0
-104 -127 -138 0
-104 -127 -153 0
-104 -127 -161 0
-104 -127 -162 0
-104 -127 -163 0
-104 -127 -164 0
-104 -138 -153 0
-104 -138 -161 0
-104 -138 -162 0
-104 -138 -163 0
-104 -138 -164 0
-104 -153 -161 0
-104 -153 -162 0
-104 -153 -163 0
-104 -153 -164 0
-104 -161 -162 0
-104 -161 -163 0
-104 -161 -164 0
-104 -162 -163 0
-104 -162 -164 0
-104 -163 -164 0
-127 -138 -153 0
-127 -138 -161 0
-127 -138 -162 0
-127 -138 -163 0
-127 -138 -164 0
-127 -153 -161 0
-127 -153 -162 0
-127 -153 -163 0
-127 -153 -164 0
-127 -161 -162 0
-127 -161 -163 0
-127 -161 -164 0
-127 -162 -163 0
-127 -162 -164 0
-127 -163 -164 0
-138 -153 -161 0
-138 -153 -162 0
-138 -153 -163 0
-138 -153 -164 0
-138 -161 -162 0
-138 -161 -163 0
-138 -161 -164 0
-138 -162 -163 0
-138 -162 -164 0
-138 -163 -164 0
-153 -161 -162 0
-153 -161 -163 0
-153 -161 -164 0
-153 -162 -163 0
-153 -162 -164 0
-153 -163 -164 0
-161 -162 -163 0
-161 -162 -164 0
-161 -163 -164 0
-162 -163 -164 0
127 138 153 161 162 163 164 0
104 138 153 161 162 163 164 0
104 127 153 161 162 163 164 0
104 127 138 161 162 163 164 0
104 127 138 153 162 163 164 0
104 127 138 153 161 163 164 0
104 127 138 153 161 162 164 0
104 127 138 153 161 162 163 0
-99 -108 -142 0
-99 -108 -157 0
-99 -108 -165 0
-99 -108 -166 0
-99 -108 -167 0
-99 -108 -168 0
-99 -142 -157 0
-99 -142 -165 0
-99 -142 -166 0
-99 -142 -167 0
-99 -142 -168 0
-99 -157 -165 0
-99 -157 -166 0
-99 -157 -167 0
-99 -157 -168 0
-99 -165 -166 0
-99 -165 -167 0
-99 -165 -168 0
-99 -166 -167 0
-99 -166 -168 0
-99 -167 -168 0
-108 -142 -157 0
-108 -142 -165 0
-108 -142 -166 0
-108 -142 -167 0
-108 -142 -168 0
-108 -157 -165 0
-108 -157 -166 0
-108 -157 -167 0
-108 -157 -168 0
-108 -165 -166 0
-108 -165 -167 0
-108 -165 -168 0
-108 -166 -167 0
-108 -166 -168 0
-108 -167 -168 0
-142 -157 -165 0
-142 -157 -166 0
-142 -157 -167 0
-142 -157 -168 0
-142 -165 -166 0
-142 -165 -167 0
-142 -165 -168 0
-142 -166 -167 0
-142 -166 -168 0
-142 -167 -168 0
-157 -165 -166 0
-157 -165 -167 0
-157 -165 -168 0
-157 -166 -167 0
-157 -166 -168 0
-157 -167 -168 0
-165 -166 -167 0
-165 -166 -168 0
-165 -167 -168 0
-166 -167 -168 0
108 142 157 165 166 167 168 0
99 142 157 165 166 167 168 0
99 108 157 165 166 167 168 0
99 108 142 165 166 167 168 0
99 108 142 157 166 167 168 0
99 108 142 157 165 167 168 0
99 108 142 157 165 166 168 0
99 108 142 157 165 166 167 0
-103 -112 -129 0
-103 -112 -146 0
-103 -112 -169 0
-103 -112 -170 0
-103 -112 -171 0
-103 -112 -172 0
-103 -129 -146 0
-103 -129 -169 0
-103 -129 -170 0
-103 -129 -171 0
-103 -129 -172 0
-103 -146 -169 0
-103 -146 -170 0
-103 -146 -171 0
-103 -146 -172 0
-103 -169 -170 0
-103 -169 -171 0
-103 -169 -172 0
-103 -170 -171 0
-103 -170 -172 0
-103 -171 -172 0
-112 -129 -146 0
-112 -129 -169 0
-112 -129 -170 0
-112 -129 -171 0
-112 -129 -172 0
-112 -146 -169 0
-112 -146 -170 0
-112 -146 -171 0
-112 -146 -172 0
-112 -169 -170 0
-112 -169 -171 0
-112 -169 -172 0
-112 -170 -171 0
-112 -170 -172 0
-112 -171 -172 0
-129 -146 -169 0
-129 -146 -170 0
-129 -146 -171 0
-129 -146 -172 0
-129 -169 -170 0
-129 -169 -171 0
-129 -169 -172 0
-129 -170 -171 0
-129 -170 -172 0
-129 -171 -172 0
-146 -169 -170 0
-146 -169 -171 0
-146 -169 -172 0
-146 -170 -171 0
-146 -170 -172 0
-146 -171 -172 0
-169 -170 -171 0
-169 -170 -172 0
-169 -171 -172 0
-170 -171 -172 0
112 129 146 169 170 171 172 0
103 129 146 169 170 171 172 0
103 112 146 169 170 171 172 0
103 112 129 169 170 171 172 0
103 112 129 146 170 171 172 0
103 112 129 146 169 171 172 0
103 112 129 146 169 170 172 0
103 112 129 146 169 170 171 0
-107 -116 -133 0
-107 -116 -150 0
-107 -116 -173 0
-107 -116 -174 0
-107 -116 -175 0
-107 -116 -176 0
-107 -133 -150 0
-107 -133 -173 0
-107 -133 -174 0
-107 -133 -175 0
-107 -133 -176 0
-107 -150 -173 0
-107 -150 -174 0
-107 -150 -175 0
-107 -150 -176 0
-107 -173 -174 0
-107 -173 -175 0
-107 -173 -176 0
-107 -174 -175 0
-107 -174 -176 0
-107 -175 -176 0
-116 -133 -150 0
-116 -133 -173 0
-116 -133 -174 0
-116 -133 -175 0
-116 -133 -176 0
-116 -150 -173 0
-116 -150 -174 0
-116 -150 -175 0
-116 -150 -176 0
-116 -173 -174 0
-116 -173 -175 0
-116 -173 -176 0
-116 -174 -175 0
-116 -174 -176 0
-116 -175 -176 0
-133 -150 -173 0
-133 -150 -174 0
-133 -150 -175 0
-133 -150 -176 0
-133 -173 -174 0
-133 -173 -175 0
-133 -173 -176 0
-133 -174 -175 0
-133 -174 -176 0
-133 -175 -176 0
-150 -173 -174 0
-150 -173 -175 0
-150 -173 -176 0
-150 -174 -175 0
-150 -174 -176 0
-150 -175 -176 0
-173 -174 -175 0
-173 -174 -176 0
-173 -175 -176 0
-174 -175 -176 0
116 133 150 173 174 175 176 0
107 133 150 173 174 175 176 0
107 116 150 173 174 175 176 0
107 116 133 173 174 175 176 0
107 116 133 150 174 175 176 0
107 116 133 150 173 175 176 0
107 116 133 150 173 174 176 0
107 116 133 150 173 174 175 0
-111 -120 -137 0
-111 -120 -154 0
-111 -120 -177 0
-111 -120 -178 0
-111 -120 -179 0
-111 -120 -180 0
-111 -137 -154 0
-111 -137 -177 0
-111 -137 -178 0
-111 -137 -179 0
-111 -137 -180 0
-111 -154 -177 0
-111 -154 -178 0
-111 -154 -179 0
-111 -154 -180 0
-111 -177 -178 0
-111 -177 -179 0
-111 -177 -180 0
-111 -178 -179 0
-111 -178 -180 0
-111 -179 -180 0
-120 -137 -154 0
-120 -137 -177 0
-120 -137 -178 0
-120 -137 -179 0
-120 -137 -180 0
-120 -154 -177 0
-120 -154 -178 0
-120 -154 -179 0
-120 -154 -180 0
-120 -177 -178 0
-120 -177 -179 0
-120 -177 -180 0
-120 -178 -179 0
-120 -178 -180 0
-120 -179 -180 0
-137 -154 -177 0
-137 -154 -178 0
-137 -154 -179 0
-137 -154 -180 0
-137 -177 -178 0
-137 -177 -179 0
-137 -177 -180 0
-137 -178 -179 0
-137 -178 -180 0
-137 -179 -180 0
-154 -177 -178 0
-154 -177 -179 0
-154 -177 -180 0
-154 -178 -179 0
-154 -178 -180 0
-154 -179 -180 0
-177 -178 -179 0
-177 -178 -180 0
-177 -179 -180 0
-178 -179 -180 0
120 137 154 177 178 179 180 0
111 137 154 177 178 179 180 0
111 120 154 177 178 179 180 0
111 120 137 177 178 179 180 0
111 120 137 154 178 179 180 0
111 120 137 154 177 179 180 0
111 120 137 154 177 178 180 0
111 120 137 154 177 178 179 0
-115 -124 -141 0
-115 -124 -158 0
-115 -124 -181 0
-115 -124 -182 0
-115 -124 -183 0
-115 -124 -184 0
-115 -141 -158 0
-115 -141 -181 0
-115 -141 -182 0
-115 -141 -183 0
-115 -141 -184 0
-115 -158 -181 0
-115 -158 -182 0
-115 -158 -183 0
-115 -158 -184 0
-115 -181 -182 0
-115 -181 -183 0
-115 -181 -184 0
-115 -182 -183 0
-115 -182 -184 0
-115 -183 -184 0
-124 -141 -158 0
-124 -141 -181 0
-124 -141 -182 0
-124 -141 -183 0
-124 -141 -184 0
-124 -158 -181 0
-124 -158 -182 0
-124 -158 -183 0
-124 -158 -184 0
-124 -181 -182 0
-124 -181 -183 0
-124 -181 -184 0
-124 -182 -183 0
-124 -182 -184 0
-124 -183 -184 0
-141 -158 -181 0
-141 -158 -182 0
-141 -158 -183 0
-141 -158 -184 0
-141 -181 -182 0
-141 -181 -183 0
-141 -181 -184 0
-141 -182 -183 0
-141 -182 -184 0
-141 -183 -184 0
-158 -181 -182 0
-158 -181 -183 0
-158 -181 -184 0
-158 -182 -183 0
-158 -182 -184 0
-158 -183 -184 0
-181 -182 -183 0
-181 -182 -184 0
-181 -183 -184 0
-182 -183 -184 0
124 141 158 181 182 183 184 0
115 141 158 181 182 183 184 0
115 124 158 181 182 183 184 0
115 124 141 181 182 183 184 0
115 124 141 158 182 183 184 0
115 124 141 158 181 183 184 0
115 124 141 158 181 182 184 0
115 124 141 158 181 182 183 0
-119 -128 -130 0
-119 -128 -145 0
-119 -128 -185 0
-119 -128 -186 0
-119 -128 -187 0
-119 -128 -188 0
-119 -130 -145 0
-119 -130 -185 0
-119 -130 -186 0
-119 -130 -187 0
-119 -130 -188 0
-119 -145 -185 0
-119 -145 -186 0
-119 -145 -187 0
-119 -145 -188 0
-119 -185 -186 0
-119 -185 -187 0
-119 -185 -188 0
-119 -186 -187 0
-119 -186 -188 0
-119 -187 -188 0
-128 -130 -145 0
-128 -130 -185 0
-128 -130 -186 0
-128 -130 -187 0
-128 -130 -188 0
-128 -145 -185 0
-128 -145 -186 0
-128 -145 -187 0
-128 -145 -188 0
-128 -185 -186 0
-128 -185 -187 0
-128 -185 -188 0
-128 -186 -187 0
-128 -186 -188 0
-128 -187 -188 0
-130 -145 -185 0
-130 -145 -186 0
-130 -145 -187 0
-130 -145 -188 0
-130 -185 -186 0
-130 -185 -187 0
-130 -185 -188 0
-130 -186 -187 0
-130 -186 -188 0
-130 -187 -188 0
-145 -185 -186 0
-145 -185 -187 0
-145 -185 -188 0
-145 -186 -187 0
-145 -186 -188 0
-145 -187 -188 0
-185 -186 -187 0
-185 -186 -188 0
-185 -187 -188 0
-186 -187 -188 0
128 130 145 185 186 187 188 0
119 130 145 185 186 187 188 0
119 128 145 185 186 187 188 0
119 128 130 185 186 187 188 0
119 128 130 145 186 187 188 0
119 128 130 145 185 187 188 0
119 128 130 145 185 186 188 0
119 128 130 145 185 186 187 0
-100 -123 -134 0
-100 -123 -149 0
-100 -123 -189 0
-100 -123 -190 0
-100 -123 -191 0
-100 -123 -192 0
-100 -134 -149 0
-100 -134 -189 0
-100 -134 -190 0
-100 -134 -191 0
-100 -134 -192 0
-100 -149 -189 0
-100 -149 -190 0
-100 -149 -191 0
-100 -149 -192 0
-100 -189 -190 0
-100 -189 -191 0
-100 -189 -192 0
-100 -190 -191 0
-100 -190 -192 0
-100 -191 -192 0
-123 -134 -149 0
-123 -134 -189 0
-123 -134 -190 0
-123 -134 -191 0
-123 -134 -192 0
-123 -149 -189 0
-123 -149 -190 0
-123 -149 -191 0
-123 -149 -192 0
-123 -189 -190 0
-123 -189 -191 0
-123 -189 -192 0
-123 -190 -191 0
-123 -190 -192 0
-123 -191 -192 0
-134 -149 -189 0
-134 -149 -190 0
-134 -149 -191 0
-134 -149 -192 0
-134 -189 -190 0
-134 -189 -191 0
-134 -189 -192 0
-134 -190 -191 0
-134 -190 -192 0
-134 -191 -192 0
-149 -189 -190 0
-149 -189 -191 0
-149 -189 -192 0
-149 -190 -191 0
-149 -190 -192 0
-149 -191 -192 0
-189 -190 -191 0
-189 -190 -192 0
-189 -191 -192 0
-190 -191 -192 0
123 134 149 189 190 191 192 0
100 134 149 189 190 191 192 0
100 123 149 189 190 191 192 0
100 123 134 189 190 191 192 0
100 123 134 149 190 191 192 0
100 123 134 149 189 191 192 0
100 123 134 149 189 190 192 0
100 123 134 149 189 190 191 0
-136 -159 -170 0
-136 -159 -185 0
-136 -159 -193 0
-136 -159 -194 0
-136 -159 -195 0
-136 -159 -196 0
-136 -170 -185 0
-136 -170 -193 0
-136 -170 -194 0
-136 -170 -195 0
-136 -170 -196 0
-136 -185 -193 0
-136 -185 -194 0
-136 -185 -195 0
-136 -185 -196 0
-136 -193 -194 0
-136 -193 -195 0
-136 -193 -196 0
-136 -194 -195 0
-136 -194 -196 0
-136 -195 -196 0
-159 -170 -185 0
-159 -170 -193 0
-159 -170 -194 0
-159 -170 -195 0
-159 -170 -196 0
-159 -185 -193 0
-159 -185 -194 0
-159 -185 -195 0
-159 -185 -196 0
-159 -193 -194 0
-159 -193 -195 0
-159 -193 -196 0
-159 -194 -195 0
-159 -194 -196 0
-159 -195 -196 0
-170 -185 -193 0
-170 -185 -194 0
-170 -185 -195 0
-170 -185 -196 0
-170 -193 -194 0
-170 -193 -195 0
-170 -193 -196 0
-170 -194 -195 0
-170 -194 -196 0
-170 -195 -196 0
-185 -193 -194 0
-185 -193 -195 0
-185 -193 -196 0
-185 -194 -195 0
-185 -194 -196 0
-185 -195 -196 0
-193 -194 -195 0
-193 -194 -196 0
-193 -195 -196 0
-194 -195 -196 0
159 170 185 193 194 195 196 0
136 170 185 193 194 195 196 0
136 159 185 193 194 195 196 0
136 159 170 193 194 195 196 0
136 159 170 185 194 195 196 0
136 159 170 185 193 195 196 0
136 159 170 185 193 194 196 0
136 159 170 185 193 194 195 0
-131 -140 -174 0
-131 -140 -189 0
-131 -140 -197 0
-131 -140 -198 0
-131 -140 -199 0
-131 -140 -200 0
-131 -174 -189 0
-131 -174 -197 0
-131 -174 -198 0
-131 -174 -199 0
-131 -174 -200 0
-131 -189 -197 0
-131 -189 -198 0
-131 -189 -199 0
-131 -189 -200 0
-131 -197 -198 0
-131 -197 -199 0
-131 -197 -200 0
-131 -198 -199 0
-131 -198 -200 0
-131 -199 -200 0
-140 -174 -189 0
-140 -174 -197 0
-140 -174 -198 0
-140 -174 -199 0
-140 -174 -200 0
-140 -189 -197 0
-140 -189 -198 0
-140 -189 -199 0
-140 -189 -200 0
-140 -197 -198 0
-140 -197 -199 0
-140 -197 -200 0
-140 -198 -199 0
-140 -198 -200 0
-140 -199 -200 0
-174 -189 -197 0
-174 -189 -198 0
-174 -189 -199 0
-174 -189 -200 0
-174 -197 -198 0
-174 -197 -199 0
-174 -197 -200 0
-174 -198 -199 0
-174 -198 -200 0
-174 -199 -200 0
-189 -197 -198 0
-189 -197 -199 0
-189 -197 -200 0
-189 -198 -199 0
-189 -198 -200 0
-189 -199 -200 0
-197 -198 -199 0
-197 -198 -200 0
-197 -199 -200 0
-198 -199 -200 0
140 174 189 197 198 199 200 0
131 174 189 197 198 199 200 0
131 140 189 197 198 199 200 0
131 140 174 197 198 199 200 0
131 140 174 189 198 199 200 0
131 140 174 189 197 199 200 0
131 140 174 189 197 198 200 0
131 140 174 189 197 198 199 0
-135 -144 -161 0
-135 -144 -178 0
-135 -144 -201 0
-135 -144 -202 0
-135 -144 -203 0
-135 -144 -204 0
-135 -161 -178 0
-135 -161 -201 0
-135 -161 -202 0
-135 -161 -203 0
-135 -161 -204 0
-135 -178 -201 0
-135 -178 -202 0
-135 -178 -203 0
-135 -178 -204 0
-135 -201 -202 0
-135 -201 -203 0
-135 -201 -204 0
-135 -202 -203 0
-135 -202 -204 0
-135 -203 -204 0
-144 -161 -178 0
-144 -161 -201 0
-144 -161 -202 0
-144 -161 -203 0
-144 -161 -204 0
-144 -178 -201 0
-144 -178 -202 0
-144 -178 -203 0
-144 -178 -204 0
-144 -201 -202 0
-144 -201 -203 0
-144 -201 -204 0
-144 -202 -203 0
-144 -202 -204 0
-144 -203 -204 0
-161 -178 -201 0
-161 -178 -202 0
-161 -178 -203 0
-161 -178 -204 0
-161 -201 -202 0
-161 -201 -203 0
-161 -201 -204 0
-161 -202 -203 0
-161 -202 -204 0
-161 -203 -204 0
-178 -201 -202 0
-178 -201 -203 0
-178 -201 -204 0
-178 -202 -203 0
-178 -202 -204 0
-178 -203 -204 0
-201 -202 -203 0
-201 -202 -204 0
-201 -203 -204 0
-202 -203 -204 0
144 161 178 201 202 203 204 0
135 161 178 201 202 203 204 0
135 144 178 201 202 203 204 0
135 144 161 201 202 203 204 0
135 144 161 178 202 203 204 0
135 144 161 178 201 203 204 0
135 144 161 178 201 202 204 0
135 144 161 178 201 202 203 0
-139 -148 -165 0
-139 -148 -182 0
-139 -148 -205 0
-139 -148 -206 0
-139 -148 -207 0
-139 -148 -208 0
-139 -165 -182 0
-139 -165 -205 0
-139 -165 -206 0
-139 -165 -207 0
-139 -165 -208 0
-139 -182 -205 0
-139 -182 -206 0
-139 -182 -207 0
-139 -182 -208 0
-139 -205 -206 0
-139 -205 -207 0
-139 -205 -208 0
-139 -206 -207 0
-139 -206 -208 0
-139 -207 -208 0
-148 -165 -182 0
-148 -165 -205 0
-148 -165 -206 0
-148 -165 -207 0
-148 -165 -208 0
-148 -182 -205 0
-148 -182 -206 0
-148 -182 -207 0
-148 -182 -208 0
-148 -205 -206 0
-148 -205 -207 0
-148 -205 -208 0
-148 -206 -207 0
-148 -206 -208 0
-148 -207 -208 0
-165 -182 -205 0
-165 -182 -206 0
-165 -182 -207 0
-165 -182 -208 0
-165 -205 -206 0
-165 -205 -207 0
-165 -205 -208 0
-165 -206 -207 0
-165 -206 -208 0
-165 -207 -208 0
-182 -205 -206 0
-182 -205 -207 0
-182 -205 -208 0
-182 -206 -207 0
-182 -206 -208 0
-182 -207 -208 0
-205 -206 -207 0
-205 -206 -208 0
-205 -207 -208 0
-206 -207 -208 0
148 165 182 205 206 207 208 0
139 165 182 205 206 207 208 0
139 148 182 205 206 207 208 0
139 148 165 205 206 207 208 0
139 148 165 182 206 207 208 0
139 148 165 182 205 207 208 0
139 148 165 182 205 206 208 0
139 148 165 182 205 206 207 0
-143 -152 -169 0
-143 -152 -186 0
-143 -152 -209 0
-143 -152 -210 0
-143 -152 -211 0
-143 -152 -212 0
-143 -169 -186 0
-143 -169 -209 0
-143 -169 -210 0
-143 -169 -211 0
-143 -169 -212 0
-143 -186 -209 0
-143 -186 -210 0
-143 -186 -211 0
-143 -186 -212 0
-143 -209 -210 0
-143 -209 -211 0
-143 -209 -212 0
-143 -210 -211 0
-143 -210 -212 0
-143 -211 -212 0
-152 -169 -186 0
-152 -169 -209 0
-152 -169 -210 0
-152 -169 -211 0
-152 -169 -212 0
-152 -186 -209 0
-152 -186 -210 0
-152 -186 -211 0
-152 -186 -212 0
-152 -209 -210 0
-152 -209 -211 0
-152 -209 -212 0
-152 -210 -211 0
-152 -210 -212 0
-152 -211 -212 0
-169 -186 -209 0
-169 -186 -210 0
-169 -186 -211 0
-169 -186 -212 0
-169 -209 -210 0
-169 -209 -211 0
-169 -209 -212 0
-169 -210 -211 0
-169 -210 -212 0
-169 -211 -212 0
-186 -209 -210 0
-186 -209 -211 0
-186 -209 -212 0
-186 -210 -211 0
-186 -210 -212 0
-186 -211 -212 0
-209 -210 -211 0
-209 -210 -212 0
-209 -211 -212 0
-210 -211 -212 0
152 169 186 209 210 211 212 0
143 169 186 209 210 211 212 0
143 152 186 209 210 211 212 0
143 152 169 209 210 211 212 0
143 152 169 186 210 211 212 0
143 152 169 186 209 211 212 0
143 152 169 186 209 210 212 0
143 152 169 186 209 210 211 0
-147 -156 -173 0
-147 -156 -190 0
-147 -156 -213 0
-147 -156 -214 0
-147 -156 -215 0
-147 -156 -216 0
-147 -173 -190 0
-147 -173 -213 0
-147 -173 -214 0
-147 -173 -215 0
-147 -173 -216 0
-147 -190 -213 0
-147 -190 -214 0
-147 -190 -215 0
-147 -190 -216 0
-147 -213 -214 0
-147 -213 -215 0
-147 -213 -216 0
-147 -214 -215 0
-147 -214 -216 0
-147 -215 -216 0
-156 -173 -190 0
-156 -173 -213 0
-156 -173 -214 0
-156 -173 -215 0
-156 -173 -216 0
-156 -190 -213 0
-156 -190 -214 0
-156 -190 -215 0
-156 -190 -216 0
-156 -213 -214 0
-156 -213 -215 0
-156 -213 -216 0
-156 -214 -215 0
-156 -214 -216 0
-156 -215 -216 0
-173 -190 -213 0
-173 -190 -214 0
-173 -190 -215 0
-173 -190 -216 0
-173 -213 -214 0
-173 -213 -215 0
-173 -213 -216 0
-173 -214 -215 0
-173 -214 -216 0
-173 -215 -216 0
-190 -213 -214 0
-190 -213 -215 0
-190 -213 -216 0
-190 -214 -215 0
-190 -214 -216 0
-190 -215 -216 0
-213 -214 -215 0
-213 -214 -216 0
-213 -215 -216 0
-214 -215 -216 0
156 173 190 213 214 215 216 0
147 173 190 213 214 215 216 0
147 156 190 213 214 215 216 0
147 156 173 213 214 215 216 0
147 156 173 190 214 215 216 0
147 156 173 190 213 215 216 0
147 156 173 190 213 214 216 0
147 156 173 190 213 214 215 0
-151 -160 -162 0
-151 -160 -177 0
-151 -160 -217 0
-151 -160 -218 0
-151 -160 -219 0
-151 -160 -220 0
-151 -162 -177 0
-151 -162 -217 0
-151 -162 -218 0
-151 -162 -219 0
-151 -162 -220 0
-151 -177 -217 0
-151 -177 -218 0
-151 -177 -219 0
-151 -177 -220 0
-151 -217 -218 0
-151 -217 -219 0
-151 -217 -220 0
-151 -218 -219 0
-151 -218 -220 0
-151 -219 -220 0
-160 -162 -177 0
-160 -162 -217 0
-160 -162 -218 0
-160 -162 -219 0
-160 -162 -220 0
-160 -177 -217 0
-160 -177 -218 0
-160 -177 -219 0
-160 -177 -220 0
-160 -217 -218 0
-160 -217 -219 0
-160 -217 -220 0
-160 -218 -219 0
-160 -218 -220 0
-160 -219 -220 0
-162 -177 -217 0
-162 -177 -218 0
-162 -177 -219 0
-162 -177 -220 0
-162 -217 -218 0
-162 -217 -219 0
-162 -217 -220 0
-162 -218 -219 0
-162 -218 -220 0
-162 -219 -220 0
-177 -217 -218 0
-177 -217 -219 0
-177 -217 -220 0
-177 -218 -219 0
-177 -218 -220 0
-177 -219 -220 0
-217 -218 -219 0
-217 -218 -220 0
-217 -219 -220 0
-218 -219 -220 0
160 162 177 217 218 219 220 0
151 162 177 217 218 219 220 0
151 160 177 217 218 219 220 0
151 160 162 217 218 219 220 0
151 160 162 177 218 219 220 0
151 160 162 177 217 219 220 0
151 160 162 177 217 218 220 0
151 160 162 177 217 218 219 0
-132 -155 -166 0
-132 -155 -181 0
-132 -155 -221 0
-132 -155 -222 0
-132 -155 -223 0
-132 -155 -224 0
-132 -166 -181 0
-132 -166 -221 0
-132 -166 -222 0
-132 -166 -223 0
-132 -166 -224 0
-132 -181 -221 0
-132 -181 -222 0
-132 -181 -223 0
-132 -181 -224 0
-132 -221 -222 0
-132 -221 -223 0
-132 -221 -224 0
-132 -222 -223 0
-132 -222 -224 0
-132 -223 -224 0
-155 -166 -181 0
-155 -166 -221 0
-155 -166 -222 0
-155 -166 -223 0
-155 -166 -224 0
-155 -181 -221 0
-155 -181 -222 0
-155 -181 -223 0
-155 -181 -224 0
-155 -221 -222 0
-155 -221 -223 0
-155 -221 -224 0
-155 -222 -223 0
-155 -222 -224 0
-155 -223 -224 0
-166 -181 -221 0
-166 -181 -222 0
-166 -181 -223 0
-166 -181 -224 0
-166 -221 -222 0
-166 -221 -223 0
-166 -221 -224 0
-166 -222 -223 0
-166 -222 -224 0
-166 -223 -224 0
-181 -221 -222 0
-181 -221 -223 0
-181 -221 -224 0
-181 -222 -223 0
-181 -222 -224 0
-181 -223 -224 0
-221 -222 -223 0
-221 -222 -224 0
-221 -223 -224 0
-222 -223 -224 0
155 166 181 221 222 223 224 0
132 166 181 221 222 223 224 0
132 155 181 221 222 223 224 0
132 155 166 221 222 223 224 0
132 155 166 181 222 223 224 0
132 155 166 181 221 223 224 0
132 155 166 181 221 222 224 0
132 155 166 181 221 222 223 0
-168 -191 -202 0
-168 -191 -217 0
-168 -202 -217 0
-191 -202 -217 0
-163 -172 -206 0
-163 -172 -221 0
-163 -206 -221 0
-172 -206 -221 0
-167 -176 -193 0
-167 -176 -210 0
-167 -193 -210 0
-176 -193 -210 0
-171 -180 -197 0
-171 -180 -214 0
-171 -197 -214 0
-180 -197 -214 0
-175 -184 -201 0
-175 -184 -218 0
-175 -201 -218 0
-184 -201 -218 0
-179 -188 -205 0
-179 -188 -222 0
-179 -205 -222 0
-188 -205 -222 0
-183 -192 -194 0
-183 -192 -209 0
-183 -194 -209 0
-192 -194 -209 0
-164 -187 -198 0
-164 -187 -213 0
-164 -198 -213 0
-187 -198 -213 0
-1 -6 225 0
-1 -7 226 0
-1 -8 227 0
-1 -10 228 0
-1 -12 229 0
-1 -14 230 0
-2 -21 231 0
-2 -25 232 0
-2 -27 233 0
-2 -29 234 0
-2 -31 235 0
-2 -32 236 0
-3 -6 237 0
-3 -8 238 0
-3 -10 239 0
-3 -29 240 0
-3 -33 241 0
-3 -38 242 0
-3 -40 243 0
-3 -42 244 0
-4 -6 245 0
-4 -25 246 0
-4 -29 247 0
-4 -31 248 0
-4 -34 249 0
-4 -57 250 0
-4 -61 251 0
-4 -63 252 0
-5 -10 253 0
-5 -11 254 0
-5 -12 255 0
-5 -14 256 0
-5 -16 257 0
-5 -18 258 0
-6 -25 259 0
-6 -29 260 0
-6 -31 261 0
-7 -10 262 0
-7 -12 263 0
-7 -14 264 0
-7 -37 265 0
-7 -42 266 0
-7 -44 267 0
-7 -46 268 0
-8 -10 269 0
-8 -29 270 0
-8 -33 271 0
-8 -35 272 0
-8 -38 273 0
-8 -61 274 0
-9 -14 275 0
-9 -15 276 0
-9 -16 277 0
-9 -18 278 0
-9 -20 279 0
-9 -22 280 0
-10 -29 281 0
-11 -14 282 0
-11 -16 283 0
-11 -18 284 0
-11 -41 285 0
-11 -46 286 0
-11 -48 287 0
-11 -50 288 0
-12 -14 289 0
-12 -33 290 0
-12 -37 291 0
-12 -39 292 0
-12 -42 293 0
-13 -18 294 0
-13 -19 295 0
-13 -20 296 0
-13 -22 297 0
-13 -24 298 0
-13 -26 299 0
-15 -18 300 0
-15 -20 301 0
-15 -22 302 0
-15 -45 303 0
-15 -50 304 0
-15 -52 305 0
-15 -54 306 0
-16 -18 307 0
-16 -37 308 0
-16 -41 309 0
-16 -43 310 0
-16 -46 311 0
-17 -22 312 0
-17 -23 313 0
-17 -24 314 0
-17 -26 315 0
-17 -28 316 0
-17 -30 317 0
-19 -22 318 0
-19 -24 319 0
-19 -26 320 0
-19 -49 321 0
-19 -54 322 0
-19 -56 323 0
-19 -58 324 0
-20 -22 325 0
-20 -41 326 0
-20 -45 327 0
-20 -47 328 0
-20 -50 329 0
-21 -26 330 0
-21 -27 331 0
-21 -28 332 0
-21 -30 333 0
-21 -32 334 0
-23 -26 335 0
-23 -28 336 0
-23 -30 337 0
-23 -53 338 0
-23 -58 339 0
-23 -60 340 0
-23 -62 341 0
-24 -26 342 0
-24 -45 343 0
-24 -49 344 0
-24 -51 345 0
-24 -54 346 0
-25 -30 347 0
-25 -31 348 0
-25 -32 349 0
-27 -30 350 0
-27 -32 351 0
-27 -34 352 0
-27 -57 353 0
-27 -62 354 0
-27 -64 355 0
-28 -30 356 0
-28 -49 357 0
-28 -53 358 0
-28 -55 359 0
-28 -58 360 0
-31 -34 361 0
-31 -36 362 0
-31 -38 363 0
-31 -61 364 0
-32 -53 365 0
-32 -57 366 0
-32 -59 367 0
-32 -62 368 0
-33 -38 369 0
-33 -39 370 0
-33 -40 371 0
-33 -42 372 0
-33 -44 373 0
-33 -46 374 0
-34 -53 375 0
-34 -57 376 0
-34 -59 377 0
-34 -61 378 0
-34 -63 379 0
-34 -64 380 0
-35 -38 381 0
-35 -40 382 0
-35 -42 383 0
-35 -61 384 0
-35 -65 0
-35 -70 0
-35 -72 0
-35 -74 0
-36 -38 385 0
-36 -57 386 0
-36 -61 387 0
-36 -63 388 0
-36 -66 0
-36 -89 0
-36 -93 0
-36 -95 0
-37 -42 389 0
-37 -43 390 0
-37 -44 391 0
-37 -46 392 0
-37 -48 393 0
-37 -50 394 0
-38 -57 395 0
-38 -61 396 0
-38 -63 397 0
-39 -42 398 0
-39 -44 399 0
-39 -46 400 0
-39 -69 0
-39 -74 0
-39 -76 0
-39 -78 0
-40 -42 401 0
-40 -61 402 0
-40 -65 0
-40 -67 0
-40 -70 0
-40 -93 0
-41 -46 403 0
-41 -47 404 0
-41 -48 405 0
-41 -50 406 0
-41 -52 407 0
-41 -54 408 0
-42 -61 409 0
-43 -46 410 0
-43 -48 411 0
-43 -50 412 0
-43 -73 0
-43 -78 0
-43 -80 0
-43 -82 0
-44 -46 413 0
-44 -65 0
-44 -69 0
-44 -71 0
-44 -74 0
-45 -50 414 0
-45 -51 415 0
-45 -52 416 0
-45 -54 417 0
-45 -56 418 0
-45 -58 419 0
-47 -50 420 0
-47 -52 421 0
-47 -54 422 0
-47 -77 0
-47 -82 0
-47 -84 0
-47 -86 0
-48 -50 423 0
-48 -69 0
-48 -73 0
-48 -75 0
-48 -78 0
-49 -54 424 0
-49 -55 425 0
-49 -56 426 0
-49 -58 427 0
-49 -60 428 0
-49 -62 429 0
-51 -54 430 0
-51 -56 431 0
-51 -58 432 0
-51 -81 0
-51 -86 0
-51 -88 0
-51 -90 0
-52 -54 433 0
-52 -73 0
-52 -77 0
-52 -79 0
-52 -82 0
-53 -58 434 0
-53 -59 435 0
-53 -60 436 0
-53 -62 437 0
-53 -64 438 0
-55 -58 439 0
-55 -60 440 0
-55 -62 441 0
-55 -85 0
-55 -90 0
-55 -92 0
-55 -94 0
-56 -58 442 0
-56 -77 0
-56 -81 0
-56 -83 0
-56 -86 0
-57 -62 443 0
-57 -63 444 0
-57 -64 445 0
-59 -62 446 0
-59 -64 447 0
-59 -66 0
-59 -89 0
-59 -94 0
-59 -96 0
-60 -62 448 0
-60 -81 0
-60 -85 0
-60 -87 0
-60 -90 0
-63 -66 0
-63 -68 0
-63 -70 0
-63 -93 0
-64 -85 0
-64 -89 0
-64 -91 0
-64 -94 0
-65 -70 0
-65 -71 0
-65 -72 0
-65 -74 0
-65 -76 0
-65 -78 0
-66 -85 0
-66 -89 0
-66 -91 0
-66 -93 0
-66 -95 0
-66 -96 0
-67 -70 0
-67 -72 0
-67 -74 0
-67 -93 0
-67 -97 0
-67 -102 0
-67 -104 0
-67 -106 0
-68 -70 0
-68 -89 0
-68 -93 0
-68 -95 0
-68 -98 0
-68 -121 0
-68 -125 0
-68 -127 0
-69 -74 0
-69 -75 0
-69 -76 0
-69 -78 0
-69 -80 0
-69 -82 0
-70 -89 0
-70 -93 0
-70 -95 0
-71 -74 0
-71 -76 0
-71 -78 0
-71 -101 0
-71 -106 0
-71 -108 0
-71 -110 0
-72 -74 0
-72 -93 0
-72 -97 0
-72 -99 0
-72 -102 0
-72 -125 0
-73 -78 0
-73 -79 0
-73 -80 0
-73 -82 0
-73 -84 0
-73 -86 0
-74 -93 0
-75 -78 0
-75 -80 0
-75 -82 0
-75 -105 0
-75 -110 0
-75 -112 0
-75 -114 0
-76 -78 0
-76 -97 0
-76 -101 0
-76 -103 0
-76 -106 0
-77 -82 0
-77 -83 0
-77 -84 0
-77 -86 0
-77 -88 0
-77 -90 0
-79 -82 0
-79 -84 0
-79 -86 0
-79 -109 0
-79 -114 0
-79 -116 0
-79 -118 0
-80 -82 0
-80 -101 0
-80 -105 0
-80 -107 0
-80 -110 0
-81 -86 0
-81 -87 0
-81 -88 0
-81 -90 0
-81 -92 0
-81 -94 0
-83 -86 0
-83 -88 0
-83 -90 0
-83 -113 0
-83 -118 0
-83 -120 0
-83 -122 0
-84 -86 0
-84 -105 0
-84 -109 0
-84 -111 0
-84 -114 0
-85 -90 0
-85 -91 0
-85 -92 0
-85 -94 0
-85 -96 0
-87 -90 0
-87 -92 0
-87 -94 0
-87 -117 0
-87 -122 0
-87 -124 0
-87 -126 0
-88 -90 0
-88 -109 0
-88 -113 0
-88 -115 0
-88 -118 0
-89 -94 0
-89 -95 0
-89 -96 0
-91 -94 0
-91 -96 0
-91 -98 0
-91 -121 0
-91 -126 0
-91 -128 0
-92 -94 0
-92 -113 0
-92 -117 0
-92 -119 0
-92 -122 0
-95 -98 0
-95 -100 0
-95 -102 0
-95 -125 0
-96 -117 0
-96 -121 0
-96 -123 0
-96 -126 0
-97 -102 0
-97 -103 0
-97 -104 0
-97 -106 0
-97 -108 0
-97 -110 0
-98 -117 0
-98 -121 0
-98 -123 0
-98 -125 0
-98 -127 0
-98 -128 0
-99 -102 0
-99 -104 0
-99 -106 0
-99 -125 0
-99 -129 0
-99 -134 0
-99 -136 0
-99 -138 0
-100 -102 0
-100 -121 0
-100 -125 0
-100 -127 0
-100 -130 0
-100 -153 0
-100 -157 0
-100 -159 0
-101 -106 0
-101 -107 0
-101 -108 0
-101 -110 0
-101 -112 0
-101 -114 0
-102 -121 0
-102 -125 0
-102 -127 0
-103 -106 0
-103 -108 0
-103 -110 0
-103 -133 0
-103 -138 0
-103 -140 0
-103 -142 0
-104 -106 0
-104 -125 0
-104 -129 0
-104 -131 0
-104 -134 0
-104 -157 0
-105 -110 0
-105 -111 0
-105 -112 0
-105 -114 0
-105 -116 0
-105 -118 0
-106 -125 0
-107 -110 0
-107 -112 0
-107 -114 0
-107 -137 0
-107 -142 0
-107 -144 0
-107 -146 0
-108 -110 0
-108 -129 0
-108 -133 0
-108 -135 0
-108 -138 0
-109 -114 0
-109 -115 0
-109 -116 0
-109 -118 0
-109 -120 0
-109 -122 0
-111 -114 0
-111 -116 0
-111 -118 0
-111 -141 0
-111 -146 0
-111 -148 0
-111 -150 0
-112 -114 0
-112 -133 0
-112 -137 0
-112 -139 0
-112 -142 0
-113 -118 0
-113 -119 0
-113 -120 0
-113 -122 0
-113 -124 0
-113 -126 0
-115 -118 0
-115 -120 0
-115 -122 0
-115 -145 0
-115 -150 0
-115 -152 0
-115 -154 0
-116 -118 0
-116 -137 0
-116 -141 0
-116 -143 0
-116 -146 0
-117 -122 0
-117 -123 0
-117 -124 0
-117 -126 0
-117 -128 0
-119 -122 0
-119 -124 0
-119 -126 0
-119 -149 0
-119 -154 0
-119 -156 0
-119 -158 0
-120 -122 0
-120 -141 0
-120 -145 0
-120 -147 0
-120 -150 0
-121 -126 0
-121 -127 0
-121 -128 0
-123 -126 0
-123 -128 0
-123 -130 0
-123 -153 0
-123 -158 0
-123 -160 0
-124 -126 0
-124 -145 0
-124 -149 0
-124 -151 0
-124 -154 0
-127 -130 0
-127 -132 0
-127 -134 0
-127 -157 0
-128 -149 0
-128 -153 0
-128 -155 0
-128 -158 0
-129 -134 0
-129 -135 0
-129 -136 0
-129 -138 0
-129 -140 0
-129 -142 0
-130 -149 0
-130 -153 0
-130 -155 0
-130 -157 0
-130 -159 0
-130 -160 0
-131 -134 0
-131 -136 0
-131 -138 0
-131 -157 0
-131 -161 0
-131 -166 0
-131 -168 0
-131 -170 0
-132 -134 0
-132 -153 0
-132 -157 0
-132 -159 0
-132 -162 0
-132 -185 0
-132 -189 0
-132 -191 0
-133 -138 0
-133 -139 0
-133 -140 0
-133 -142 0
-133 -144 0
-133 -146 0
-134 -153 0
-134 -157 0
-134 -159 0
-135 -138 0
-135 -140 0
-135 -142 0
-135 -165 0
-135 -170 0
-135 -172 0
-135 -174 0
-136 -138 0
-136 -157 0
-136 -161 0
-136 -163 0
-136 -166 0
-136 -189 0
-137 -142 0
-137 -143 0
-137 -144 0
-137 -146 0
-137 -148 0
-137 -150 0
-138 -157 0
-139 -142 0
-139 -144 0
-139 -146 0
-139 -169 0
-139 -174 0
-139 -176 0
-139 -178 0
-140 -142 0
-140 -161 0
-140 -165 0
-140 -167 0
-140 -170 0
-141 -146 0
-141 -147 0
-141 -148 0
-141 -150 0
-141 -152 0
-141 -154 0
-143 -146 0
-143 -148 0
-143 -150 0
-143 -173 0
-143 -178 0
-143 -180 0
-143 -182 0
-144 -146 0
-144 -165 0
-144 -169 0
-144 -171 0
-144 -174 0
-145 -150 0
-145 -151 0
-145 -152 0
-145 -154 0
-145 -156 0
-145 -158 0
-147 -150 0
-147 -152 0
-147 -154 0
-147 -177 0
-147 -182 0
-147 -184 0
-147 -186 0
-148 -150 0
-148 -169 0
-148 -173 0
-148 -175 0
-148 -178 0
-149 -154 0
-149 -155 0
-149 -156 0
-149 -158 0
-149 -160 0
-151 -154 0
-151 -156 0
-151 -158 0
-151 -181 0
-151 -186 0
-151 -188 0
-151 -190 0
-152 -154 0
-152 -173 0
-152 -177 0
-152 -179 0
-152 -182 0
-153 -158 0
-153 -159 0
-153 -160 0
-155 -158 0
-155 -160 0
-155 -162 0
-155 -185 0
-155 -190 0
-155 -192 0
-156 -158 0
-156 -177 0
-156 -181 0
-156 -183 0
-156 -186 0
-159 -162 0
-159 -164 0
-159 -166 0
-159 -189 0
-160 -181 0
-160 -185 0
-160 -187 0
-160 -190 0
-161 -166 0
-161 -167 0
-161 -168 0
-161 -170 0
-161 -172 0
-161 -174 0
-162 -181 0
-162 -185 0
-162 -187 0
-162 -189 0
-162 -191 0
-162 -192 0
-163 -166 0
-163 -168 0
-163 -170 0
-163 -189 0
-163 -193 0
-163 -198 0
-163 -200 0
-163 -202 0
-164 -166 0
-164 -185 0
-164 -189 0
-164 -191 0
-164 -194 0
-164 -217 0
-164 -221 0
-164 -223 0
-165 -170 0
-165 -171 0
-165 -172 0
-165 -174 0
-165 -176 0
-165 -178 0
-166 -185 0
-166 -189 0
-166 -191 0
-167 -170 0
-167 -172 0
-167 -174 0
-167 -197 0
-167 -202 0
-167 -204 0
-167 -206 0
-168 -170 0
-168 -189 0
-168 -193 0
-168 -195 0
-168 -198 0
-168 -221 0
-169 -174 0
-169 -175 0
-169 -176 0
-169 -178 0
-169 -180 0
-169 -182 0
-170 -189 0
-171 -174 0
-171 -176 0
-171 -178 0
-171 -201 0
-171 -206 0
-171 -208 0
-171 -210 0
-172 -174 0
-172 -193 0
-172 -197 0
-172 -199 0
-172 -202 0
-173 -178 0
-173 -179 0
-173 -180 0
-173 -182 0
-173 -184 0
-173 -186 0
-175 -178 0
-175 -180 0
-175 -182 0
-175 -205 0
-175 -210 0
-175 -212 0
-175 -214 0
-176 -178 0
-176 -197 0
-176 -201 0
-176 -203 0
-176 -206 0
-177 -182 0
-177 -183 0
-177 -184 0
-177 -186 0
-177 -188 0
-177 -190 0
-179 -182 0
-179 -184 0
-179 -186 0
-179 -209 0
-179 -214 0
-179 -216 0
-179 -218 0
-180 -182 0
-180 -201 0
-180 -205 0
-180 -207 0
-180 -210 0
-181 -186 0
-181 -187 0
-181 -188 0
-181 -190 0
-181 -192 0
-183 -186 0
-183 -188 0
-183 -190 0
-183 -213 0
-183 -218 0
-183 -220 0
-183 -222 0
-184 -186 0
-184 -205 0
-184 -209 0
-184 -211 0
-184 -214 0
-185 -190 0
-185 -191 0
-185 -192 0
-187 -190 0
-187 -192 0
-187 -194 0
-187 -217 0
-187 -222 0
-187 -224 0
-188 -190 0
-188 -209 0
-188 -213 0
-188 -215 0
-188 -218 0
-191 -194 0
-191 -196 0
-191 -198 0
-191 -221 0
-192 -213 0
-192 -217 0
-192 -219 0
-192 -222 0
-193 -198 0
-193 -199 0
-193 -200 0
-193 -202 0
-193 -204 0
-193 -206 0
-194 -213 0
-194 -217 0
-194 -219 0
-194 -221 0
-194 -223 0
-194 -224 0
-195 -198 0
-195 -200 0
-195 -202 0
-195 -221 0
-196 -198 0
-196 -217 0
-196 -221 0
-196 -223 0
-197 -202 0
-197 -203 0
-197 -204 0
-197 -206 0
-197 -208 0
-197 -210 0
-198 -217 0
-198 -221 0
-198 -223 0
-199 -202 0
-199 -204 0
-199 -206 0
-200 -202 0
-200 -221 0
-201 -206 0
-201 -207 0
-201 -208 0
-201 -210 0
-201 -212 0
-201 -214 0
-202 -221 0
-203 -206 0
-203 -208 0
-203 -210 0
-204 -206 0
-205 -210 0
-205 -211 0
-205 -212 0
-205 -214 0
-205 -216 0
-205 -218 0
-207 -210 0
-207 -212 0
-207 -214 0
-208 -210 0
-209 -214 0
-209 -215 0
-209 -216 0
-209 -218 0
-209 -220 0
-209 -222 0
-211 -214 0
-211 -216 0
-211 -218 0
-212 -214 0
-213 -218 0
-213 -219 0
-213 -220 0
-213 -222 0
-213 -224 0
-215 -218 0
-215 -220 0
-215 -222 0
-216 -218 0
-217 -222 0
-217 -223 0
-217 -224 0
-219 -222 0
-219 -224 0
-220 -222 0
104 131 134 157 0
-104 -131 0
-104 -134 0
-104 -157 0
-131 -134 0
-131 -157 0
-134 -157 0
131 136 138 157 0
-131 -136 0
-131 -138 0
-131 -157 0
-136 -138 0
-136 -157 0
-138 -157 0
99 129 136 138 0
-99 -129 0
-99 -136 0
-99 -138 0
-129 -136 0
-129 -138 0
-136 -138 0
99 104 129 134 0
-99 -104 0
-99 -129 0
-99 -134 0
-104 -129 0
-104 -134 0
-129 -134 0
108 129 135 138 0
-108 -129 0
-108 -135 0
-108 -138 0
-129 -135 0
-129 -138 0
-135 -138 0
129 135 140 142 0
-129 -135 0
-129 -140 0
-129 -142 0
-135 -140 0
-135 -142 0
-140 -142 0
103 133 140 142 0
-103 -133 0
-103 -140 0
-103 -142 0
-133 -140 0
-133 -142 0
-140 -142 0
103 108 133 138 0
-103 -108 0
-103 -133 0
-103 -138 0
-108 -133 0
-108 -138 0
-133 -138 0
112 133 139 142 0
-112 -133 0
-112 -139 0
-112 -142 0
-133 -139 0
-133 -142 0
-139 -142 0
133 139 144 146 0
-133 -139 0
-133 -144 0
-133 -146 0
-139 -144 0
-139 -146 0
-144 -146 0
107 137 144 146 0
-107 -137 0
-107 -144 0
-107 -146 0
-137 -144 0
-137 -146 0
-144 -146 0
107 112 137 142 0
-107 -112 0
-107 -137 0
-107 -142 0
-112 -137 0
-112 -142 0
-137 -142 0
116 137 143 146 0
-116 -137 0
-116 -143 0
-116 -146 0
-137 -143 0
-137 -146 0
-143 -146 0
137 143 148 150 0
-137 -143 0
-137 -148 0
-137 -150 0
-143 -148 0
-143 -150 0
-148 -150 0
111 141 148 150 0
-111 -141 0
-111 -148 0
-111 -150 0
-141 -148 0
-141 -150 0
-148 -150 0
111 116 141 146 0
-111 -116 0
-111 -141 0
-111 -146 0
-116 -141 0
-116 -146 0
-141 -146 0
120 141 147 150 0
-120 -141 0
-120 -147 0
-120 -150 0
-141 -147 0
-141 -150 0
-147 -150 0
141 147 152 154 0
-141 -147 0
-141 -152 0
-141 -154 0
-147 -152 0
-147 -154 0
-152 -154 0
115 145 152 154 0
-115 -145 0
-115 -152 0
-115 -154 0
-145 -152 0
-145 -154 0
-152 -154 0
115 120 145 150 0
-115 -120 0
-115 -145 0
-115 -150 0
-120 -145 0
-120 -150 0
-145 -150 0
124 145 151 154 0
-124 -145 0
-124 -151 0
-124 -154 0
-145 -151 0
-145 -154 0
-151 -154 0
145 151 156 158 0
-145 -151 0
-145 -156 0
-145 -158 0
-151 -156 0
-151 -158 0
-156 -158 0
119 149 156 158 0
-119 -149 0
-119 -156 0
-119 -158 0
-149 -156 0
-149 -158 0
-156 -158 0
119 124 149 154 0
-119 -124 0
-119 -149 0
-119 -154 0
-124 -149 0
-124 -154 0
-149 -154 0
128 149 155 158 0
-128 -149 0
-128 -155 0
-128 -158 0
-149 -155 0
-149 -158 0
-155 -158 0
130 149 155 160 0
-130 -149 0
-130 -155 0
-130 -160 0
-149 -155 0
-149 -160 0
-155 -160 0
123 130 153 160 0
-123 -130 0
-123 -153 0
-123 -160 0
-130 -153 0
-130 -160 0
-153 -160 0
123 128 153 158 0
-123 -128 0
-123 -153 0
-123 -158 0
-128 -153 0
-128 -158 0
-153 -158 0
100 130 153 159 0
-100 -130 0
-100 -153 0
-100 -159 0
-130 -153 0
-130 -159 0
-153 -159 0
132 134 153 159 0
-132 -134 0
-132 -153 0
-132 -159 0
-134 -153 0
-134 -159 0
-153 -159 0
127 132 134 157 0
-127 -132 0
-127 -134 0
-127 -157 0
-132 -134 0
-132 -157 0
-134 -157 0
100 127 130 157 0
-100 -127 0
-100 -130 0
-100 -157 0
-127 -130 0
-127 -157 0
-130 -157 0
136 163 166 189 0
-136 -163 0
-136 -166 0
-136 -189 0
-163 -166 0
-163 -189 0
-166 -189 0
163 168 170 189 0
-163 -168 0
-163 -170 0
-163 -189 0
-168 -170 0
-168 -189 0
-170 -189 0
131 161 168 170 0
-131 -161 0
-131 -168 0
-131 -170 0
-161 -168 0
-161 -170 0
-168 -170 0
131 136 161 166 0
-131 -136 0
-131 -161 0
-131 -166 0
-136 -161 0
-136 -166 0
-161 -166 0
140 161 167 170 0
-140 -161 0
-140 -167 0
-140 -170 0
-161 -167 0
-161 -170 0
-167 -170 0
161 167 172 174 0
-161 -167 0
-161 -172 0
-161 -174 0
-167 -172 0
-167 -174 0
-172 -174 0
135 165 172 174 0
-135 -165 0
-135 -172 0
-135 -174 0
-165 -172 0
-165 -174 0
-172 -174 0
135 140 165 170 0
-135 -140 0
-135 -165 0
-135 -170 0
-140 -165 0
-140 -170 0
-165 -170 0
144 165 171 174 0
-144 -165 0
-144 -171 0
-144 -174 0
-165 -171 0
-165 -174 0
-171 -174 0
165 171 176 178 0
-165 -171 0
-165 -176 0
-165 -178 0
-171 -176 0
-171 -178 0
-176 -178 0
139 169 176 178 0
-139 -169 0
-139 -176 0
-139 -178 0
-169 -176 0
-169 -178 0
-176 -178 0
139 144 169 174 0
-139 -144 0
-139 -169 0
-139 -174 0
-144 -169 0
-144 -174 0
-169 -174 0
148 169 175 178 0
-148 -169 0
-148 -175 0
-148 -178 0
-169 -175 0
-169 -178 0
-175 -178 0
169 175 180 182 0
-169 -175 0
-169 -180 0
-169 -182 0
-175 -180 0
-175 -182 0
-180 -182 0
143 173 180 182 0
-143 -173 0
-143 -180 0
-143 -182 0
-173 -180 0
-173 -182 0
-180 -182 0
143 148 173 178 0
-143 -148 0
-143 -173 0
-143 -178 0
-148 -173 0
-148 -178 0
-173 -178 0
152 173 179 182 0
-152 -173 0
-152 -179 0
-152 -182 0
-173 -179 0
-173 -182 0
-179 -182 0
173 179 184 186 0
-173 -179 0
-173 -184 0
-173 -186 0
-179 -184 0
-179 -186 0
-184 -186 0
147 177 184 186 0
-147 -177 0
-147 -184 0
-147 -186 0
-177 -184 0
-177 -186 0
-184 -186 0
147 152 177 182 0
-147 -152 0
-147 -177 0
-147 -182 0
-152 -177 0
-152 -182 0
-177 -182 0
156 177 183 186 0
-156 -177 0
-156 -183 0
-156 -186 0
-177 -183 0
-177 -186 0
-183 -186 0
177 183 188 190 0
-177 -183 0
-177 -188 0
-177 -190 0
-183 -188 0
-183 -190 0
-188 -190 0
151 181 188 190 0
-151 -181 0
-151 -188 0
-151 -190 0
-181 -188 0
-181 -190 0
-188 -190 0
151 156 181 186 0
-151 -156 0
-151 -181 0
-151 -186 0
-156 -181 0
-156 -186 0
-181 -186 0
160 181 187 190 0
-160 -181 0
-160 -187 0
-160 -190 0
-181 -187 0
-181 -190 0
-187 -190 0
162 181 187 192 0
-162 -181 0
-162 -187 0
-162 -192 0
-181 -187 0
-181 -192 0
-187 -192 0
155 162 185 192 0
-155 -162 0
-155 -185 0
-155 -192 0
-162 -185 0
-162 -192 0
-185 -192 0
155 160 185 190 0
-155 -160 0
-155 -185 0
-155 -190 0
-160 -185 0
-160 -190 0
-185 -190 0
132 162 185 191 0
-132 -162 0
-132 -185 0
-132 -191 0
-162 -185 0
-162 -191 0
-185 -191 0
164 166 185 191 0
-164 -166 0
-164 -185 0
-164 -191 0
-166 -185 0
-166 -191 0
-185 -191 0
159 164 166 189 0
-159 -164 0
-159 -166 0
-159 -189 0
-164 -166 0
-164 -189 0
-166 -189 0
132 159 162 189 0
-132 -159 0
-132 -162 0
-132 -189 0
-159 -162 0
-159 -189 0
-162 -189 0
168 195 198 221 0
-168 -195 0
-168 -198 0
-168 -221 0
-195 -198 0
-195 -221 0
-198 -221 0
195 200 202 221 0
-195 -200 0
-195 -202 0
-195 -221 0
-200 -202 0
-200 -221 0
-202 -221 0
163 193 200 202 0
-163 -193 0
-163 -200 0
-163 -202 0
-193 -200 0
-193 -202 0
-200 -202 0
163 168 193 198 0
-163 -168 0
-163 -193 0
-163 -198 0
-168 -193 0
-168 -198 0
-193 -198 0
172 193 199 202 0
-172 -193 0
-172 -199 0
-172 -202 0
-193 -199 0
-193 -202 0
-199 -202 0
193 199 204 206 0
-193 -199 0
-193 -204 0
-193 -206 0
-199 -204 0
-199 -206 0
-204 -206 0
167 197 204 206 0
-167 -197 0
-167 -204 0
-167 -206 0
-197 -204 0
-197 -206 0
-204 -206 0
167 172 197 202 0
-167 -172 0
-167 -197 0
-167 -202 0
-172 -197 0
-172 -202 0
-197 -202 0
176 197 203 206 0
-176 -197 0
-176 -203 0
-176 -206 0
-197 -203 0
-197 -206 0
-203 -206 0
197 203 208 210 0
-197 -203 0
-197 -208 0
-197 -210 0
-203 -208 0
-203 -210 0
-208 -210 0
171 201 208 210 0
-171 -201 0
-171 -208 0
-171 -210 0
-201 -208 0
-201 -210 0
-208 -210 0
171 176 201 206 0
-171 -176 0
-171 -201 0
-171 -206 0
-176 -201 0
-176 -206 0
-201 -206 0
180 201 207 210 0
-180 -201 0
-180 -207 0
-180 -210 0
-201 -207 0
-201 -210 0
-207 -210 0
201 207 212 214 0
-201 -207 0
-201 -212 0
-201 -214 0
-207 -212 0
-207 -214 0
-212 -214 0
175 205 212 214 0
-175 -205 0
-175 -212 0
-175 -214 0
-205 -212 0
-205 -214 0
-212 -214 0
175 180 205 210 0
-175 -180 0
-175 -205 0
-175 -210 0
-180 -205 0
-180 -210 0
-205 -210 0
184 205 211 214 0
-184 -205 0
-184 -211 0
-184 -214 0
-205 -211 0
-205 -214 0
-211 -214 0
205 211 216 218 0
-205 -211 0
-205 -216 0
-205 -218 0
-211 -216 0
-211 -218 0
-216 -218 0
179 209 216 218 0
-179 -209 0
-179 -216 0
-179 -218 0
-209 -216 0
-209 -218 0
-216 -218 0
179 184 209 214 0
-179 -184 0
-179 -209 0
-179 -214 0
-184 -209 0
-184 -214 0
-209 -214 0
188 209 215 218 0
-188 -209 0
-188 -215 0
-188 -218 0
-209 -215 0
-209 -218 0
-215 -218 0
209 215 220 222 0
-209 -215 0
-209 -220 0
-209 -222 0
-215 -220 0
-215 -222 0
-220 -222 0
183 213 220 222 0
-183 -213 0
-183 -220 0
-183 -222 0
-213 -220 0
-213 -222 0
-220 -222 0
183 188 213 218 0
-183 -188 0
-183 -213 0
-183 -218 0
-188 -213 0
-188 -218 0
-213 -218 0
192 213 219 222 0
-192 -213 0
-192 -219 0
-192 -222 0
-213 -219 0
-213 -222 0
-219 -222 0
194 213 219 224 0
-194 -213 0
-194 -219 0
-194 -224 0
-213 -219 0
-213 -224 0
-219 -224 0
187 194 217 224 0
-187 -194 0
-187 -217 0
-187 -224 0
-194 -217 0
-194 -224 0
-217 -224 0
187 192 217 222 0
-187 -192 0
-187 -217 0
-187 -222 0
-192 -217 0
-192 -222 0
-217 -222 0
164 194 217 223 0
-164 -194 0
-164 -217 0
-164 -223 0
-194 -217 0
-194 -223 0
-217 -223 0
196 198 217 223 0
-196 -198 0
-196 -217 0
-196 -223 0
-198 -217 0
-198 -223 0
-217 -223 0
191 196 198 221 0
-191 -196 0
-191 -198 0
-191 -221 0
-196 -198 0
-196 -221 0
-198 -221 0
164 191 194 221 0
-164 -191 0
-164 -194 0
-164 -221 0
-191 -194 0
-191 -221 0
-194 -221 0
451 0
-449 0
-450 0
-449 35 452 0
-449 -35 453 0
-450 35 453 0
-450 -35 454 0
-451 35 454 0
-451 -35 452 0
-452 -453 0
-452 -454 0
-453 -454 0
-452 40 455 0
-452 -40 456 0
-453 40 456 0
-453 -40 457 0
-454 40 457 0
-454 -40 455 0
-455 -456 0
-455 -457 0
-456 -457 0
-455 42 458 0
-455 -42 460 0
-456 42 459 0
-456 -42 458 0
-457 42 460 0
-457 -42 459 0
-458 -459 0
-458 -460 0
-459 -460 0
-458 61 461 0
-458 -61 463 0
-459 61 462 0
-459 -61 461 0
-460 61 463 0
-460 -61 462 0
-461 -462 0
-461 -463 0
-462 -463 0
-461 65 464 0
-461 -65 466 0
-462 65 465 0
-462 -65 464 0
-463 65 466 0
-463 -65 465 0
-464 -465 0
-464 -466 0
-465 -466 0
-464 70 467 0
-464 -70 469 0
-465 70 468 0
-465 -70 467 0
-466 70 469 0
-466 -70 468 0
-467 -468 0
-467 -469 0
-468 -469 0
-467 67 470 0
-467 -67 472 0
-468 67 471 0
-468 -67 470 0
-469 67 472 0
-469 -67 471 0
-470 -471 0
-470 -472 0
-471 -472 0
-470 72 473 0
-470 -72 475 0
-471 72 474 0
-471 -72 473 0
-472 72 475 0
-472 -72 474 0
-473 -474 0
-473 -475 0
-474 -475 0
-473 74 476 0
-473 -74 477 0
-474 74 477 0
-474 -74 478 0
-475 74 478 0
-475 -74 476 0
-476 -477 0
-476 -478 0
-477 -478 0
-476 93 479 0
-476 -93 480 0
-477 93 480 0
-477 -93 481 0
-478 93 481 0
-478 -93 479 0
-479 -480 0
-479 -481 0
-480 -481 0
-479 97 482 0
-479 -97 483 0
-480 97 483 0
-480 -97 484 0
-481 97 484 0
-481 -97 482 0
-482 -483 0
-482 -484 0
-483 -484 0
-482 102 485 0
-482 -102 486 0
-483 102 486 0
-483 -102 487 0
-484 102 487 0
-484 -102 485 0
-485 -486 0
-485 -487 0
-486 -487 0
-485 99 488 0
-485 -99 489 0
-486 99 489 0
-486 -99 490 0
-487 99 490 0
-487 -99 488 0
-488 -489 0
-488 -490 0
-489 -490 0
-488 104 491 0
-488 -104 492 0
-489 104 492 0
-489 -104 493 0
-490 104 493 0
-490 -104 491 0
-491 -492 0
-491 -493 0
-492 -493 0
-491 106 494 0
-491 -106 496 0
-492 106 495 0
-492 -106 494 0
-493 106 496 0
-493 -106 495 0
-494 -495 0
-494 -496 0
-495 -496 0
-494 125 497 0
-494 -125 499 0
-495 125 498 0
-495 -125 497 0
-496 125 499 0
-496 -125 498 0
-497 -498 0
-497 -499 0
-498 -499 0
-497 129 500 0
-497 -129 502 0
-498 129 501 0
-498 -129 500 0
-499 129 502 0
-499 -129 501 0
-500 -501 0
-500 -502 0
-501 -502 0
-500 134 503 0
-500 -134 505 0
-501 134 504 0
-501 -134 503 0
-502 134 505 0
-502 -134 504 0
-503 -504 0
-503 -505 0
-504 -505 0
-503 131 506 0
-503 -131 508 0
-504 131 507 0
-504 -131 506 0
-505 131 508 0
-505 -131 507 0
-506 -507 0
-506 -508 0
-507 -508 0
-506 136 509 0
-506 -136 511 0
-507 136 510 0
-507 -136 509 0
-508 136 511 0
-508 -136 510 0
-509 -510 0
-509 -511 0
-510 -511 0
-509 138 512 0
-509 -138 513 0
-510 138 513 0
-510 -138 514 0
-511 138 514 0
-511 -138 512 0
-512 -513 0
-512 -514 0
-513 -514 0
-512 157 515 0
-512 -157 516 0
-513 157 516 0
-513 -157 517 0
-514 157 517 0
-514 -157 515 0
-515 -516 0
-515 -517 0
-516 -517 0
-515 161 518 0
-515 -161 519 0
-516 161 519 0
-516 -161 520 0
-517 161 520 0
-517 -161 518 0
-518 -519 0
-518 -520 0
-519 -520 0
-518 166 521 0
-518 -166 522 0
-519 166 522 0
-519 -166 523 0
-520 166 523 0
-520 -166 521 0
-521 -522 0
-521 -523 0
-522 -523 0
-521 163 524 0
-521 -163 525 0
-522 163 525 0
-522 -163 526 0
-523 163 526 0
-523 -163 524 0
-524 -525 0
-524 -526 0
-525 -526 0
-524 168 527 0
-524 -168 528 0
-525 168 528 0
-525 -168 529 0
-526 168 529 0
-526 -168 527 0
-527 -528 0
-527 -529 0
-528 -529 0
-527 170 530 0
-527 -170 532 0
-528 170 531 0
-528 -170 530 0
-529 170 532 0
-529 -170 531 0
-530 -531 0
-530 -532 0
-531 -532 0
-530 189 533 0
-530 -189 535 0
-531 189 534 0
-531 -189 533 0
-532 189 535 0
-532 -189 534 0
-533 -534 0
-533 -535 0
-534 -535 0
-533 193 536 0
-533 -193 538 0
-534 193 537 0
-534 -193 536 0
-535 193 538 0
-535 -193 537 0
-536 -537 0
-536 -538 0
-537 -538 0
-536 198 539 0
-536 -198 541 0
-537 198 540 0
-537 -198 539 0
-538 198 541 0
-538 -198 540 0
-539 -540 0
-539 -541 0
-540 -541 0
542 0
-543 0
-544 0
-542 29 545 0
-542 -29 547 0
-543 29 546 0
-543 -29 545 0
-544 29 547 0
-544 -29 546 0
-545 -546 0
-545 -547 0
-546 -547 0
-545 2 548 0
-545 -2 550 0
-546 2 549 0
-546 -2 548 0
-547 2 550 0
-547 -2 549 0
-548 -549 0
-548 -550 0
-549 -550 0
-548 4 551 0
-548 -4 553 0
-549 4 552 0
-549 -4 551 0
-550 4 553 0
-550 -4 552 0
-551 -552 0
-551 -553 0
-552 -553 0
-551 6 554 0
-551 -6 555 0
-552 6 555 0
-552 -6 556 0
-553 6 556 0
-553 -6 554 0
-554 -555 0
-554 -556 0
-555 -556 0
-554 8 557 0
-554 -8 558 0
-555 8 558 0
-555 -8 559 0
-556 8 559 0
-556 -8 557 0
-557 -558 0
-557 -559 0
-558 -559 0
-557 10 560 0
-557 -10 562 0
-558 10 561 0
-558 -10 560 0
-559 10 562 0
-559 -10 561 0
-560 -561 0
-560 -562 0
-561 -562 0
-560 33 563 0
-560 -33 565 0
-561 33 564 0
-561 -33 563 0
-562 33 565 0
-562 -33 564 0
-563 -564 0
-563 -565 0
-564 -565 0
-563 38 566 0
-563 -38 568 0
-564 38 567 0
-564 -38 566 0
-565 38 568 0
-565 -38 567 0
-566 -567 0
-566 -568 0
-567 -568 0
-569 3 0
-569 8 0
-570 540 541 566 567 569 0
572 0
-571 0
-573 0
-571 33 574 0
-571 -33 575 0
-572 33 575 0
-572 -33 576 0
-573 33 576 0
-573 -33 574 0
-574 -575 0
-574 -576 0
-575 -576 0
-574 39 577 0
-574 -39 579 0
-575 39 578 0
-575 -39 577 0
-576 39 579 0
-576 -39 578 0
-577 -578 0
-577 -579 0
-578 -579 0
-577 44 580 0
-577 -44 582 0
-578 44 581 0
-578 -44 580 0
-579 44 582 0
-579 -44 581 0
-580 -581 0
-580 -582 0
-581 -582 0
-580 46 583 0
-580 -46 584 0
-581 46 584 0
-581 -46 585 0
-582 46 585 0
-582 -46 583 0
-583 -584 0
-583 -585 0
-584 -585 0
-583 69 586 0
-583 -69 587 0
-584 69 587 0
-584 -69 588 0
-585 69 588 0
-585 -69 586 0
-586 -587 0
-586 -588 0
-587 -588 0
-586 74 589 0
-586 -74 590 0
-587 74 590 0
-587 -74 591 0
-588 74 591 0
-588 -74 589 0
-589 -590 0
-589 -591 0
-590 -591 0
-589 65 592 0
-589 -65 594 0
-590 65 593 0
-590 -65 592 0
-591 65 594 0
-591 -65 593 0
-592 -593 0
-592 -594 0
-593 -594 0
-592 71 595 0
-592 -71 596 0
-593 71 596 0
-593 -71 597 0
-594 71 597 0
-594 -71 595 0
-595 -596 0
-595 -597 0
-596 -597 0
-595 76 598 0
-595 -76 599 0
-596 76 599 0
-596 -76 600 0
-597 76 600 0
-597 -76 598 0
-598 -599 0
-598 -600 0
-599 -600 0
-598 78 601 0
-598 -78 603 0
-599 78 602 0
-599 -78 601 0
-600 78 603 0
-600 -78 602 0
-601 -602 0
-601 -603 0
-602 -603 0
-601 101 604 0
-601 -101 606 0
-602 101 605 0
-602 -101 604 0
-603 101 606 0
-603 -101 605 0
-604 -605 0
-604 -606 0
-605 -606 0
-604 106 607 0
-604 -106 609 0
-605 106 608 0
-605 -106 607 0
-606 106 609 0
-606 -106 608 0
-607 -608 0
-607 -609 0
-608 -609 0
-607 97 610 0
-607 -97 611 0
-608 97 611 0
-608 -97 612 0
-609 97 612 0
-609 -97 610 0
-610 -611 0
-610 -612 0
-611 -612 0
-610 103 613 0
-610 -103 615 0
-611 103 614 0
-611 -103 613 0
-612 103 615 0
-612 -103 614 0
-613 -614 0
-613 -615 0
-614 -615 0
-613 108 616 0
-613 -108 618 0
-614 108 617 0
-614 -108 616 0
-615 108 618 0
-615 -108 617 0
-616 -617 0
-616 -618 0
-617 -618 0
-616 110 619 0
-616 -110 620 0
-617 110 620 0
-617 -110 621 0
-618 110 621 0
-618 -110 619 0
-619 -620 0
-619 -621 0
-620 -621 0
-619 133 622 0
-619 -133 623 0
-620 133 623 0
-620 -133 624 0
-621 133 624 0
-621 -133 622 0
-622 -623 0
-622 -624 0
-623 -624 0
-622 138 625 0
-622 -138 626 0
-623 138 626 0
-623 -138 627 0
-624 138 627 0
-624 -138 625 0
-625 -626 0
-625 -627 0
-626 -627 0
-625 129 628 0
-625 -129 630 0
-626 129 629 0
-626 -129 628 0
-627 129 630 0
-627 -129 629 0
-628 -629 0
-628 -630 0
-629 -630 0
-628 135 631 0
-628 -135 632 0
-629 135 632 0
-629 -135 633 0
-630 135 633 0
-630 -135 631 0
-631 -632 0
-631 -633 0
-632 -633 0
-631 140 634 0
-631 -140 635 0
-632 140 635 0
-632 -140 636 0
-633 140 636 0
-633 -140 634 0
-634 -635 0
-634 -636 0
-635 -636 0
-634 142 637 0
-634 -142 639 0
-635 142 638 0
-635 -142 637 0
-636 142 639 0
-636 -142 638 0
-637 -638 0
-637 -639 0
-638 -639 0
-637 165 640 0
-637 -165 642 0
-638 165 641 0
-638 -165 640 0
-639 165 642 0
-639 -165 641 0
-640 -641 0
-640 -642 0
-641 -642 0
-640 170 643 0
-640 -170 645 0
-641 170 644 0
-641 -170 643 0
-642 170 645 0
-642 -170 644 0
-643 -644 0
-643 -645 0
-644 -645 0
-643 161 646 0
-643 -161 647 0
-644 161 647 0
-644 -161 648 0
-645 161 648 0
-645 -161 646 0
-646 -647 0
-646 -648 0
-647 -648 0
-646 167 649 0
-646 -167 651 0
-647 167 650 0
-647 -167 649 0
-648 167 651 0
-648 -167 650 0
-649 -650 0
-649 -651 0
-650 -651 0
-649 172 652 0
-649 -172 654 0
-650 172 653 0
-650 -172 652 0
-651 172 654 0
-651 -172 653 0
-652 -653 0
-652 -654 0
-653 -654 0
-652 174 655 0
-652 -174 656 0
-653 174 656 0
-653 -174 657 0
-654 174 657 0
-654 -174 655 0
-655 -656 0
-655 -657 0
-656 -657 0
-655 197 658 0
-655 -197 659 0
-656 197 659 0
-656 -197 660 0
-657 197 660 0
-657 -197 658 0
-658 -659 0
-658 -660 0
-659 -660 0
-658 202 661 0
-658 -202 662 0
-659 202 662 0
-659 -202 663 0
-660 202 663 0
-660 -202 661 0
-661 -662 0
-661 -663 0
-662 -663 0
664 0
-665 0
-666 0
-664 1 667 0
-664 -1 669 0
-665 1 668 0
-665 -1 667 0
-666 1 669 0
-666 -1 668 0
-667 -668 0
-667 -669 0
-668 -669 0
-667 6 670 0
-667 -6 672 0
-668 6 671 0
-668 -6 670 0
-669 6 672 0
-669 -6 671 0
-670 -671 0
-670 -672 0
-671 -672 0
-670 8 673 0
-670 -8 675 0
-671 8 674 0
-671 -8 673 0
-672 8 675 0
-672 -8 674 0
-673 -674 0
-673 -675 0
-674 -675 0
-673 10 676 0
-673 -10 677 0
-674 10 677 0
-674 -10 678 0
-675 10 678 0
-675 -10 676 0
-676 -677 0
-676 -678 0
-677 -678 0
-676 12 679 0
-676 -12 680 0
-677 12 680 0
-677 -12 681 0
-678 12 681 0
-678 -12 679 0
-679 -680 0
-679 -681 0
-680 -681 0
-679 14 682 0
-679 -14 684 0
-680 14 683 0
-680 -14 682 0
-681 14 684 0
-681 -14 683 0
-682 -683 0
-682 -684 0
-683 -684 0
-682 37 685 0
-682 -37 687 0
-683 37 686 0
-683 -37 685 0
-684 37 687 0
-684 -37 686 0
-685 -686 0
-685 -687 0
-686 -687 0
-685 42 688 0
-685 -42 690 0
-686 42 689 0
-686 -42 688 0
-687 42 690 0
-687 -42 689 0
-688 -689 0
-688 -690 0
-689 -690 0
-691 7 0
-691 12 0
-692 662 663 688 689 691 0
695 0
-693 0
-694 0
-693 37 696 0
-693 -37 698 0
-694 37 697 0
-694 -37 696 0
-695 37 698 0
-695 -37 697 0
-696 -697 0
-696 -698 0
-697 -698 0
-696 43 699 0
-696 -43 700 0
-697 43 700 0
-697 -43 701 0
-698 43 701 0
-698 -43 699 0
-699 -700 0
-699 -701 0
-700 -701 0
-699 48 702 0
-699 -48 703 0
-700 48 703 0
-700 -48 704 0
-701 48 704 0
-701 -48 702 0
-702 -703 0
-702 -704 0
-703 -704 0
-702 50 705 0
-702 -50 707 0
-703 50 706 0
-703 -50 705 0
-704 50 707 0
-704 -50 706 0
-705 -706 0
-705 -707 0
-706 -707 0
-705 73 708 0
-705 -73 710 0
-706 73 709 0
-706 -73 708 0
-707 73 710 0
-707 -73 709 0
-708 -709 0
-708 -710 0
-709 -710 0
-708 78 711 0
-708 -78 713 0
-709 78 712 0
-709 -78 711 0
-710 78 713 0
-710 -78 712 0
-711 -712 0
-711 -713 0
-712 -713 0
-711 69 714 0
-711 -69 715 0
-712 69 715 0
-712 -69 716 0
-713 69 716 0
-713 -69 714 0
-714 -715 0
-714 -716 0
-715 -716 0
-714 75 717 0
-714 -75 719 0
-715 75 718 0
-715 -75 717 0
-716 75 719 0
-716 -75 718 0
-717 -718 0
-717 -719 0
-718 -719 0
-717 80 720 0
-717 -80 722 0
-718 80 721 0
-718 -80 720 0
-719 80 722 0
-719 -80 721 0
-720 -721 0
-720 -722 0
-721 -722 0
-720 82 723 0
-720 -82 724 0
-721 82 724 0
-721 -82 725 0
-722 82 725 0
-722 -82 723 0
-723 -724 0
-723 -725 0
-724 -725 0
-723 105 726 0
-723 -105 727 0
-724 105 727 0
-724 -105 728 0
-725 105 728 0
-725 -105 726 0
-726 -727 0
-726 -728 0
-727 -728 0
-726 110 729 0
-726 -110 730 0
-727 110 730 0
-727 -110 731 0
-728 110 731 0
-728 -110 729 0
-729 -730 0
-729 -731 0
-730 -731 0
-729 101 732 0
-729 -101 734 0
-730 101 733 0
-730 -101 732 0
-731 101 734 0
-731 -101 733 0
-732 -733 0
-732 -734 0
-733 -734 0
-732 107 735 0
-732 -107 736 0
-733 107 736 0
-733 -107 737 0
-734 107 737 0
-734 -107 735 0
-735 -736 0
-735 -737 0
-736 -737 0
-735 112 738 0
-735 -112 739 0
-736 112 739 0
-736 -112 740 0
-737 112 740 0
-737 -112 738 0
-738 -739 0
-738 -740 0
-739 -740 0
-738 114 741 0
-738 -114 743 0
-739 114 742 0
-739 -114 741 0
-740 114 743 0
-740 -114 742 0
-741 -742 0
-741 -743 0
-742 -743 0
-741 137 744 0
-741 -137 746 0
-742 137 745 0
-742 -137 744 0
-743 137 746 0
-743 -137 745 0
-744 -745 0
-744 -746 0
-745 -746 0
-744 142 747 0
-744 -142 749 0
-745 142 748 0
-745 -142 747 0
-746 142 749 0
-746 -142 748 0
-747 -748 0
-747 -749 0
-748 -749 0
-747 133 750 0
-747 -133 751 0
-748 133 751 0
-748 -133 752 0
-749 133 752 0
-749 -133 750 0
-750 -751 0
-750 -752 0
-751 -752 0
-750 139 753 0
-750 -139 755 0
-751 139 754 0
-751 -139 753 0
-752 139 755 0
-752 -139 754 0
-753 -754 0
-753 -755 0
-754 -755 0
-753 144 756 0
-753 -144 758 0
-754 144 757 0
-754 -144 756 0
-755 144 758 0
-755 -144 757 0
-756 -757 0
-756 -758 0
-757 -758 0
-756 146 759 0
-756 -146 760 0
-757 146 760 0
-757 -146 761 0
-758 146 761 0
-758 -146 759 0
-759 -760 0
-759 -761 0
-760 -761 0
-759 169 762 0
-759 -169 763 0
-760 169 763 0
-760 -169 764 0
-761 169 764 0
-761 -169 762 0
-762 -763 0
-762 -764 0
-763 -764 0
-762 174 765 0
-762 -174 766 0
-763 174 766 0
-763 -174 767 0
-764 174 767 0
-764 -174 765 0
-765 -766 0
-765 -767 0
-766 -767 0
-765 165 768 0
-765 -165 770 0
-766 165 769 0
-766 -165 768 0
-767 165 770 0
-767 -165 769 0
-768 -769 0
-768 -770 0
-769 -770 0
-768 171 771 0
-768 -171 772 0
-769 171 772 0
-769 -171 773 0
-770 171 773 0
-770 -171 771 0
-771 -772 0
-771 -773 0
-772 -773 0
-771 176 774 0
-771 -176 775 0
-772 176 775 0
-772 -176 776 0
-773 176 776 0
-773 -176 774 0
-774 -775 0
-774 -776 0
-775 -776 0
-774 178 777 0
-774 -178 779 0
-775 178 778 0
-775 -178 777 0
-776 178 779 0
-776 -178 778 0
-777 -778 0
-777 -779 0
-778 -779 0
-777 201 780 0
-777 -201 782 0
-778 201 781 0
-778 -201 780 0
-779 201 782 0
-779 -201 781 0
-780 -781 0
-780 -782 0
-781 -782 0
-780 206 783 0
-780 -206 785 0
-781 206 784 0
-781 -206 783 0
-782 206 785 0
-782 -206 784 0
-783 -784 0
-783 -785 0
-784 -785 0
786 0
-787 0
-788 0
-786 5 789 0
-786 -5 791 0
-787 5 790 0
-787 -5 789 0
-788 5 791 0
-788 -5 790 0
-789 -790 0
-789 -791 0
-790 -791 0
-789 10 792 0
-789 -10 794 0
-790 10 793 0
-790 -10 792 0
-791 10 794 0
-791 -10 793 0
-792 -793 0
-792 -794 0
-793 -794 0
-792 12 795 0
-792 -12 797 0
-793 12 796 0
-793 -12 795 0
-794 12 797 0
-794 -12 796 0
-795 -796 0
-795 -797 0
-796 -797 0
-795 14 798 0
-795 -14 799 0
-796 14 799 0
-796 -14 800 0
-797 14 800 0
-797 -14 798 0
-798 -799 0
-798 -800 0
-799 -800 0
-798 16 801 0
-798 -16 802 0
-799 16 802 0
-799 -16 803 0
-800 16 803 0
-800 -16 801 0
-801 -802 0
-801 -803 0
-802 -803 0
-801 18 804 0
-801 -18 806 0
-802 18 805 0
-802 -18 804 0
-803 18 806 0
-803 -18 805 0
-804 -805 0
-804 -806 0
-805 -806 0
-804 41 807 0
-804 -41 809 0
-805 41 808 0
-805 -41 807 0
-806 41 809 0
-806 -41 808 0
-807 -808 0
-807 -809 0
-808 -809 0
-807 46 810 0
-807 -46 812 0
-808 46 811 0
-808 -46 810 0
-809 46 812 0
-809 -46 811 0
-810 -811 0
-810 -812 0
-811 -812 0
-813 11 0
-813 16 0
-814 784 785 810 811 813 0
816 0
-815 0
-817 0
-815 41 818 0
-815 -41 819 0
-816 41 819 0
-816 -41 820 0
-817 41 820 0
-817 -41 818 0
-818 -819 0
-818 -820 0
-819 -820 0
-818 47 821 0
-818 -47 823 0
-819 47 822 0
-819 -47 821 0
-820 47 823 0
-820 -47 822 0
-821 -822 0
-821 -823 0
-822 -823 0
-821 52 824 0
-821 -52 826 0
-822 52 825 0
-822 -52 824 0
-823 52 826 0
-823 -52 825 0
-824 -825 0
-824 -826 0
-825 -826 0
-824 54 827 0
-824 -54 828 0
-825 54 828 0
-825 -54 829 0
-826 54 829 0
-826 -54 827 0
-827 -828 0
-827 -829 0
-828 -829 0
-827 77 830 0
-827 -77 831 0
-828 77 831 0
-828 -77 832 0
-829 77 832 0
-829 -77 830 0
-830 -831 0
-830 -832 0
-831 -832 0
-830 82 833 0
-830 -82 834 0
-831 82 834 0
-831 -82 835 0
-832 82 835 0
-832 -82 833 0
-833 -834 0
-833 -835 0
-834 -835 0
-833 73 836 0
-833 -73 838 0
-834 73 837 0
-834 -73 836 0
-835 73 838 0
-835 -73 837 0
-836 -837 0
-836 -838 0
-837 -838 0
-836 79 839 0
-836 -79 840 0
-837 79 840 0
-837 -79 841 0
-838 79 841 0
-838 -79 839 0
-839 -840 0
-839 -841 0
-840 -841 0
-839 84 842 0
-839 -84 843 0
-840 84 843 0
-840 -84 844 0
-841 84 844 0
-841 -84 842 0
-842 -843 0
-842 -844 0
-843 -844 0
-842 86 845 0
-842 -86 847 0
-843 86 846 0
-843 -86 845 0
-844 86 847 0
-844 -86 846 0
-845 -846 0
-845 -847 0
-846 -847 0
-845 109 848 0
-845 -109 850 0
-846 109 849 0
-846 -109 848 0
-847 109 850 0
-847 -109 849 0
-848 -849 0
-848 -850 0
-849 -850 0
-848 114 851 0
-848 -114 853 0
-849 114 852 0
-849 -114 851 0
-850 114 853 0
-850 -114 852 0
-851 -852 0
-851 -853 0
-852 -853 0
-851 105 854 0
-851 -105 855 0
-852 105 855 0
-852 -105 856 0
-853 105 856 0
-853 -105 854 0
-854 -855 0
-854 -856 0
-855 -856 0
-854 111 857 0
-854 -111 859 0
-855 111 858 0
-855 -111 857 0
-856 111 859 0
-856 -111 858 0
-857 -858 0
-857 -859 0
-858 -859 0
-857 116 860 0
-857 -116 862 0
-858 116 861 0
-858 -116 860 0
-859 116 862 0
-859 -116 861 0
-860 -861 0
-860 -862 0
-861 -862 0
-860 118 863 0
-860 -118 864 0
-861 118 864 0
-861 -118 865 0
-862 118 865 0
-862 -118 863 0
-863 -864 0
-863 -865 0
-864 -865 0
-863 141 866 0
-863 -141 867 0
-864 141 867 0
-864 -141 868 0
-865 141 868 0
-865 -141 866 0
-866 -867 0
-866 -868 0
-867 -868 0
-866 146 869 0
-866 -146 870 0
-867 146 870 0
-867 -146 871 0
-868 146 871 0
-868 -146 869 0
-869 -870 0
-869 -871 0
-870 -871 0
-869 137 872 0
-869 -137 874 0
-870 137 873 0
-870 -137 872 0
-871 137 874 0
-871 -137 873 0
-872 -873 0
-872 -874 0
-873 -874 0
-872 143 875 0
-872 -143 876 0
-873 143 876 0
-873 -143 877 0
-874 143 877 0
-874 -143 875 0
-875 -876 0
-875 -877 0
-876 -877 0
-875 148 878 0
-875 -148 879 0
-876 148 879 0
-876 -148 880 0
-877 148 880 0
-877 -148 878 0
-878 -879 0
-878 -880 0
-879 -880 0
-878 150 881 0
-878 -150 883 0
-879 150 882 0
-879 -150 881 0
-880 150 883 0
-880 -150 882 0
-881 -882 0
-881 -883 0
-882 -883 0
-881 173 884 0
-881 -173 886 0
-882 173 885 0
-882 -173 884 0
-883 173 886 0
-883 -173 885 0
-884 -885 0
-884 -886 0
-885 -886 0
-884 178 887 0
-884 -178 889 0
-885 178 888 0
-885 -178 887 0
-886 178 889 0
-886 -178 888 0
-887 -888 0
-887 -889 0
-888 -889 0
-887 169 890 0
-887 -169 891 0
-888 169 891 0
-888 -169 892 0
-889 169 892 0
-889 -169 890 0
-890 -891 0
-890 -892 0
-891 -892 0
-890 175 893 0
-890 -175 895 0
-891 175 894 0
-891 -175 893 0
-892 175 895 0
-892 -175 894 0
-893 -894 0
-893 -895 0
-894 -895 0
-893 180 896 0
-893 -180 898 0
-894 180 897 0
-894 -180 896 0
-895 180 898 0
-895 -180 897 0
-896 -897 0
-896 -898 0
-897 -898 0
-896 182 899 0
-896 -182 900 0
-897 182 900 0
-897 -182 901 0
-898 182 901 0
-898 -182 899 0
-899 -900 0
-899 -901 0
-900 -901 0
-899 205 902 0
-899 -205 903 0
-900 205 903 0
-900 -205 904 0
-901 205 904 0
-901 -205 902 0
-902 -903 0
-902 -904 0
-903 -904 0
-902 210 905 0
-902 -210 906 0
-903 210 906 0
-903 -210 907 0
-904 210 907 0
-904 -210 905 0
-905 -906 0
-905 -907 0
-906 -907 0
908 0
-909 0
-910 0
-908 9 911 0
-908 -9 913 0
-909 9 912 0
-909 -9 911 0
-910 9 913 0
-910 -9 912 0
-911 -912 0
-911 -913 0
-912 -913 0
-911 14 914 0
-911 -14 916 0
-912 14 915 0
-912 -14 914 0
-913 14 916 0
-913 -14 915 0
-914 -915 0
-914 -916 0
-915 -916 0
-914 16 917 0
-914 -16 919 0
-915 16 918 0
-915 -16 917 0
-916 16 919 0
-916 -16 918 0
-917 -918 0
-917 -919 0
-918 -919 0
-917 18 920 0
-917 -18 921 0
-918 18 921 0
-918 -18 922 0
-919 18 922 0
-919 -18 920 0
-920 -921 0
-920 -922 0
-921 -922 0
-920 20 923 0
-920 -20 924 0
-921 20 924 0
-921 -20 925 0
-922 20 925 0
-922 -20 923 0
-923 -924 0
-923 -925 0
-924 -925 0
-923 22 926 0
-923 -22 928 0
-924 22 927 0
-924 -22 926 0
-925 22 928 0
-925 -22 927 0
-926 -927 0
-926 -928 0
-927 -928 0
-926 45 929 0
-926 -45 931 0
-927 45 930 0
-927 -45 929 0
-928 45 931 0
-928 -45 930 0
-929 -930 0
-929 -931 0
-930 -931 0
-929 50 932 0
-929 -50 934 0
-930 50 933 0
-930 -50 932 0
-931 50 934 0
-931 -50 933 0
-932 -933 0
-932 -934 0
-933 -934 0
-935 15 0
-935 20 0
-936 906 907 932 933 935 0
939 0
-937 0
-938 0
-937 45 940 0
-937 -45 942 0
-938 45 941 0
-938 -45 940 0
-939 45 942 0
-939 -45 941 0
-940 -941 0
-940 -942 0
-941 -942 0
-940 51 943 0
-940 -51 944 0
-941 51 944 0
-941 -51 945 0
-942 51 945 0
-942 -51 943 0
-943 -944 0
-943 -945 0
-944 -945 0
-943 56 946 0
-943 -56 947 0
-944 56 947 0
-944 -56 948 0
-945 56 948 0
-945 -56 946 0
-946 -947 0
-946 -948 0
-947 -948 0
-946 58 949 0
-946 -58 951 0
-947 58 950 0
-947 -58 949 0
-948 58 951 0
-948 -58 950 0
-949 -950 0
-949 -951 0
-950 -951 0
-949 81 952 0
-949 -81 954 0
-950 81 953 0
-950 -81 952 0
-951 81 954 0
-951 -81 953 0
-952 -953 0
-952 -954 0
-953 -954 0
-952 86 955 0
-952 -86 957 0
-953 86 956 0
-953 -86 955 0
-954 86 957 0
-954 -86 956 0
-955 -956 0
-955 -957 0
-956 -957 0
-955 77 958 0
-955 -77 959 0
-956 77 959 0
-956 -77 960 0
-957 77 960 0
-957 -77 958 0
-958 -959 0
-958 -960 0
-959 -960 0
-958 83 961 0
-958 -83 963 0
-959 83 962 0
-959 -83 961 0
-960 83 963 0
-960 -83 962 0
-961 -962 0
-961 -963 0
-962 -963 0
-961 88 964 0
-961 -88 966 0
-962 88 965 0
-962 -88 964 0
-963 88 966 0
-963 -88 965 0
-964 -965 0
-964 -966 0
-965 -966 0
-964 90 967 0
-964 -90 968 0
-965 90 968 0
-965 -90 969 0
-966 90 969 0
-966 -90 967 0
-967 -968 0
-967 -969 0
-968 -969 0
-967 113 970 0
-967 -113 971 0
-968 113 971 0
-968 -113 972 0
-969 113 972 0
-969 -113 970 0
-970 -971 0
-970 -972 0
-971 -972 0
-970 118 973 0
-970 -118 974 0
-971 118 974 0
-971 -118 975 0
-972 118 975 0
-972 -118 973 0
-973 -974 0
-973 -975 0
-974 -975 0
-973 109 976 0
-973 -109 978 0
-974 109 977 0
-974 -109 976 0
-975 109 978 0
-975 -109 977 0
-976 -977 0
-976 -978 0
-977 -978 0
-976 115 979 0
-976 -115 980 0
-977 115 980 0
-977 -115 981 0
-978 115 981 0
-978 -115 979 0
-979 -980 0
-979 -981 0
-980 -981 0
-979 120 982 0
-979 -120 983 0
-980 120 983 0
-980 -120 984 0
-981 120 984 0
-981 -120 982 0
-982 -983 0
-982 -984 0
-983 -984 0
-982 122 985 0
-982 -122 987 0
-983 122 986 0
-983 -122 985 0
-984 122 987 0
-984 -122 986 0
-985 -986 0
-985 -987 0
-986 -987 0
-985 145 988 0
-985 -145 990 0
-986 145 989 0
-986 -145 988 0
-987 145 990 0
-987 -145 989 0
-988 -989 0
-988 -990 0
-989 -990 0
-988 150 991 0
-988 -150 993 0
-989 150 992 0
-989 -150 991 0
-990 150 993 0
-990 -150 992 0
-991 -992 0
-991 -993 0
-992 -993 0
-991 141 994 0
-991 -141 995 0
-992 141 995 0
-992 -141 996 0
-993 141 996 0
-993 -141 994 0
-994 -995 0
-994 -996 0
-995 -996 0
-994 147 997 0
-994 -147 999 0
-995 147 998 0
-995 -147 997 0
-996 147 999 0
-996 -147 998 0
-997 -998 0
-997 -999 0
-998 -999 0
-997 152 1000 0
-997 -152 1002 0
-998 152 1001 0
-998 -152 1000 0
-999 152 1002 0
-999 -152 1001 0
-1000 -1001 0
-1000 -1002 0
-1001 -1002 0
-1000 154 1003 0
-1000 -154 1004 0
-1001 154 1004 0
-1001 -154 1005 0
-1002 154 1005 0
-1002 -154 1003 0
-1003 -1004 0
-1003 -1005 0
-1004 -1005 0
-1003 177 1006 0
-1003 -177 1007 0
-1004 177 1007 0
-1004 -177 1008 0
-1005 177 1008 0
-1005 -177 1006 0
-1006 -1007 0
-1006 -1008 0
-1007 -1008 0
-1006 182 1009 0
-1006 -182 1010 0
-1007 182 1010 0
-1007 -182 1011 0
-1008 182 1011 0
-1008 -182 1009 0
-1009 -1010 0
-1009 -1011 0
-1010 -1011 0
-1009 173 1012 0
-1009 -173 1014 0
-1010 173 1013 0
-1010 -173 1012 0
-1011 173 1014 0
-1011 -173 1013 0
-1012 -1013 0
-1012 -1014 0
-1013 -1014 0
-1012 179 1015 0
-1012 -179 1016 0
-1013 179 1016 0
-1013 -179 1017 0
-1014 179 1017 0
-1014 -179 1015 0
-1015 -1016 0
-1015 -1017 0
-1016 -1017 0
-1015 184 1018 0
-1015 -184 1019 0
-1016 184 1019 0
-1016 -184 1020 0
-1017 184 1020 0
-1017 -184 1018 0
-1018 -1019 0
-1018 -1020 0
-1019 -1020 0
-1018 186 1021 0
-1018 -186 1023 0
-1019 186 1022 0
-1019 -186 1021 0
-1020 186 1023 0
-1020 -186 1022 0
-1021 -1022 0
-1021 -1023 0
-1022 -1023 0
-1021 209 1024 0
-1021 -209 1026 0
-1022 209 1025 0
-1022 -209 1024 0
-1023 209 1026 0
-1023 -209 1025 0
-1024 -1025 0
-1024 -1026 0
-1025 -1026 0
-1024 214 1027 0
-1024 -214 1029 0
-1025 214 1028 0
-1025 -214 1027 0
-1026 214 1029 0
-1026 -214 1028 0
-1027 -1028 0
-1027 -1029 0
-1028 -1029 0
1030 0
-1031 0
-1032 0
-1030 13 1033 0
-1030 -13 1035 0
-1031 13 1034 0
-1031 -13 1033 0
-1032 13 1035 0
-1032 -13 1034 0
-1033 -1034 0
-1033 -1035 0
-1034 -1035 0
-1033 18 1036 0
-1033 -18 1038 0
-1034 18 1037 0
-1034 -18 1036 0
-1035 18 1038 0
-1035 -18 1037 0
-1036 -1037 0
-1036 -1038 0
-1037 -1038 0
-1036 20 1039 0
-1036 -20 1041 0
-1037 20 1040 0
-1037 -20 1039 0
-1038 20 1041 0
-1038 -20 1040 0
-1039 -1040 0
-1039 -1041 0
-1040 -1041 0
-1039 22 1042 0
-1039 -22 1043 0
-1040 22 1043 0
-1040 -22 1044 0
-1041 22 1044 0
-1041 -22 1042 0
-1042 -1043 0
-1042 -1044 0
-1043 -1044 0
-1042 24 1045 0
-1042 -24 1046 0
-1043 24 1046 0
-1043 -24 1047 0
-1044 24 1047 0
-1044 -24 1045 0
-1045 -1046 0
-1045 -1047 0
-1046 -1047 0
-1045 26 1048 0
-1045 -26 1050 0
-1046 26 1049 0
-1046 -26 1048 0
-1047 26 1050 0
-1047 -26 1049 0
-1048 -1049 0
-1048 -1050 0
-1049 -1050 0
-1048 49 1051 0
-1048 -49 1053 0
-1049 49 1052 0
-1049 -49 1051 0
-1050 49 1053 0
-1050 -49 1052 0
-1051 -1052 0
-1051 -1053 0
-1052 -1053 0
-1051 54 1054 0
-1051 -54 1056 0
-1052 54 1055 0
-1052 -54 1054 0
-1053 54 1056 0
-1053 -54 1055 0
-1054 -1055 0
-1054 -1056 0
-1055 -1056 0
-1057 19 0
-1057 24 0
-1058 1028 1029 1054 1055 1057 0
1060 0
-1059 0
-1061 0
-1059 49 1062 0
-1059 -49 1063 0
-1060 49 1063 0
-1060 -49 1064 0
-1061 49 1064 0
-1061 -49 1062 0
-1062 -1063 0
-1062 -1064 0
-1063 -1064 0
-1062 55 1065 0
-1062 -55 1067 0
-1063 55 1066 0
-1063 -55 1065 0
-1064 55 1067 0
-1064 -55 1066 0
-1065 -1066 0
-1065 -1067 0
-1066 -1067 0
-1065 60 1068 0
-1065 -60 1070 0
-1066 60 1069 0
-1066 -60 1068 0
-1067 60 1070 0
-1067 -60 1069 0
-1068 -1069 0
-1068 -1070 0
-1069 -1070 0
-1068 62 1071 0
-1068 -62 1072 0
-1069 62 1072 0
-1069 -62 1073 0
-1070 62 1073 0
-1070 -62 1071 0
-1071 -1072 0
-1071 -1073 0
-1072 -1073 0
-1071 85 1074 0
-1071 -85 1075 0
-1072 85 1075 0
-1072 -85 1076 0
-1073 85 1076 0
-1073 -85 1074 0
-1074 -1075 0
-1074 -1076 0
-1075 -1076 0
-1074 90 1077 0
-1074 -90 1078 0
-1075 90 1078 0
-1075 -90 1079 0
-1076 90 1079 0
-1076 -90 1077 0
-1077 -1078 0
-1077 -1079 0
-1078 -1079 0
-1077 81 1080 0
-1077 -81 1082 0
-1078 81 1081 0
-1078 -81 1080 0
-1079 81 1082 0
-1079 -81 1081 0
-1080 -1081 0
-1080 -1082 0
-1081 -1082 0
-1080 87 1083 0
-1080 -87 1084 0
-1081 87 1084 0
-1081 -87 1085 0
-1082 87 1085 0
-1082 -87 1083 0
-1083 -1084 0
-1083 -1085 0
-1084 -1085 0
-1083 92 1086 0
-1083 -92 1087 0
-1084 92 1087 0
-1084 -92 1088 0
-1085 92 1088 0
-1085 -92 1086 0
-1086 -1087 0
-1086 -1088 0
-1087 -1088 0
-1086 94 1089 0
-1086 -94 1091 0
-1087 94 1090 0
-1087 -94 1089 0
-1088 94 1091 0
-1088 -94 1090 0
-1089 -1090 0
-1089 -1091 0
-1090 -1091 0
-1089 117 1092 0
-1089 -117 1094 0
-1090 117 1093 0
-1090 -117 1092 0
-1091 117 1094 0
-1091 -117 1093 0
-1092 -1093 0
-1092 -1094 0
-1093 -1094 0
-1092 122 1095 0
-1092 -122 1097 0
-1093 122 1096 0
-1093 -122 1095 0
-1094 122 1097 0
-1094 -122 1096 0
-1095 -1096 0
-1095 -1097 0
-1096 -1097 0
-1095 113 1098 0
-1095 -113 1099 0
-1096 113 1099 0
-1096 -113 1100 0
-1097 113 1100 0
-1097 -113 1098 0
-1098 -1099 0
-1098 -1100 0
-1099 -1100 0
-1098 119 1101 0
-1098 -119 1103 0
-1099 119 1102 0
-1099 -119 1101 0
-1100 119 1103 0
-1100 -119 1102 0
-1101 -1102 0
-1101 -1103 0
-1102 -1103 0
-1101 124 1104 0
-1101 -124 1106 0
-1102 124 1105 0
-1102 -124 1104 0
-1103 124 1106 0
-1103 -124 1105 0
-1104 -1105 0
-1104 -1106 0
-1105 -1106 0
-1104 126 1107 0
-1104 -126 1108 0
-1105 126 1108 0
-1105 -126 1109 0
-1106 126 1109 0
-1106 -126 1107 0
-1107 -1108 0
-1107 -1109 0
-1108 -1109 0
-1107 149 1110 0
-1107 -149 1111 0
-1108 149 1111 0
-1108 -149 1112 0
-1109 149 1112 0
-1109 -149 1110 0
-1110 -1111 0
-1110 -1112 0
-1111 -1112 0
-1110 154 1113 0
-1110 -154 1114 0
-1111 154 1114 0
-1111 -154 1115 0
-1112 154 1115 0
-1112 -154 1113 0
-1113 -1114 0
-1113 -1115 0
-1114 -1115 0
-1113 145 1116 0
-1113 -145 1118 0
-1114 145 1117 0
-1114 -145 1116 0
-1115 145 1118 0
-1115 -145 1117 0
-1116 -1117 0
-1116 -1118 0
-1117 -1118 0
-1116 151 1119 0
-1116 -151 1120 0
-1117 151 1120 0
-1117 -151 1121 0
-1118 151 1121 0
-1118 -151 1119 0
-1119 -1120 0
-1119 -1121 0
-1120 -1121 0
-1119 156 1122 0
-1119 -156 1123 0
-1120 156 1123 0
-1120 -156 1124 0
-1121 156 1124 0
-1121 -156 1122 0
-1122 -1123 0
-1122 -1124 0
-1123 -1124 0
-1122 158 1125 0
-1122 -158 1127 0
-1123 158 1126 0
-1123 -158 1125 0
-1124 158 1127 0
-1124 -158 1126 0
-1125 -1126 0
-1125 -1127 0
-1126 -1127 0
-1125 181 1128 0
-1125 -181 1130 0
-1126 181 1129 0
-1126 -181 1128 0
-1127 181 1130 0
-1127 -181 1129 0
-1128 -1129 0
-1128 -1130 0
-1129 -1130 0
-1128 186 1131 0
-1128 -186 1133 0
-1129 186 1132 0
-1129 -186 1131 0
-1130 186 1133 0
-1130 -186 1132 0
-1131 -1132 0
-1131 -1133 0
-1132 -1133 0
-1131 177 1134 0
-1131 -177 1135 0
-1132 177 1135 0
-1132 -177 1136 0
-1133 177 1136 0
-1133 -177 1134 0
-1134 -1135 0
-1134 -1136 0
-1135 -1136 0
-1134 183 1137 0
-1134 -183 1139 0
-1135 183 1138 0
-1135 -183 1137 0
-1136 183 1139 0
-1136 -183 1138 0
-1137 -1138 0
-1137 -1139 0
-1138 -1139 0
-1137 188 1140 0
-1137 -188 1142 0
-1138 188 1141 0
-1138 -188 1140 0
-1139 188 1142 0
-1139 -188 1141 0
-1140 -1141 0
-1140 -1142 0
-1141 -1142 0
-1140 190 1143 0
-1140 -190 1144 0
-1141 190 1144 0
-1141 -190 1145 0
-1142 190 1145 0
-1142 -190 1143 0
-1143 -1144 0
-1143 -1145 0
-1144 -1145 0
-1143 213 1146 0
-1143 -213 1147 0
-1144 213 1147 0
-1144 -213 1148 0
-1145 213 1148 0
-1145 -213 1146 0
-1146 -1147 0
-1146 -1148 0
-1147 -1148 0
-1146 218 1149 0
-1146 -218 1150 0
-1147 218 1150 0
-1147 -218 1151 0
-1148 218 1151 0
-1148 -218 1149 0
-1149 -1150 0
-1149 -1151 0
-1150 -1151 0
1152 0
-1153 0
-1154 0
-1152 17 1155 0
-1152 -17 1157 0
-1153 17 1156 0
-1153 -17 1155 0
-1154 17 1157 0
-1154 -17 1156 0
-1155 -1156 0
-1155 -1157 0
-1156 -1157 0
-1155 22 1158 0
-1155 -22 1160 0
-1156 22 1159 0
-1156 -22 1158 0
-1157 22 1160 0
-1157 -22 1159 0
-1158 -1159 0
-1158 -1160 0
-1159 -1160 0
-1158 24 1161 0
-1158 -24 1163 0
-1159 24 1162 0
-1159 -24 1161 0
-1160 24 1163 0
-1160 -24 1162 0
-1161 -1162 0
-1161 -1163 0
-1162 -1163 0
-1161 26 1164 0
-1161 -26 1165 0
-1162 26 1165 0
-1162 -26 1166 0
-1163 26 1166 0
-1163 -26 1164 0
-1164 -1165 0
-1164 -1166 0
-1165 -1166 0
-1164 28 1167 0
-1164 -28 1168 0
-1165 28 1168 0
-1165 -28 1169 0
-1166 28 1169 0
-1166 -28 1167 0
-1167 -1168 0
-1167 -1169 0
-1168 -1169 0
-1167 30 1170 0
-1167 -30 1172 0
-1168 30 1171 0
-1168 -30 1170 0
-1169 30 1172 0
-1169 -30 1171 0
-1170 -1171 0
-1170 -1172 0
-1171 -1172 0
-1170 53 1173 0
-1170 -53 1175 0
-1171 53 1174 0
-1171 -53 1173 0
-1172 53 1175 0
-1172 -53 1174 0
-1173 -1174 0
-1173 -1175 0
-1174 -1175 0
-1173 58 1176 0
-1173 -58 1178 0
-1174 58 1177 0
-1174 -58 1176 0
-1175 58 1178 0
-1175 -58 1177 0
-1176 -1177 0
-1176 -1178 0
-1177 -1178 0
-1179 23 0
-1179 28 0
-1180 1150 1151 1176 1177 1179 0
1183 0
-1181 0
-1182 0
-1181 34 1184 0
-1181 -34 1186 0
-1182 34 1185 0
-1182 -34 1184 0
-1183 34 1186 0
-1183 -34 1185 0
-1184 -1185 0
-1184 -1186 0
-1185 -1186 0
-1184 53 1187 0
-1184 -53 1189 0
-1185 53 1188 0
-1185 -53 1187 0
-1186 53 1189 0
-1186 -53 1188 0
-1187 -1188 0
-1187 -1189 0
-1188 -1189 0
-1187 59 1190 0
-1187 -59 1191 0
-1188 59 1191 0
-1188 -59 1192 0
-1189 59 1192 0
-1189 -59 1190 0
-1190 -1191 0
-1190 -1192 0
-1191 -1192 0
-1190 64 1193 0
-1190 -64 1194 0
-1191 64 1194 0
-1191 -64 1195 0
-1192 64 1195 0
-1192 -64 1193 0
-1193 -1194 0
-1193 -1195 0
-1194 -1195 0
-1193 89 1196 0
-1193 -89 1198 0
-1194 89 1197 0
-1194 -89 1196 0
-1195 89 1198 0
-1195 -89 1197 0
-1196 -1197 0
-1196 -1198 0
-1197 -1198 0
-1196 94 1199 0
-1196 -94 1201 0
-1197 94 1200 0
-1197 -94 1199 0
-1198 94 1201 0
-1198 -94 1200 0
-1199 -1200 0
-1199 -1201 0
-1200 -1201 0
-1199 66 1202 0
-1199 -66 1203 0
-1200 66 1203 0
-1200 -66 1204 0
-1201 66 1204 0
-1201 -66 1202 0
-1202 -1203 0
-1202 -1204 0
-1203 -1204 0
-1202 85 1205 0
-1202 -85 1206 0
-1203 85 1206 0
-1203 -85 1207 0
-1204 85 1207 0
-1204 -85 1205 0
-1205 -1206 0
-1205 -1207 0
-1206 -1207 0
-1205 91 1208 0
-1205 -91 1210 0
-1206 91 1209 0
-1206 -91 1208 0
-1207 91 1210 0
-1207 -91 1209 0
-1208 -1209 0
-1208 -1210 0
-1209 -1210 0
-1208 96 1211 0
-1208 -96 1213 0
-1209 96 1212 0
-1209 -96 1211 0
-1210 96 1213 0
-1210 -96 1212 0
-1211 -1212 0
-1211 -1213 0
-1212 -1213 0
-1211 121 1214 0
-1211 -121 1215 0
-1212 121 1215 0
-1212 -121 1216 0
-1213 121 1216 0
-1213 -121 1214 0
-1214 -1215 0
-1214 -1216 0
-1215 -1216 0
-1214 126 1217 0
-1214 -126 1218 0
-1215 126 1218 0
-1215 -126 1219 0
-1216 126 1219 0
-1216 -126 1217 0
-1217 -1218 0
-1217 -1219 0
-1218 -1219 0
-1217 98 1220 0
-1217 -98 1222 0
-1218 98 1221 0
-1218 -98 1220 0
-1219 98 1222 0
-1219 -98 1221 0
-1220 -1221 0
-1220 -1222 0
-1221 -1222 0
-1220 117 1223 0
-1220 -117 1225 0
-1221 117 1224 0
-1221 -117 1223 0
-1222 117 1225 0
-1222 -117 1224 0
-1223 -1224 0
-1223 -1225 0
-1224 -1225 0
-1223 123 1226 0
-1223 -123 1227 0
-1224 123 1227 0
-1224 -123 1228 0
-1225 123 1228 0
-1225 -123 1226 0
-1226 -1227 0
-1226 -1228 0
-1227 -1228 0
-1226 128 1229 0
-1226 -128 1230 0
-1227 128 1230 0
-1227 -128 1231 0
-1228 128 1231 0
-1228 -128 1229 0
-1229 -1230 0
-1229 -1231 0
-1230 -1231 0
-1229 153 1232 0
-1229 -153 1234 0
-1230 153 1233 0
-1230 -153 1232 0
-1231 153 1234 0
-1231 -153 1233 0
-1232 -1233 0
-1232 -1234 0
-1233 -1234 0
-1232 158 1235 0
-1232 -158 1237 0
-1233 158 1236 0
-1233 -158 1235 0
-1234 158 1237 0
-1234 -158 1236 0
-1235 -1236 0
-1235 -1237 0
-1236 -1237 0
-1235 130 1238 0
-1235 -130 1239 0
-1236 130 1239 0
-1236 -130 1240 0
-1237 130 1240 0
-1237 -130 1238 0
-1238 -1239 0
-1238 -1240 0
-1239 -1240 0
-1238 149 1241 0
-1238 -149 1242 0
-1239 149 1242 0
-1239 -149 1243 0
-1240 149 1243 0
-1240 -149 1241 0
-1241 -1242 0
-1241 -1243 0
-1242 -1243 0
-1241 155 1244 0
-1241 -155 1246 0
-1242 155 1245 0
-1242 -155 1244 0
-1243 155 1246 0
-1243 -155 1245 0
-1244 -1245 0
-1244 -1246 0
-1245 -1246 0
-1244 160 1247 0
-1244 -160 1249 0
-1245 160 1248 0
-1245 -160 1247 0
-1246 160 1249 0
-1246 -160 1248 0
-1247 -1248 0
-1247 -1249 0
-1248 -1249 0
-1247 185 1250 0
-1247 -185 1251 0
-1248 185 1251 0
-1248 -185 1252 0
-1249 185 1252 0
-1249 -185 1250 0
-1250 -1251 0
-1250 -1252 0
-1251 -1252 0
-1250 190 1253 0
-1250 -190 1254 0
-1251 190 1254 0
-1251 -190 1255 0
-1252 190 1255 0
-1252 -190 1253 0
-1253 -1254 0
-1253 -1255 0
-1254 -1255 0
-1253 162 1256 0
-1253 -162 1258 0
-1254 162 1257 0
-1254 -162 1256 0
-1255 162 1258 0
-1255 -162 1257 0
-1256 -1257 0
-1256 -1258 0
-1257 -1258 0
-1256 181 1259 0
-1256 -181 1261 0
-1257 181 1260 0
-1257 -181 1259 0
-1258 181 1261 0
-1258 -181 1260 0
-1259 -1260 0
-1259 -1261 0
-1260 -1261 0
-1259 187 1262 0
-1259 -187 1263 0
-1260 187 1263 0
-1260 -187 1264 0
-1261 187 1264 0
-1261 -187 1262 0
-1262 -1263 0
-1262 -1264 0
-1263 -1264 0
-1262 192 1265 0
-1262 -192 1266 0
-1263 192 1266 0
-1263 -192 1267 0
-1264 192 1267 0
-1264 -192 1265 0
-1265 -1266 0
-1265 -1267 0
-1266 -1267 0
-1265 217 1268 0
-1265 -217 1270 0
-1266 217 1269 0
-1266 -217 1268 0
-1267 217 1270 0
-1267 -217 1269 0
-1268 -1269 0
-1268 -1270 0
-1269 -1270 0
-1268 222 1271 0
-1268 -222 1273 0
-1269 222 1272 0
-1269 -222 1271 0
-1270 222 1273 0
-1270 -222 1272 0
-1271 -1272 0
-1271 -1273 0
-1272 -1273 0
1274 0
-1275 0
-1276 0
-1274 21 1277 0
-1274 -21 1279 0
-1275 21 1278 0
-1275 -21 1277 0
-1276 21 1279 0
-1276 -21 1278 0
-1277 -1278 0
-1277 -1279 0
-1278 -1279 0
-1277 26 1280 0
-1277 -26 1282 0
-1278 26 1281 0
-1278 -26 1280 0
-1279 26 1282 0
-1279 -26 1281 0
-1280 -1281 0
-1280 -1282 0
-1281 -1282 0
-1280 28 1283 0
-1280 -28 1285 0
-1281 28 1284 0
-1281 -28 1283 0
-1282 28 1285 0
-1282 -28 1284 0
-1283 -1284 0
-1283 -1285 0
-1284 -1285 0
-1283 30 1286 0
-1283 -30 1287 0
-1284 30 1287 0
-1284 -30 1288 0
-1285 30 1288 0
-1285 -30 1286 0
-1286 -1287 0
-1286 -1288 0
-1287 -1288 0
-1286 32 1289 0
-1286 -32 1290 0
-1287 32 1290 0
-1287 -32 1291 0
-1288 32 1291 0
-1288 -32 1289 0
-1289 -1290 0
-1289 -1291 0
-1290 -1291 0
-1289 2 1292 0
-1289 -2 1294 0
-1290 2 1293 0
-1290 -2 1292 0
-1291 2 1294 0
-1291 -2 1293 0
-1292 -1293 0
-1292 -1294 0
-1293 -1294 0
-1292 57 1295 0
-1292 -57 1297 0
-1293 57 1296 0
-1293 -57 1295 0
-1294 57 1297 0
-1294 -57 1296 0
-1295 -1296 0
-1295 -1297 0
-1296 -1297 0
-1295 62 1298 0
-1295 -62 1300 0
-1296 62 1299 0
-1296 -62 1298 0
-1297 62 1300 0
-1297 -62 1299 0
-1298 -1299 0
-1298 -1300 0
-1299 -1300 0
-1301 27 0
-1301 32 0
-1302 1272 1273 1298 1299 1301 0
1304 0
-1303 0
-1305 0
-1303 36 1306 0
-1303 -36 1308 0
-1304 36 1307 0
-1304 -36 1306 0
-1305 36 1308 0
-1305 -36 1307 0
-1306 -1307 0
-1306 -1308 0
-1307 -1308 0
-1306 38 1309 0
-1306 -38 1310 0
-1307 38 1310 0
-1307 -38 1311 0
-1308 38 1311 0
-1308 -38 1309 0
-1309 -1310 0
-1309 -1311 0
-1310 -1311 0
-1309 57 1312 0
-1309 -57 1313 0
-1310 57 1313 0
-1310 -57 1314 0
-1311 57 1314 0
-1311 -57 1312 0
-1312 -1313 0
-1312 -1314 0
-1313 -1314 0
-1312 63 1315 0
-1312 -63 1317 0
-1313 63 1316 0
-1313 -63 1315 0
-1314 63 1317 0
-1314 -63 1316 0
-1315 -1316 0
-1315 -1317 0
-1316 -1317 0
-1315 66 1318 0
-1315 -66 1319 0
-1316 66 1319 0
-1316 -66 1320 0
-1317 66 1320 0
-1317 -66 1318 0
-1318 -1319 0
-1318 -1320 0
-1319 -1320 0
-1318 93 1321 0
-1318 -93 1322 0
-1319 93 1322 0
-1319 -93 1323 0
-1320 93 1323 0
-1320 -93 1321 0
-1321 -1322 0
-1321 -1323 0
-1322 -1323 0
-1321 68 1324 0
-1321 -68 1325 0
-1322 68 1325 0
-1322 -68 1326 0
-1323 68 1326 0
-1323 -68 1324 0
-1324 -1325 0
-1324 -1326 0
-1325 -1326 0
-1324 70 1327 0
-1324 -70 1329 0
-1325 70 1328 0
-1325 -70 1327 0
-1326 70 1329 0
-1326 -70 1328 0
-1327 -1328 0
-1327 -1329 0
-1328 -1329 0
-1327 89 1330 0
-1327 -89 1332 0
-1328 89 1331 0
-1328 -89 1330 0
-1329 89 1332 0
-1329 -89 1331 0
-1330 -1331 0
-1330 -1332 0
-1331 -1332 0
-1330 95 1333 0
-1330 -95 1334 0
-1331 95 1334 0
-1331 -95 1335 0
-1332 95 1335 0
-1332 -95 1333 0
-1333 -1334 0
-1333 -1335 0
-1334 -1335 0
-1333 98 1336 0
-1333 -98 1338 0
-1334 98 1337 0
-1334 -98 1336 0
-1335 98 1338 0
-1335 -98 1337 0
-1336 -1337 0
-1336 -1338 0
-1337 -1338 0
-1336 125 1339 0
-1336 -125 1341 0
-1337 125 1340 0
-1337 -125 1339 0
-1338 125 1341 0
-1338 -125 1340 0
-1339 -1340 0
-1339 -1341 0
-1340 -1341 0
-1339 100 1342 0
-1339 -100 1344 0
-1340 100 1343 0
-1340 -100 1342 0
-1341 100 1344 0
-1341 -100 1343 0
-1342 -1343 0
-1342 -1344 0
-1343 -1344 0
-1342 102 1345 0
-1342 -102 1346 0
-1343 102 1346 0
-1343 -102 1347 0
-1344 102 1347 0
-1344 -102 1345 0
-1345 -1346 0
-1345 -1347 0
-1346 -1347 0
-1345 121 1348 0
-1345 -121 1349 0
-1346 121 1349 0
-1346 -121 1350 0
-1347 121 1350 0
-1347 -121 1348 0
-1348 -1349 0
-1348 -1350 0
-1349 -1350 0
-1348 127 1351 0
-1348 -127 1353 0
-1349 127 1352 0
-1349 -127 1351 0
-1350 127 1353 0
-1350 -127 1352 0
-1351 -1352 0
-1351 -1353 0
-1352 -1353 0
-1351 130 1354 0
-1351 -130 1355 0
-1352 130 1355 0
-1352 -130 1356 0
-1353 130 1356 0
-1353 -130 1354 0
-1354 -1355 0
-1354 -1356 0
-1355 -1356 0
-1354 157 1357 0
-1354 -157 1358 0
-1355 157 1358 0
-1355 -157 1359 0
-1356 157 1359 0
-1356 -157 1357 0
-1357 -1358 0
-1357 -1359 0
-1358 -1359 0
-1357 132 1360 0
-1357 -132 1361 0
-1358 132 1361 0
-1358 -132 1362 0
-1359 132 1362 0
-1359 -132 1360 0
-1360 -1361 0
-1360 -1362 0
-1361 -1362 0
-1360 134 1363 0
-1360 -134 1365 0
-1361 134 1364 0
-1361 -134 1363 0
-1362 134 1365 0
-1362 -134 1364 0
-1363 -1364 0
-1363 -1365 0
-1364 -1365 0
-1363 153 1366 0
-1363 -153 1368 0
-1364 153 1367 0
-1364 -153 1366 0
-1365 153 1368 0
-1365 -153 1367 0
-1366 -1367 0
-1366 -1368 0
-1367 -1368 0
-1366 159 1369 0
-1366 -159 1370 0
-1367 159 1370 0
-1367 -159 1371 0
-1368 159 1371 0
-1368 -159 1369 0
-1369 -1370 0
-1369 -1371 0
-1370 -1371 0
-1369 162 1372 0
-1369 -162 1374 0
-1370 162 1373 0
-1370 -162 1372 0
-1371 162 1374 0
-1371 -162 1373 0
-1372 -1373 0
-1372 -1374 0
-1373 -1374 0
-1372 189 1375 0
-1372 -189 1377 0
-1373 189 1376 0
-1373 -189 1375 0
-1374 189 1377 0
-1374 -189 1376 0
-1375 -1376 0
-1375 -1377 0
-1376 -1377 0
-1375 164 1378 0
-1375 -164 1380 0
-1376 164 1379 0
-1376 -164 1378 0
-1377 164 1380 0
-1377 -164 1379 0
-1378 -1379 0
-1378 -1380 0
-1379 -1380 0
-1378 166 1381 0
-1378 -166 1382 0
-1379 166 1382 0
-1379 -166 1383 0
-1380 166 1383 0
-1380 -166 1381 0
-1381 -1382 0
-1381 -1383 0
-1382 -1383 0
-1381 185 1384 0
-1381 -185 1385 0
-1382 185 1385 0
-1382 -185 1386 0
-1383 185 1386 0
-1383 -185 1384 0
-1384 -1385 0
-1384 -1386 0
-1385 -1386 0
-1384 191 1387 0
-1384 -191 1389 0
-1385 191 1388 0
-1385 -191 1387 0
-1386 191 1389 0
-1386 -191 1388 0
-1387 -1388 0
-1387 -1389 0
-1388 -1389 0
-1387 194 1390 0
-1387 -194 1391 0
-1388 194 1391 0
-1388 -194 1392 0
-1389 194 1392 0
-1389 -194 1390 0
-1390 -1391 0
-1390 -1392 0
-1391 -1392 0
-1390 221 1393 0
-1390 -221 1394 0
-1391 221 1394 0
-1391 -221 1395 0
-1392 221 1395 0
-1392 -221 1393 0
-1393 -1394 0
-1393 -1395 0
-1394 -1395 0
1396 0
-1397 0
-1398 0
-1396 25 1399 0
-1396 -25 1401 0
-1397 25 1400 0
-1397 -25 1399 0
-1398 25 1401 0
-1398 -25 1400 0
-1399 -1400 0
-1399 -1401 0
-1400 -1401 0
-1399 30 1402 0
-1399 -30 1404 0
-1400 30 1403 0
-1400 -30 1402 0
-1401 30 1404 0
-1401 -30 1403 0
-1402 -1403 0
-1402 -1404 0
-1403 -1404 0
-1402 32 1405 0
-1402 -32 1407 0
-1403 32 1406 0
-1403 -32 1405 0
-1404 32 1407 0
-1404 -32 1406 0
-1405 -1406 0
-1405 -1407 0
-1406 -1407 0
-1405 2 1408 0
-1405 -2 1409 0
-1406 2 1409 0
-1406 -2 1410 0
-1407 2 1410 0
-1407 -2 1408 0
-1408 -1409 0
-1408 -1410 0
-1409 -1410 0
-1408 4 1411 0
-1408 -4 1412 0
-1409 4 1412 0
-1409 -4 1413 0
-1410 4 1413 0
-1410 -4 1411 0
-1411 -1412 0
-1411 -1413 0
-1412 -1413 0
-1411 6 1414 0
-1411 -6 1416 0
-1412 6 1415 0
-1412 -6 1414 0
-1413 6 1416 0
-1413 -6 1415 0
-1414 -1415 0
-1414 -1416 0
-1415 -1416 0
-1414 61 1417 0
-1414 -61 1419 0
-1415 61 1418 0
-1415 -61 1417 0
-1416 61 1419 0
-1416 -61 1418 0
-1417 -1418 0
-1417 -1419 0
-1418 -1419 0
-1417 34 1420 0
-1417 -34 1422 0
-1418 34 1421 0
-1418 -34 1420 0
-1419 34 1422 0
-1419 -34 1421 0
-1420 -1421 0
-1420 -1422 0
-1421 -1422 0
-1423 31 0
-1423 4 0
-1424 1394 1395 1420 1421 1423 0
-1773 1425 0
-1774 1426 0
-1775 1427 0
-1776 1428 0
-1777 1429 0
-1778 1430 0
-1779 1431 0
-1780 1432 0
-1781 1433 0
-1782 1434 0
-1783 1435 0
-1784 1436 0
-1785 1437 0
-1786 1438 0
-1787 1439 0
-1788 1440 0
-1789 1441 0
-1790 1442 0
-1791 1443 0
-1792 1444 0
-1793 1445 0
-1794 1446 0
-1795 1447 0
-1796 1448 0
-1797 1449 0
-1798 1450 0
-1799 1451 0
-1800 1452 0
-1801 1453 0
-1802 1454 0
-1803 1455 0
-1804 1456 0
-1805 1457 0
-1806 1458 0
-1807 1459 0
-1808 1460 0
-1809 1461 0
-1810 1462 0
-1811 1463 0
-1812 1464 0
-1813 1465 0
-1814 1466 0
-1815 1467 0
-1816 1468 0
-1817 1469 0
-1818 1470 0
-1819 1471 0
-1820 1472 0
-1821 1473 0
-1822 1474 0
-1823 1475 0
-1824 1476 0
-1825 1477 0
-1826 1478 0
-1827 1479 0
-1828 1480 0
-1829 1481 0
-1830 1482 0
-1831 1483 0
-1832 1484 0
-1833 1485 0
-1834 1486 0
-1835 1487 0
-1836 1488 0
-1837 1489 0
-1838 1490 0
-1839 1491 0
-1840 1492 0
-1841 1493 0
-1842 1494 0
-1843 1495 0
-1844 1496 0
-1845 1497 0
-1846 1498 0
-1847 1499 0
-1848 1500 0
-1849 1501 0
-1850 1502 0
-1851 1503 0
-1852 1504 0
-1853 1505 0
-1854 1506 0
-1855 1507 0
-1856 1508 0
-1857 1509 0
-1858 1510 0
-1859 1511 0
-1860 1512 0
-1861 1513 0
-1862 1514 0
-1863 1515 0
-1864 1516 0
-1865 1517 0
-1866 1518 0
-1867 1519 0
-1868 1520 0
-1869 1521 0
-1870 1522 0
-1871 1523 0
-1872 1524 0
-1873 1525 0
-1874 1526 0
-1875 1527 0
-1876 1528 0
-1877 1529 0
-1878 1530 0
-1879 1531 0
-1880 1532 0
-1881 1533 0
-1882 1534 0
-1883 1535 0
-1884 1536 0
-1885 1537 0
-1886 1538 0
-1887 1539 0
-1888 1540 0
-1657 1425 0
-1658 1426 0
-1659 1427 0
-1660 1428 0
-1661 1429 0
-1662 1430 0
-1663 1431 0
-1664 1432 0
-1665 1433 0
-1666 1434 0
-1667 1435 0
-1668 1436 0
-1669 1437 0
-1670 1438 0
-1671 1439 0
-1672 1440 0
-1673 1441 0
-1674 1442 0
-1675 1443 0
-1676 1444 0
-1677 1445 0
-1678 1446 0
-1679 1447 0
-1680 1448 0
-1681 1449 0
-1682 1450 0
-1683 1451 0
-1684 1452 0
-1685 1453 0
-1686 1454 0
-1687 1455 0
-1688 1456 0
-1689 1457 0
-1690 1458 0
-1691 1459 0
-1692 1460 0
-1693 1461 0
-1694 1462 0
-1695 1463 0
-1696 1464 0
-1697 1465 0
-1698 1466 0
-1699 1467 0
-1700 1468 0
-1701 1469 0
-1702 1470 0
-1703 1471 0
-1704 1472 0
-1705 1473 0
-1706 1474 0
-1707 1475 0
-1708 1476 0
-1709 1477 0
-1710 1478 0
-1711 1479 0
-1712 1480 0
-1713 1481 0
-1714 1482 0
-1715 1483 0
-1716 1484 0
-1717 1485 0
-1718 1486 0
-1719 1487 0
-1720 1488 0
-1721 1489 0
-1722 1490 0
-1723 1491 0
-1724 1492 0
-1725 1493 0
-1726 1494 0
-1727 1495 0
-1728 1496 0
-1729 1497 0
-1730 1498 0
-1731 1499 0
-1732 1500 0
-1733 1501 0
-1734 1502 0
-1735 1503 0
-1736 1504 0
-1737 1505 0
-1738 1506 0
-1739 1507 0
-1740 1508 0
-1741 1509 0
-1742 1510 0
-1743 1511 0
-1744 1512 0
-1745 1513 0
-1746 1514 0
-1747 1515 0
-1748 1516 0
-1749 1517 0
-1750 1518 0
-1751 1519 0
-1752 1520 0
-1753 1521 0
-1754 1522 0
-1755 1523 0
-1756 1524 0
-1757 1525 0
-1758 1526 0
-1759 1527 0
-1760 1528 0
-1761 1529 0
-1762 1530 0
-1763 1531 0
-1764 1532 0
-1765 1533 0
-1766 1534 0
-1767 1535 0
-1768 1536 0
-1769 1537 0
-1770 1538 0
-1771 1539 0
-1772 1540 0
-1657 -1773 1426 0
-1657 -1774 1427 0
-1657 -1775 1428 0
-1657 -1776 1429 0
-1657 -1777 1430 0
-1657 -1778 1431 0
-1657 -1779 1432 0
-1657 -1780 1433 0
-1657 -1781 1434 0
-1657 -1782 1435 0
-1657 -1783 1436 0
-1657 -1784 1437 0
-1657 -1785 1438 0
-1657 -1786 1439 0
-1657 -1787 1440 0
-1657 -1788 1441 0
-1657 -1789 1442 0
-1657 -1790 1443 0
-1657 -1791 1444 0
-1657 -1792 1445 0
-1657 -1793 1446 0
-1657 -1794 1447 0
-1657 -1795 1448 0
-1657 -1796 1449 0
-1657 -1797 1450 0
-1657 -1798 1451 0
-1657 -1799 1452 0
-1657 -1800 1453 0
-1657 -1801 1454 0
-1657 -1802 1455 0
-1657 -1803 1456 0
-1657 -1804 1457 0
-1657 -1805 1458 0
-1657 -1806 1459 0
-1657 -1807 1460 0
-1657 -1808 1461 0
-1657 -1809 1462 0
-1657 -1810 1463 0
-1657 -1811 1464 0
-1657 -1812 1465 0
-1657 -1813 1466 0
-1657 -1814 1467 0
-1657 -1815 1468 0
-1657 -1816 1469 0
-1657 -1817 1470 0
-1657 -1818 1471 0
-1657 -1819 1472 0
-1657 -1820 1473 0
-1657 -1821 1474 0
-1657 -1822 1475 0
-1657 -1823 1476 0
-1657 -1824 1477 0
-1657 -1825 1478 0
-1657 -1826 1479 0
-1657 -1827 1480 0
-1657 -1828 1481 0
-1657 -1829 1482 0
-1657 -1830 1483 0
-1657 -1831 1484 0
-1657 -1832 1485 0
-1657 -1833 1486 0
-1657 -1834 1487 0
-1657 -1835 1488 0
-1657 -1836 1489 0
-1657 -1837 1490 0
-1657 -1838 1491 0
-1657 -1839 1492 0
-1657 -1840 1493 0
-1657 -1841 1494 0
-1657 -1842 1495 0
-1657 -1843 1496 0
-1657 -1844 1497 0
-1657 -1845 1498 0
-1657 -1846 1499 0
-1657 -1847 1500 0
-1657 -1848 1501 0
-1657 -1849 1502 0
-1657 -1850 1503 0
-1657 -1851 1504 0
-1657 -1852 1505 0
-1657 -1853 1506 0
-1657 -1854 1507 0
-1657 -1855 1508 0
-1657 -1856 1509 0
-1657 -1857 1510 0
-1657 -1858 1511 0
-1657 -1859 1512 0
-1657 -1860 1513 0
-1657 -1861 1514 0
-1657 -1862 1515 0
-1657 -1863 1516 0
-1657 -1864 1517 0
-1657 -1865 1518 0
-1657 -1866 1519 0
-1657 -1867 1520 0
-1657 -1868 1521 0
-1657 -1869 1522 0
-1657 -1870 1523 0
-1657 -1871 1524 0
-1657 -1872 1525 0
-1657 -1873 1526 0
-1657 -1874 1527 0
-1657 -1875 1528 0
-1657 -1876 1529 0
-1657 -1877 1530 0
-1657 -1878 1531 0
-1657 -1879 1532 0
-1657 -1880 1533 0
-1657 -1881 1534 0
-1657 -1882 1535 0
-1657 -1883 1536 0
-1657 -1884 1537 0
-1657 -1885 1538 0
-1657 -1886 1539 0
-1657 -1887 1540 0
-1657 -1888 1541 0
-1658 -1773 1427 0
-1658 -1774 1428 0
-1658 -1775 1429 0
-1658 -1776 1430 0
-1658 -1777 1431 0
-1658 -1778 1432 0
-1658 -1779 1433 0
-1658 -1780 1434 0
-1658 -1781 1435 0
-1658 -1782 1436 0
-1658 -1783 1437 0
-1658 -1784 1438 0
-1658 -1785 1439 0
-1658 -1786 1440 0
-1658 -1787 1441 0
-1658 -1788 1442 0
-1658 -1789 1443 0
-1658 -1790 1444 0
-1658 -1791 1445 0
-1658 -1792 1446 0
-1658 -1793 1447 0
-1658 -1794 1448 0
-1658 -1795 1449 0
-1658 -1796 1450 0
-1658 -1797 1451 0
-1658 -1798 1452 0
-1658 -1799 1453 0
-1658 -1800 1454 0
-1658 -1801 1455 0
-1658 -1802 1456 0
-1658 -1803 1457 0
-1658 -1804 1458 0
-1658 -1805 1459 0
-1658 -1806 1460 0
-1658 -1807 1461 0
-1658 -1808 1462 0
-1658 -1809 1463 0
-1658 -1810 1464 0
-1658 -1811 1465 0
-1658 -1812 1466 0
-1658 -1813 1467 0
-1658 -1814 1468 0
-1658 -1815 1469 0
-1658 -1816 1470 0
-1658 -1817 1471 0
-1658 -1818 1472 0
-1658 -1819 1473 0
-1658 -1820 1474 0
-1658 -1821 1475 0
-1658 -1822 1476 0
-1658 -1823 1477 0
-1658 -1824 1478 0
-1658 -1825 1479 0
-1658 -1826 1480 0
-1658 -1827 1481 0
-1658 -1828 1482 0
-1658 -1829 1483 0
-1658 -1830 1484 0
-1658 -1831 1485 0
-1658 -1832 1486 0
-1658 -1833 1487 0
-1658 -1834 1488 0
-1658 -1835 1489 0
-1658 -1836 1490 0
-1658 -1837 1491 0
-1658 -1838 1492 0
-1658 -1839 1493 0
-1658 -1840 1494 0
-1658 -1841 1495 0
-1658 -1842 1496 0
-1658 -1843 1497 0
-1658 -1844 1498 0
-1658 -1845 1499 0
-1658 -1846 1500 0
-1658 -1847 1501 0
-1658 -1848 1502 0
-1658 -1849 1503 0
-1658 -1850 1504 0
-1658 -1851 1505 0
-1658 -1852 1506 0
-1658 -1853 1507 0
-1658 -1854 1508 0
-1658 -1855 1509 0
-1658 -1856 1510 0
-1658 -1857 1511 0
-1658 -1858 1512 0
-1658 -1859 1513 0
-1658 -1860 1514 0
-1658 -1861 1515 0
-1658 -1862 1516 0
-1658 -1863 1517 0
-1658 -1864 1518 0
-1658 -1865 1519 0
-1658 -1866 1520 0
-1658 -1867 1521 0
-1658 -1868 1522 0
-1658 -1869 1523 0
-1658 -1870 1524 0
-1658 -1871 1525 0
-1658 -1872 1526 0
-1658 -1873 1527 0
-1658 -1874 1528 0
-1658 -1875 1529 0
-1658 -1876 1530 0
-1658 -1877 1531 0
-1658 -1878 1532 0
-1658 -1879 1533 0
-1658 -1880 1534 0
-1658 -1881 1535 0
-1658 -1882 1536 0
-1658 -1883 1537 0
-1658 -1884 1538 0
-1658 -1885 1539 0
-1658 -1886 1540 0
-1658 -1887 1541 0
-1658 -1888 1542 0
-1659 -1773 1428 0
-1659 -1774 1429 0
-1659 -1775 1430 0
-1659 -1776 1431 0
-1659 -1777 1432 0
-1659 -1778 1433 0
-1659 -1779 1434 0
-1659 -1780 1435 0
-1659 -1781 1436 0
-1659 -1782 1437 0
-1659 -1783 1438 0
-1659 -1784 1439 0
-1659 -1785 1440 0
-1659 -1786 1441 0
-1659 -1787 1442 0
-1659 -1788 1443 0
-1659 -1789 1444 0
-1659 -1790 1445 0
-1659 -1791 1446 0
-1659 -1792 1447 0
-1659 -1793 1448 0
-1659 -1794 1449 0
-1659 -1795 1450 0
-1659 -1796 1451 0
-1659 -1797 1452 0
-1659 -1798 1453 0
-1659 -1799 1454 0
-1659 -1800 1455 0
-1659 -1801 1456 0
-1659 -1802 1457 0
-1659 -1803 1458 0
-1659 -1804 1459 0
-1659 -1805 1460 0
-1659 -1806 1461 0
-1659 -1807 1462 0
-1659 -1808 1463 0
-1659 -1809 1464 0
-1659 -1810 1465 0
-1659 -1811 1466 0
-1659 -1812 1467 0
-1659 -1813 1468 0
-1659 -1814 1469 0
-1659 -1815 1470 0
-1659 -1816 1471 0
-1659 -1817 1472 0
-1659 -1818 1473 0
-1659 -1819 1474 0
-1659 -1820 1475 0
-1659 -1821 1476 0
-1659 -1822 1477 0
-1659 -1823 1478 0
-1659 -1824 1479 0
-1659 -1825 1480 0
-1659 -1826 1481 0
-1659 -1827 1482 0
-1659 -1828 1483 0
-1659 -1829 1484 0
-1659 -1830 1485 0
-1659 -1831 1486 0
-1659 -1832 1487 0
-1659 -1833 1488 0
-1659 -1834 1489 0
-1659 -1835 1490 0
-1659 -1836 1491 0
-1659 -1837 1492 0
-1659 -1838 1493 0
-1659 -1839 1494 0
-1659 -1840 1495 0
-1659 -1841 1496 0
-1659 -1842 1497 0
-1659 -1843 1498 0
-1659 -1844 1499 0
-1659 -1845 1500 0
-1659 -1846 1501 0
-1659 -1847 1502 0
-1659 -1848 1503 0
-1659 -1849 1504 0
-1659 -1850 1505 0
-1659 -1851 1506 0
-1659 -1852 1507 0
-1659 -1853 1508 0
-1659 -1854 1509 0
-1659 -1855 1510 0
-1659 -1856 1511 0
-1659 -1857 1512 0
-1659 -1858 1513 0
-1659 -1859 1514 0
-1659 -1860 1515 0
-1659 -1861 1516 0
-1659 -1862 1517 0
-1659 -1863 1518 0
-1659 -1864 1519 0
-1659 -1865 1520 0
-1659 -1866 1521 0
-1659 -1867 1522 0
-1659 -1868 1523 0
-1659 -1869 1524 0
-1659 -1870 1525 0
-1659 -1871 1526 0
-1659 -1872 1527 0
-1659 -1873 1528 0
-1659 -1874 1529 0
-1659 -1875 1530 0
-1659 -1876 1531 0
-1659 -1877 1532 0
-1659 -1878 1533 0
-1659 -1879 1534 0
-1659 -1880 1535 0
-1659 -1881 1536 0
-1659 -1882 1537 0
-1659 -1883 1538 0
-1659 -1884 1539 0
-1659 -1885 1540 0
-1659 -1886 1541 0
-1659 -1887 1542 0
-1659 -1888 1543 0
-1660 -1773 1429 0
-1660 -1774 1430 0
-1660 -1775 1431 0
-1660 -1776 1432 0
-1660 -1777 1433 0
-1660 -1778 1434 0
-1660 -1779 1435 0
-1660 -1780 1436 0
-1660 -1781 1437 0
-1660 -1782 1438 0
-1660 -1783 1439 0
-1660 -1784 1440 0
-1660 -1785 1441 0
-1660 -1786 1442 0
-1660 -1787 1443 0
-1660 -1788 1444 0
-1660 -1789 1445 0
-1660 -1790 1446 0
-1660 -1791 1447 0
-1660 -1792 1448 0
-1660 -1793 1449 0
-1660 -1794 1450 0
-1660 -1795 1451 0
-1660 -1796 1452 0
-1660 -1797 1453 0
-1660 -1798 1454 0
-1660 -1799 1455 0
-1660 -1800 1456 0
-1660 -1801 1457 0
-1660 -1802 1458 0
-1660 -1803 1459 0
-1660 -1804 1460 0
-1660 -1805 1461 0
-1660 -1806 1462 0
-1660 -1807 1463 0
-1660 -1808 1464 0
-1660 -1809 1465 0
-1660 -1810 1466 0
-1660 -1811 1467 0
-1660 -1812 1468 0
-1660 -1813 1469 0
-1660 -1814 1470 0
-1660 -1815 1471 0
-1660 -1816 1472 0
-1660 -1817 1473 0
-1660 -1818 1474 0
-1660 -1819 1475 0
-1660 -1820 1476 0
-1660 -1821 1477 0
-1660 -1822 1478 0
-1660 -1823 1479 0
-1660 -1824 1480 0
-1660 -1825 1481 0
-1660 -1826 1482 0
-1660 -1827 1483 0
-1660 -1828 1484 0
-1660 -1829 1485 0
-1660 -1830 1486 0
-1660 -1831 1487 0
-1660 -1832 1488 0
-1660 -1833 1489 0
-1660 -1834 1490 0
-1660 -1835 1491 0
-1660 -1836 1492 0
-1660 -1837 1493 0
-1660 -1838 1494 0
-1660 -1839 1495 0
-1660 -1840 1496 0
-1660 -1841 1497 0
-1660 -1842 1498 0
-1660 -1843 1499 0
-1660 -1844 1500 0
-1660 -1845 1501 0
-1660 -1846 1502 0
-1660 -1847 1503 0
-1660 -1848 1504 0
-1660 -1849 1505 0
-1660 -1850 1506 0
-1660 -1851 1507 0
-1660 -1852 1508 0
-1660 -1853 1509 0
-1660 -1854 1510 0
-1660 -1855 1511 0
-1660 -1856 1512 0
-1660 -1857 1513 0
-1660 -1858 1514 0
-1660 -1859 1515 0
-1660 -1860 1516 0
-1660 -1861 1517 0
-1660 -1862 1518 0
-1660 -1863 1519 0
-1660 -1864 1520 0
-1660 -1865 1521 0
-1660 -1866 1522 0
-1660 -1867 1523 0
-1660 -1868 1524 0
-1660 -1869 1525 0
-1660 -1870 1526 0
-1660 -1871 1527 0
-1660 -1872 1528 0
-1660 -1873 1529 0
-1660 -1874 1530 0
-1660 -1875 1531 0
-1660 -1876 1532 0
-1660 -1877 1533 0
-1660 -1878 1534 0
-1660 -1879 1535 0
-1660 -1880 1536 0
-1660 -1881 1537 0
-1660 -1882 1538 0
-1660 -1883 1539 0
-1660 -1884 1540 0
-1660 -1885 1541 0
-1660 -1886 1542 0
-1660 -1887 1543 0
-1660 -1888 1544 0
-1661 -1773 1430 0
-1661 -1774 1431 0
-1661 -1775 1432 0
-1661 -1776 1433 0
-1661 -1777 1434 0
-1661 -1778 1435 0
-1661 -1779 1436 0
-1661 -1780 1437 0
-1661 -1781 1438 0
-1661 -1782 1439 0
-1661 -1783 1440 0
-1661 -1784 1441 0
-1661 -1785 1442 0
-1661 -1786 1443 0
-1661 -1787 1444 0
-1661 -1788 1445 0
-1661 -1789 1446 0
-1661 -1790 1447 0
-1661 -1791 1448 0
-1661 -1792 1449 0
-1661 -1793 1450 0
-1661 -1794 1451 0
-1661 -1795 1452 0
-1661 -1796 1453 0
-1661 -1797 1454 0
-1661 -1798 1455 0
-1661 -1799 1456 0
-1661 -1800 1457 0
-1661 -1801 1458 0
-1661 -1802 1459 0
-1661 -1803 1460 0
-1661 -1804 1461 0
-1661 -1805 1462 0
-1661 -1806 1463 0
-1661 -1807 1464 0
-1661 -1808 1465 0
-1661 -1809 1466 0
-1661 -1810 1467 0
-1661 -1811 1468 0
-1661 -1812 1469 0
-1661 -1813 1470 0
-1661 -1814 1471 0
-1661 -1815 1472 0
-1661 -1816 1473 0
-1661 -1817 1474 0
-1661 -1818 1475 0
-1661 -1819 1476 0
-1661 -1820 1477 0
-1661 -1821 1478 0
-1661 -1822 1479 0
-1661 -1823 1480 0
-1661 -1824 1481 0
-1661 -1825 1482 0
-1661 -1826 1483 0
-1661 -1827 1484 0
-1661 -1828 1485 0
-1661 -1829 1486 0
-1661 -1830 1487 0
-1661 -1831 1488 0
-1661 -1832 1489 0
-1661 -1833 1490 0
-1661 -1834 1491 0
-1661 -1835 1492 0
-1661 -1836 1493 0
-1661 -1837 1494 0
-1661 -1838 1495 0
-1661 -1839 1496 0
-1661 -1840 1497 0
-1661 -1841 1498 0
-1661 -1842 1499 0
-1661 -1843 1500 0
-1661 -1844 1501 0
-1661 -1845 1502 0
-1661 -1846 1503 0
-1661 -1847 1504 0
-1661 -1848 1505 0
-1661 -1849 1506 0
-1661 -1850 1507 0
-1661 -1851 1508 0
-1661 -1852 1509 0
-1661 -1853 1510 0
-1661 -1854 1511 0
-1661 -1855 1512 0
-1661 -1856 1513 0
-1661 -1857 1514 0
-1661 -1858 1515 0
-1661 -1859 1516 0
-1661 -1860 1517 0
-1661 -1861 1518 0
-1661 -1862 1519 0
-1661 -1863 1520 0
-1661 -1864 1521 0
-1661 -1865 1522 0
-1661 -1866 1523 0
-1661 -1867 1524 0
-1661 -1868 1525 0
-1661 -1869 1526 0
-1661 -1870 1527 0
-1661 -1871 1528 0
-1661 -1872 1529 0
-1661 -1873 1530 0
-1661 -1874 1531 0
-1661 -1875 1532 0
-1661 -1876 1533 0
-1661 -1877 1534 0
-1661 -1878 1535 0
-1661 -1879 1536 0
-1661 -1880 1537 0
-1661 -1881 1538 0
-1661 -1882 1539 0
-1661 -1883 1540 0
-1661 -1884 1541 0
-1661 -1885 1542 0
-1661 -1886 1543 0
-1661 -1887 1544 0
-1661 -1888 1545 0
-1662 -1773 1431 0
-1662 -1774 1432 0
-1662 -1775 1433 0
-1662 -1776 1434 0
-1662 -1777 1435 0
-1662 -1778 1436 0
-1662 -1779 1437 0
-1662 -1780 1438 0
-1662 -1781 1439 0
-1662 -1782 1440 0
-1662 -1783 1441 0
-1662 -1784 1442 0
-1662 -1785 1443 0
-1662 -1786 1444 0
-1662 -1787 1445 0
-1662 -1788 1446 0
-1662 -1789 1447 0
-1662 -1790 1448 0
-1662 -1791 1449 0
-1662 -1792 1450 0
-1662 -1793 1451 0
-1662 -1794 1452 0
-1662 -1795 1453 0
-1662 -1796 1454 0
-1662 -1797 1455 0
-1662 -1798 1456 0
-1662 -1799 1457 0
-1662 -1800 1458 0
-1662 -1801 1459 0
-1662 -1802 1460 0
-1662 -1803 1461 0
-1662 -1804 1462 0
-1662 -1805 1463 0
-1662 -1806 1464 0
-1662 -1807 1465 0
-1662 -1808 1466 0
-1662 -1809 1467 0
-1662 -1810 1468 0
-1662 -1811 1469 0
-1662 -1812 1470 0
-1662 -1813 1471 0
-1662 -1814 1472 0
-1662 -1815 1473 0
-1662 -1816 1474 0
-1662 -1817 1475 0
-1662 -1818 1476 0
-1662 -1819 1477 0
-1662 -1820 1478 0
-1662 -1821 1479 0
-1662 -1822 1480 0
-1662 -1823 1481 0
-1662 -1824 1482 0
-1662 -1825 1483 0
-1662 -1826 1484 0
-1662 -1827 1485 0
-1662 -1828 1486 0
-1662 -1829 1487 0
-1662 -1830 1488 0
-1662 -1831 1489 0
-1662 -1832 1490 0
-1662 -1833 1491 0
-1662 -1834 1492 0
-1662 -1835 1493 0
-1662 -1836 1494 0
-1662 -1837 1495 0
-1662 -1838 1496 0
-1662 -1839 1497 0
-1662 -1840 1498 0
-1662 -1841 1499 0
-1662 -1842 1500 0
-1662 -1843 1501 0
-1662 -1844 1502 0
-1662 -1845 1503 0
-1662 -1846 1504 0
-1662 -1847 1505 0
-1662 -1848 1506 0
-1662 -1849 1507 0
-1662 -1850 1508 0
-1662 -1851 1509 0
-1662 -1852 1510 0
-1662 -1853 1511 0
-1662 -1854 1512 0
-1662 -1855 1513 0
-1662 -1856 1514 0
-1662 -1857 1515 0
-1662 -1858 1516 0
-1662 -1859 1517 0
-1662 -1860 1518 0
-1662 -1861 1519 0
-1662 -1862 1520 0
-1662 -1863 1521 0
-1662 -1864 1522 0
-1662 -1865 1523 0
-1662 -1866 1524 0
-1662 -1867 1525 0
-1662 -1868 1526 0
-1662 -1869 1527 0
-1662 -1870 1528 0
-1662 -1871 1529 0
-1662 -1872 1530 0
-1662 -1873 1531 0
-1662 -1874 1532 0
-1662 -1875 1533 0
-1662 -1876 1534 0
-1662 -1877 1535 0
-1662 -1878 1536 0
-1662 -1879 1537 0
-1662 -1880 1538 0
-1662 -1881 1539 0
-1662 -1882 1540 0
-1662 -1883 1541 0
-1662 -1884 1542 0
-1662 -1885 1543 0
-1662 -1886 1544 0
-1662 -1887 1545 0
-1662 -1888 1546 0
-1663 -1773 1432 0
-1663 -1774 1433 0
-1663 -1775 1434 0
-1663 -1776 1435 0
-1663 -1777 1436 0
-1663 -1778 1437 0
-1663 -1779 1438 0
-1663 -1780 1439 0
-1663 -1781 1440 0
-1663 -1782 1441 0
-1663 -1783 1442 0
-1663 -1784 1443 0
-1663 -1785 1444 0
-1663 -1786 1445 0
-1663 -1787 1446 0
-1663 -1788 1447 0
-1663 -1789 1448 0
-1663 -1790 1449 0
-1663 -1791 1450 0
-1663 -1792 1451 0
-1663 -1793 1452 0
-1663 -1794 1453 0
-1663 -1795 1454 0
-1663 -1796 1455 0
-1663 -1797 1456 0
-1663 -1798 1457 0
-1663 -1799 1458 0
-1663 -1800 1459 0
-1663 -1801 1460 0
-1663 -1802 1461 0
-1663 -1803 1462 0
-1663 -1804 1463 0
-1663 -1805 1464 0
-1663 -1806 1465 0
-1663 -1807 1466 0
-1663 -1808 1467 0
-1663 -1809 1468 0
-1663 -1810 1469 0
-1663 -1811 1470 0
-1663 -1812 1471 0
-1663 -1813 1472 0
-1663 -1814 1473 0
-1663 -1815 1474 0
-1663 -1816 1475 0
-1663 -1817 1476 0
-1663 -1818 1477 0
-1663 -1819 1478 0
-1663 -1820 1479 0
-1663 -1821 1480 0
-1663 -1822 1481 0
-1663 -1823 1482 0
-1663 -1824 1483 0
-1663 -1825 1484 0
-1663 -1826 1485 0
-1663 -1827 1486 0
-1663 -1828 1487 0
-1663 -1829 1488 0
-1663 -1830 1489 0
-1663 -1831 1490 0
-1663 -1832 1491 0
-1663 -1833 1492 0
-1663 -1834 1493 0
-1663 -1835 1494 0
-1663 -1836 1495 0
-1663 -1837 1496 0
-1663 -1838 1497 0
-1663 -1839 1498 0
-1663 -1840 1499 0
-1663 -1841 1500 0
-1663 -1842 1501 0
-1663 -1843 1502 0
-1663 -1844 1503 0
-1663 -1845 1504 0
-1663 -1846 1505 0
-1663 -1847 1506 0
-1663 -1848 1507 0
-1663 -1849 1508 0
-1663 -1850 1509 0
-1663 -1851 1510 0
-1663 -1852 1511 0
-1663 -1853 1512 0
-1663 -1854 1513 0
-1663 -1855 1514 0
-1663 -1856 1515 0
-1663 -1857 1516 0
-1663 -1858 1517 0
-1663 -1859 1518 0
-1663 -1860 1519 0
-1663 -1861 1520 0
-1663 -1862 1521 0
-1663 -1863 1522 0
-1663 -1864 1523 0
-1663 -1865 1524 0
-1663 -1866 1525 0
-1663 -1867 1526 0
-1663 -1868 1527 0
-1663 -1869 1528 0
-1663 -1870 1529 0
-1663 -1871 1530 0
-1663 -1872 1531 0
-1663 -1873 1532 0
-1663 -1874 1533 0
-1663 -1875 1534 0
-1663 -1876 1535 0
-1663 -1877 1536 0
-1663 -1878 1537 0
-1663 -1879 1538 0
-1663 -1880 1539 0
-1663 -1881 1540 0
-1663 -1882 1541 0
-1663 -1883 1542 0
-1663 -1884 1543 0
-1663 -1885 1544 0
-1663 -1886 1545 0
-1663 -1887 1546 0
-1663 -1888 1547 0
-1664 -1773 1433 0
-1664 -1774 1434 0
-1664 -1775 1435 0
-1664 -1776 1436 0
-1664 -1777 1437 0
-1664 -1778 1438 0
-1664 -1779 1439 0
-1664 -1780 1440 0
-1664 -1781 1441 0
-1664 -1782 1442 0
-1664 -1783 1443 0
-1664 -1784 1444 0
-1664 -1785 1445 0
-1664 -1786 1446 0
-1664 -1787 1447 0
-1664 -1788 1448 0
-1664 -1789 1449 0
-1664 -1790 1450 0
-1664 -1791 1451 0
-1664 -1792 1452 0
-1664 -1793 1453 0
-1664 -1794 1454 0
-1664 -1795 1455 0
-1664 -1796 1456 0
-1664 -1797 1457 0
-1664 -1798 1458 0
-1664 -1799 1459 0
-1664 -1800 1460 0
-1664 -1801 1461 0
-1664 -1802 1462 0
-1664 -1803 1463 0
-1664 -1804 1464 0
-1664 -1805 1465 0
-1664 -1806 1466 0
-1664 -1807 1467 0
-1664 -1808 1468 0
-1664 -1809 1469 0
-1664 -1810 1470 0
-1664 -1811 1471 0
-1664 -1812 1472 0
-1664 -1813 1473 0
-1664 -1814 1474 0
-1664 -1815 1475 0
-1664 -1816 1476 0
-1664 -1817 1477 0
-1664 -1818 1478 0
-1664 -1819 1479 0
-1664 -1820 1480 0
-1664 -1821 1481 0
-1664 -1822 1482 0
-1664 -1823 1483 0
-1664 -1824 1484 0
-1664 -1825 1485 0
-1664 -1826 1486 0
-1664 -1827 1487 0
-1664 -1828 1488 0
-1664 -1829 1489 0
-1664 -1830 1490 0
-1664 -1831 1491 0
-1664 -1832 1492 0
-1664 -1833 1493 0
-1664 -1834 1494 0
-1664 -1835 1495 0
-1664 -1836 1496 0
-1664 -1837 1497 0
-1664 -1838 1498 0
-1664 -1839 1499 0
-1664 -1840 1500 0
-1664 -1841 1501 0
-1664 -1842 1502 0
-1664 -1843 1503 0
-1664 -1844 1504 0
-1664 -1845 1505 0
-1664 -1846 1506 0
-1664 -1847 1507 0
-1664 -1848 1508 0
-1664 -1849 1509 0
-1664 -1850 1510 0
-1664 -1851 1511 0
-1664 -1852 1512 0
-1664 -1853 1513 0
-1664 -1854 1514 0
-1664 -1855 1515 0
-1664 -1856 1516 0
-1664 -1857 1517 0
-1664 -1858 1518 0
-1664 -1859 1519 0
-1664 -1860 1520 0
-1664 -1861 1521 0
-1664 -1862 1522 0
-1664 -1863 1523 0
-1664 -1864 1524 0
-1664 -1865 1525 0
-1664 -1866 1526 0
-1664 -1867 1527 0
-1664 -1868 1528 0
-1664 -1869 1529 0
-1664 -1870 1530 0
-1664 -1871 1531 0
-1664 -1872 1532 0
-1664 -1873 1533 0
-1664 -1874 1534 0
-1664 -1875 1535 0
-1664 -1876 1536 0
-1664 -1877 1537 0
-1664 -1878 1538 0
-1664 -1879 1539 0
-1664 -1880 1540 0
-1664 -1881 1541 0
-1664 -1882 1542 0
-1664 -1883 1543 0
-1664 -1884 1544 0
-1664 -1885 1545 0
-1664 -1886 1546 0
-1664 -1887 1547 0
-1664 -1888 1548 0
-1665 -1773 1434 0
-1665 -1774 1435 0
-1665 -1775 1436 0
-1665 -1776 1437 0
-1665 -1777 1438 0
-1665 -1778 1439 0
-1665 -1779 1440 0
-1665 -1780 1441 0
-1665 -1781 1442 0
-1665 -1782 1443 0
-1665 -1783 1444 0
-1665 -1784 1445 0
-1665 -1785 1446 0
-1665 -1786 1447 0
-1665 -1787 1448 0
-1665 -1788 1449 0
-1665 -1789 1450 0
-1665 -1790 1451 0
-1665 -1791 1452 0
-1665 -1792 1453 0
-1665 -1793 1454 0
-1665 -1794 1455 0
-1665 -1795 1456 0
-1665 -1796 1457 0
-1665 -1797 1458 0
-1665 -1798 1459 0
-1665 -1799 1460 0
-1665 -1800 1461 0
-1665 -1801 1462 0
-1665 -1802 1463 0
-1665 -1803 1464 0
-1665 -1804 1465 0
-1665 -1805 1466 0
-1665 -1806 1467 0
-1665 -1807 1468 0
-1665 -1808 1469 0
-1665 -1809 1470 0
-1665 -1810 1471 0
-1665 -1811 1472 0
-1665 -1812 1473 0
-1665 -1813 1474 0
-1665 -1814 1475 0
-1665 -1815 1476 0
-1665 -1816 1477 0
-1665 -1817 1478 0
-1665 -1818 1479 0
-1665 -1819 1480 0
-1665 -1820 1481 0
-1665 -1821 1482 0
-1665 -1822 1483 0
-1665 -1823 1484 0
-1665 -1824 1485 0
-1665 -1825 1486 0
-1665 -1826 1487 0
-1665 -1827 1488 0
-1665 -1828 1489 0
-1665 -1829 1490 0
-1665 -1830 1491 0
-1665 -1831 1492 0
-1665 -1832 1493 0
-1665 -1833 1494 0
-1665 -1834 1495 0
-1665 -1835 1496 0
-1665 -1836 1497 0
-1665 -1837 1498 0
-1665 -1838 1499 0
-1665 -1839 1500 0
-1665 -1840 1501 0
-1665 -1841 1502 0
-1665 -1842 1503 0
-1665 -1843 1504 0
-1665 -1844 1505 0
-1665 -1845 1506 0
-1665 -1846 1507 0
-1665 -1847 1508 0
-1665 -1848 1509 0
-1665 -1849 1510 0
-1665 -1850 1511 0
-1665 -1851 1512 0
-1665 -1852 1513 0
-1665 -1853 1514 0
-1665 -1854 1515 0
-1665 -1855 1516 0
-1665 -1856 1517 0
-1665 -1857 1518 0
-1665 -1858 1519 0
-1665 -1859 1520 0
-1665 -1860 1521 0
-1665 -1861 1522 0
-1665 -1862 1523 0
-1665 -1863 1524 0
-1665 -1864 1525 0
-1665 -1865 1526 0
-1665 -1866 1527 0
-1665 -1867 1528 0
-1665 -1868 1529 0
-1665 -1869 1530 0
-1665 -1870 1531 0
-1665 -1871 1532 0
-1665 -1872 1533 0
-1665 -1873 1534 0
-1665 -1874 1535 0
-1665 -1875 1536 0
-1665 -1876 1537 0
-1665 -1877 1538 0
-1665 -1878 1539 0
-1665 -1879 1540 0
-1665 -1880 1541 0
-1665 -1881 1542 0
-1665 -1882 1543 0
-1665 -1883 1544 0
-1665 -1884 1545 0
-1665 -1885 1546 0
-1665 -1886 1547 0
-1665 -1887 1548 0
-1665 -1888 1549 0
-1666 -1773 1435 0
-1666 -1774 1436 0
-1666 -1775 1437 0
-1666 -1776 1438 0
-1666 -1777 1439 0
-1666 -1778 1440 0
-1666 -1779 1441 0
-1666 -1780 1442 0
-1666 -1781 1443 0
-1666 -1782 1444 0
-1666 -1783 1445 0
-1666 -1784 1446 0
-1666 -1785 1447 0
-1666 -1786 1448 0
-1666 -1787 1449 0
-1666 -1788 1450 0
-1666 -1789 1451 0
-1666 -1790 1452 0
-1666 -1791 1453 0
-1666 -1792 1454 0
-1666 -1793 1455 0
-1666 -1794 1456 0
-1666 -1795 1457 0
-1666 -1796 1458 0
-1666 -1797 1459 0
-1666 -1798 1460 0
-1666 -1799 1461 0
-1666 -1800 1462 0
-1666 -1801 1463 0
-1666 -1802 1464 0
-1666 -1803 1465 0
-1666 -1804 1466 0
-1666 -1805 1467 0
-1666 -1806 1468 0
-1666 -1807 1469 0
-1666 -1808 1470 0
-1666 -1809 1471 0
-1666 -1810 1472 0
-1666 -1811 1473 0
-1666 -1812 1474 0
-1666 -1813 1475 0
-1666 -1814 1476 0
-1666 -1815 1477 0
-1666 -1816 1478 0
-1666 -1817 1479 0
-1666 -1818 1480 0
-1666 -1819 1481 0
-1666 -1820 1482 0
-1666 -1821 1483 0
-1666 -1822 1484 0
-1666 -1823 1485 0
-1666 -1824 1486 0
-1666 -1825 1487 0
-1666 -1826 1488 0
-1666 -1827 1489 0
-1666 -1828 1490 0
-1666 -1829 1491 0
-1666 -1830 1492 0
-1666 -1831 1493 0
-1666 -1832 1494 0
-1666 -1833 1495 0
-1666 -1834 1496 0
-1666 -1835 1497 0
-1666 -1836 1498 0
-1666 -1837 1499 0
-1666 -1838 1500 0
-1666 -1839 1501 0
-1666 -1840 1502 0
-1666 -1841 1503 0
-1666 -1842 1504 0
-1666 -1843 1505 0
-1666 -1844 1506 0
-1666 -1845 1507 0
-1666 -1846 1508 0
-1666 -1847 1509 0
-1666 -1848 1510 0
-1666 -1849 1511 0
-1666 -1850 1512 0
-1666 -1851 1513 0
-1666 -1852 1514 0
-1666 -1853 1515 0
-1666 -1854 1516 0
-1666 -1855 1517 0
-1666 -1856 1518 0
-1666 -1857 1519 0
-1666 -1858 1520 0
-1666 -1859 1521 0
-1666 -1860 1522 0
-1666 -1861 1523 0
-1666 -1862 1524 0
-1666 -1863 1525 0
-1666 -1864 1526 0
-1666 -1865 1527 0
-1666 -1866 1528 0
-1666 -1867 1529 0
-1666 -1868 1530 0
-1666 -1869 1531 0
-1666 -1870 1532 0
-1666 -1871 1533 0
-1666 -1872 1534 0
-1666 -1873 1535 0
-1666 -1874 1536 0
-1666 -1875 1537 0
-1666 -1876 1538 0
-1666 -1877 1539 0
-1666 -1878 1540 0
-1666 -1879 1541 0
-1666 -1880 1542 0
-1666 -1881 1543 0
-1666 -1882 1544 0
-1666 -1883 1545 0
-1666 -1884 1546 0
-1666 -1885 1547 0
-1666 -1886 1548 0
-1666 -1887 1549 0
-1666 -1888 1550 0
-1667 -1773 1436 0
-1667 -1774 1437 0
-1667 -1775 1438 0
-1667 -1776 1439 0
-1667 -1777 1440 0
-1667 -1778 1441 0
-1667 -1779 1442 0
-1667 -1780 1443 0
-1667 -1781 1444 0
-1667 -1782 1445 0
-1667 -1783 1446 0
-1667 -1784 1447 0
-1667 -1785 1448 0
-1667 -1786 1449 0
-1667 -1787 1450 0
-1667 -1788 1451 0
-1667 -1789 1452 0
-1667 -1790 1453 0
-1667 -1791 1454 0
-1667 -1792 1455 0
-1667 -1793 1456 0
-1667 -1794 1457 0
-1667 -1795 1458 0
-1667 -1796 1459 0
-1667 -1797 1460 0
-1667 -1798 1461 0
-1667 -1799 1462 0
-1667 -1800 1463 0
-1667 -1801 1464 0
-1667 -1802 1465 0
-1667 -1803 1466 0
-1667 -1804 1467 0
-1667 -1805 1468 0
-1667 -1806 1469 0
-1667 -1807 1470 0
-1667 -1808 1471 0
-1667 -1809 1472 0
-1667 -1810 1473 0
-1667 -1811 1474 0
-1667 -1812 1475 0
-1667 -1813 1476 0
-1667 -1814 1477 0
-1667 -1815 1478 0
-1667 -1816 1479 0
-1667 -1817 1480 0
-1667 -1818 1481 0
-1667 -1819 1482 0
-1667 -1820 1483 0
-1667 -1821 1484 0
-1667 -1822 1485 0
-1667 -1823 1486 0
-1667 -1824 1487 0
-1667 -1825 1488 0
-1667 -1826 1489 0
-1667 -1827 1490 0
-1667 -1828 1491 0
-1667 -1829 1492 0
-1667 -1830 1493 0
-1667 -1831 1494 0
-1667 -1832 1495 0
-1667 -1833 1496 0
-1667 -1834 1497 0
-1667 -1835 1498 0
-1667 -1836 1499 0
-1667 -1837 1500 0
-1667 -1838 1501 0
-1667 -1839 1502 0
-1667 -1840 1503 0
-1667 -1841 1504 0
-1667 -1842 1505 0
-1667 -1843 1506 0
-1667 -1844 1507 0
-1667 -1845 1508 0
-1667 -1846 1509 0
-1667 -1847 1510 0
-1667 -1848 1511 0
-1667 -1849 1512 0
-1667 -1850 1513 0
-1667 -1851 1514 0
-1667 -1852 1515 0
-1667 -1853 1516 0
-1667 -1854 1517 0
-1667 -1855 1518 0
-1667 -1856 1519 0
-1667 -1857 1520 0
-1667 -1858 1521 0
-1667 -1859 1522 0
-1667 -1860 1523 0
-1667 -1861 1524 0
-1667 -1862 1525 0
-1667 -1863 1526 0
-1667 -1864 1527 0
-1667 -1865 1528 0
-1667 -1866 1529 0
-1667 -1867 1530 0
-1667 -1868 1531 0
-1667 -1869 1532 0
-1667 -1870 1533 0
-1667 -1871 1534 0
-1667 -1872 1535 0
-1667 -1873 1536 0
-1667 -1874 1537 0
-1667 -1875 1538 0
-1667 -1876 1539 0
-1667 -1877 1540 0
-1667 -1878 1541 0
-1667 -1879 1542 0
-1667 -1880 1543 0
-1667 -1881 1544 0
-1667 -1882 1545 0
-1667 -1883 1546 0
-1667 -1884 1547 0
-1667 -1885 1548 0
-1667 -1886 1549 0
-1667 -1887 1550 0
-1667 -1888 1551 0
-1668 -1773 1437 0
-1668 -1774 1438 0
-1668 -1775 1439 0
-1668 -1776 1440 0
-1668 -1777 1441 0
-1668 -1778 1442 0
-1668 -1779 1443 0
-1668 -1780 1444 0
-1668 -1781 1445 0
-1668 -1782 1446 0
-1668 -1783 1447 0
-1668 -1784 1448 0
-1668 -1785 1449 0
-1668 -1786 1450 0
-1668 -1787 1451 0
-1668 -1788 1452 0
-1668 -1789 1453 0
-1668 -1790 1454 0
-1668 -1791 1455 0
-1668 -1792 1456 0
-1668 -1793 1457 0
-1668 -1794 1458 0
-1668 -1795 1459 0
-1668 -1796 1460 0
-1668 -1797 1461 0
-1668 -1798 1462 0
-1668 -1799 1463 0
-1668 -1800 1464 0
-1668 -1801 1465 0
-1668 -1802 1466 0
-1668 -1803 1467 0
-1668 -1804 1468 0
-1668 -1805 1469 0
-1668 -1806 1470 0
-1668 -1807 1471 0
-1668 -1808 1472 0
-1668 -1809 1473 0
-1668 -1810 1474 0
-1668 -1811 1475 0
-1668 -1812 1476 0
-1668 -1813 1477 0
-1668 -1814 1478 0
-1668 -1815 1479 0
-1668 -1816 1480 0
-1668 -1817 1481 0
-1668 -1818 1482 0
-1668 -1819 1483 0
-1668 -1820 1484 0
-1668 -1821 1485 0
-1668 -1822 1486 0
-1668 -1823 1487 0
-1668 -1824 1488 0
-1668 -1825 1489 0
-1668 -1826 1490 0
-1668 -1827 1491 0
-1668 -1828 1492 0
-1668 -1829 1493 0
-1668 -1830 1494 0
-1668 -1831 1495 0
-1668 -1832 1496 0
-1668 -1833 1497 0
-1668 -1834 1498 0
-1668 -1835 1499 0
-1668 -1836 1500 0
-1668 -1837 1501 0
-1668 -1838 1502 0
-1668 -1839 1503 0
-1668 -1840 1504 0
-1668 -1841 1505 0
-1668 -1842 1506 0
-1668 -1843 1507 0
-1668 -1844 1508 0
-1668 -1845 1509 0
-1668 -1846 1510 0
-1668 -1847 1511 0
-1668 -1848 1512 0
-1668 -1849 1513 0
-1668 -1850 1514 0
-1668 -1851 1515 0
-1668 -1852 1516 0
-1668 -1853 1517 0
-1668 -1854 1518 0
-1668 -1855 1519 0
-1668 -1856 1520 0
-1668 -1857 1521 0
-1668 -1858 1522 0
-1668 -1859 1523 0
-1668 -1860 1524 0
-1668 -1861 1525 0
-1668 -1862 1526 0
-1668 -1863 1527 0
-1668 -1864 1528 0
-1668 -1865 1529 0
-1668 -1866 1530 0
-1668 -1867 1531 0
-1668 -1868 1532 0
-1668 -1869 1533 0
-1668 -1870 1534 0
-1668 -1871 1535 0
-1668 -1872 1536 0
-1668 -1873 1537 0
-1668 -1874 1538 0
-1668 -1875 1539 0
-1668 -1876 1540 0
-1668 -1877 1541 0
-1668 -1878 1542 0
-1668 -1879 1543 0
-1668 -1880 1544 0
-1668 -1881 1545 0
-1668 -1882 1546 0
-1668 -1883 1547 0
-1668 -1884 1548 0
-1668 -1885 1549 0
-1668 -1886 1550 0
-1668 -1887 1551 0
-1668 -1888 1552 0
-1669 -1773 1438 0
-1669 -1774 1439 0
-1669 -1775 1440 0
-1669 -1776 1441 0
-1669 -1777 1442 0
-1669 -1778 1443 0
-1669 -1779 1444 0
-1669 -1780 1445 0
-1669 -1781 1446 0
-1669 -1782 1447 0
-1669 -1783 1448 0
-1669 -1784 1449 0
-1669 -1785 1450 0
-1669 -1786 1451 0
-1669 -1787 1452 0
-1669 -1788 1453 0
-1669 -1789 1454 0
-1669 -1790 1455 0
-1669 -1791 1456 0
-1669 -1792 1457 0
-1669 -1793 1458 0
-1669 -1794 1459 0
-1669 -1795 1460 0
-1669 -1796 1461 0
-1669 -1797 1462 0
-1669 -1798 1463 0
-1669 -1799 1464 0
-1669 -1800 1465 0
-1669 -1801 1466 0
-1669 -1802 1467 0
-1669 -1803 1468 0
-1669 -1804 1469 0
-1669 -1805 1470 0
-1669 -1806 1471 0
-1669 -1807 1472 0
-1669 -1808 1473 0
-1669 -1809 1474 0
-1669 -1810 1475 0
-1669 -1811 1476 0
-1669 -1812 1477 0
-1669 -1813 1478 0
-1669 -1814 1479 0
-1669 -1815 1480 0
-1669 -1816 1481 0
-1669 -1817 1482 0
-1669 -1818 1483 0
-1669 -1819 1484 0
-1669 -1820 1485 0
-1669 -1821 1486 0
-1669 -1822 1487 0
-1669 -1823 1488 0
-1669 -1824 1489 0
-1669 -1825 1490 0
-1669 -1826 1491 0
-1669 -1827 1492 0
-1669 -1828 1493 0
-1669 -1829 1494 0
-1669 -1830 1495 0
-1669 -1831 1496 0
-1669 -1832 1497 0
-1669 -1833 1498 0
-1669 -1834 1499 0
-1669 -1835 1500 0
-1669 -1836 1501 0
-1669 -1837 1502 0
-1669 -1838 1503 0
-1669 -1839 1504 0
-1669 -1840 1505 0
-1669 -1841 1506 0
-1669 -1842 1507 0
-1669 -1843 1508 0
-1669 -1844 1509 0
-1669 -1845 1510 0
-1669 -1846 1511 0
-1669 -1847 1512 0
-1669 -1848 1513 0
-1669 -1849 1514 0
-1669 -1850 1515 0
-1669 -1851 1516 0
-1669 -1852 1517 0
-1669 -1853 1518 0
-1669 -1854 1519 0
-1669 -1855 1520 0
-1669 -1856 1521 0
-1669 -1857 1522 0
-1669 -1858 1523 0
-1669 -1859 1524 0
-1669 -1860 1525 0
-1669 -1861 1526 0
-1669 -1862 1527 0
-1669 -1863 1528 0
-1669 -1864 1529 0
-1669 -1865 1530 0
-1669 -1866 1531 0
-1669 -1867 1532 0
-1669 -1868 1533 0
-1669 -1869 1534 0
-1669 -1870 1535 0
-1669 -1871 1536 0
-1669 -1872 1537 0
-1669 -1873 1538 0
-1669 -1874 1539 0
-1669 -1875 1540 0
-1669 -1876 1541 0
-1669 -1877 1542 0
-1669 -1878 1543 0
-1669 -1879 1544 0
-1669 -1880 1545 0
-1669 -1881 1546 0
-1669 -1882 1547 0
-1669 -1883 1548 0
-1669 -1884 1549 0
-1669 -1885 1550 0
-1669 -1886 1551 0
-1669 -1887 1552 0
-1669 -1888 1553 0
-1670 -1773 1439 0
-1670 -1774 1440 0
-1670 -1775 1441 0
-1670 -1776 1442 0
-1670 -1777 1443 0
-1670 -1778 1444 0
-1670 -1779 1445 0
-1670 -1780 1446 0
-1670 -1781 1447 0
-1670 -1782 1448 0
-1670 -1783 1449 0
-1670 -1784 1450 0
-1670 -1785 1451 0
-1670 -1786 1452 0
-1670 -1787 1453 0
-1670 -1788 1454 0
-1670 -1789 1455 0
-1670 -1790 1456 0
-1670 -1791 1457 0
-1670 -1792 1458 0
-1670 -1793 1459 0
-1670 -1794 1460 0
-1670 -1795 1461 0
-1670 -1796 1462 0
-1670 -1797 1463 0
-1670 -1798 1464 0
-1670 -1799 1465 0
-1670 -1800 1466 0
-1670 -1801 1467 0
-1670 -1802 1468 0
-1670 -1803 1469 0
-1670 -1804 1470 0
-1670 -1805 1471 0
-1670 -1806 1472 0
-1670 -1807 1473 0
-1670 -1808 1474 0
-1670 -1809 1475 0
-1670 -1810 1476 0
-1670 -1811 1477 0
-1670 -1812 1478 0
-1670 -1813 1479 0
-1670 -1814 1480 0
-1670 -1815 1481 0
-1670 -1816 1482 0
-1670 -1817 1483 0
-1670 -1818 1484 0
-1670 -1819 1485 0
-1670 -1820 1486 0
-1670 -1821 1487 0
-1670 -1822 1488 0
-1670 -1823 1489 0
-1670 -1824 1490 0
-1670 -1825 1491 0
-1670 -1826 1492 0
-1670 -1827 1493 0
-1670 -1828 1494 0
-1670 -1829 1495 0
-1670 -1830 1496 0
-1670 -1831 1497 0
-1670 -1832 1498 0
-1670 -1833 1499 0
-1670 -1834 1500 0
-1670 -1835 1501 0
-1670 -1836 1502 0
-1670 -1837 1503 0
-1670 -1838 1504 0
-1670 -1839 1505 0
-1670 -1840 1506 0
-1670 -1841 1507 0
-1670 -1842 1508 0
-1670 -1843 1509 0
-1670 -1844 1510 0
-1670 -1845 1511 0
-1670 -1846 1512 0
-1670 -1847 1513 0
-1670 -1848 1514 0
-1670 -1849 1515 0
-1670 -1850 1516 0
-1670 -1851 1517 0
-1670 -1852 1518 0
-1670 -1853 1519 0
-1670 -1854 1520 0
-1670 -1855 1521 0
-1670 -1856 1522 0
-1670 -1857 1523 0
-1670 -1858 1524 0
-1670 -1859 1525 0
-1670 -1860 1526 0
-1670 -1861 1527 0
-1670 -1862 1528 0
-1670 -1863 1529 0
-1670 -1864 1530 0
-1670 -1865 1531 0
-1670 -1866 1532 0
-1670 -1867 1533 0
-1670 -1868 1534 0
-1670 -1869 1535 0
-1670 -1870 1536 0
-1670 -1871 1537 0
-1670 -1872 1538 0
-1670 -1873 1539 0
-1670 -1874 1540 0
-1670 -1875 1541 0
-1670 -1876 1542 0
-1670 -1877 1543 0
-1670 -1878 1544 0
-1670 -1879 1545 0
-1670 -1880 1546 0
-1670 -1881 1547 0
-1670 -1882 1548 0
-1670 -1883 1549 0
-1670 -1884 1550 0
-1670 -1885 1551 0
-1670 -1886 1552 0
-1670 -1887 1553 0
-1670 -1888 1554 0
-1671 -1773 1440 0
-1671 -1774 1441 0
-1671 -1775 1442 0
-1671 -1776 1443 0
-1671 -1777 1444 0
-1671 -1778 1445 0
-1671 -1779 1446 0
-1671 -1780 1447 0
-1671 -1781 1448 0
-1671 -1782 1449 0
-1671 -1783 1450 0
-1671 -1784 1451 0
-1671 -1785 1452 0
-1671 -1786 1453 0
-1671 -1787 1454 0
-1671 -1788 1455 0
-1671 -1789 1456 0
-1671 -1790 1457 0
-1671 -1791 1458 0
-1671 -1792 1459 0
-1671 -1793 1460 0
-1671 -1794 1461 0
-1671 -1795 1462 0
-1671 -1796 1463 0
-1671 -1797 1464 0
-1671 -1798 1465 0
-1671 -1799 1466 0
-1671 -1800 1467 0
-1671 -1801 1468 0
-1671 -1802 1469 0
-1671 -1803 1470 0
-1671 -1804 1471 0
-1671 -1805 1472 0
-1671 -1806 1473 0
-1671 -1807 1474 0
-1671 -1808 1475 0
-1671 -1809 1476 0
-1671 -1810 1477 0
-1671 -1811 1478 0
-1671 -1812 1479 0
-1671 -1813 1480 0
-1671 -1814 1481 0
-1671 -1815 1482 0
-1671 -1816 1483 0
-1671 -1817 1484 0
-1671 -1818 1485 0
-1671 -1819 1486 0
-1671 -1820 1487 0
-1671 -1821 1488 0
-1671 -1822 1489 0
-1671 -1823 1490 0
-1671 -1824 1491 0
-1671 -1825 1492 0
-1671 -1826 1493 0
-1671 -1827 1494 0
-1671 -1828 1495 0
-1671 -1829 1496 0
-1671 -1830 1497 0
-1671 -1831 1498 0
-1671 -1832 1499 0
-1671 -1833 1500 0
-1671 -1834 1501 0
-1671 -1835 1502 0
-1671 -1836 1503 0
-1671 -1837 1504 0
-1671 -1838 1505 0
-1671 -1839 1506 0
-1671 -1840 1507 0
-1671 -1841 1508 0
-1671 -1842 1509 0
-1671 -1843 1510 0
-1671 -1844 1511 0
-1671 -1845 1512 0
-1671 -1846 1513 0
-1671 -1847 1514 0
-1671 -1848 1515 0
-1671 -1849 1516 0
-1671 -1850 1517 0
-1671 -1851 1518 0
-1671 -1852 1519 0
-1671 -1853 1520 0
-1671 -1854 1521 0
-1671 -1855 1522 0
-1671 -1856 1523 0
-1671 -1857 1524 0
-1671 -1858 1525 0
-1671 -1859 1526 0
-1671 -1860 1527 0
-1671 -1861 1528 0
-1671 -1862 1529 0
-1671 -1863 1530 0
-1671 -1864 1531 0
-1671 -1865 1532 0
-1671 -1866 1533 0
-1671 -1867 1534 0
-1671 -1868 1535 0
-1671 -1869 1536 0
-1671 -1870 1537 0
-1671 -1871 1538 0
-1671 -1872 1539 0
-1671 -1873 1540 0
-1671 -1874 1541 0
-1671 -1875 1542 0
-1671 -1876 1543 0
-1671 -1877 1544 0
-1671 -1878 1545 0
-1671 -1879 1546 0
-1671 -1880 1547 0
-1671 -1881 1548 0
-1671 -1882 1549 0
-1671 -1883 1550 0
-1671 -1884 1551 0
-1671 -1885 1552 0
-1671 -1886 1553 0
-1671 -1887 1554 0
-1671 -1888 1555 0
-1672 -1773 1441 0
-1672 -1774 1442 0
-1672 -1775 1443 0
-1672 -1776 1444 0
-1672 -1777 1445 0
-1672 -1778 1446 0
-1672 -1779 1447 0
-1672 -1780 1448 0
-1672 -1781 1449 0
-1672 -1782 1450 0
-1672 -1783 1451 0
-1672 -1784 1452 0
-1672 -1785 1453 0
-1672 -1786 1454 0
-1672 -1787 1455 0
-1672 -1788 1456 0
-1672 -1789 1457 0
-1672 -1790 1458 0
-1672 -1791 1459 0
-1672 -1792 1460 0
-1672 -1793 1461 0
-1672 -1794 1462 0
-1672 -1795 1463 0
-1672 -1796 1464 0
-1672 -1797 1465 0
-1672 -1798 1466 0
-1672 -1799 1467 0
-1672 -1800 1468 0
-1672 -1801 1469 0
-1672 -1802 1470 0
-1672 -1803 1471 0
-1672 -1804 1472 0
-1672 -1805 1473 0
-1672 -1806 1474 0
-1672 -1807 1475 0
-1672 -1808 1476 0
-1672 -1809 1477 0
-1672 -1810 1478 0
-1672 -1811 1479 0
-1672 -1812 1480 0
-1672 -1813 1481 0
-1672 -1814 1482 0
-1672 -1815 1483 0
-1672 -1816 1484 0
-1672 -1817 1485 0
-1672 -1818 1486 0
-1672 -1819 1487 0
-1672 -1820 1488 0
-1672 -1821 1489 0
-1672 -1822 1490 0
-1672 -1823 1491 0
-1672 -1824 1492 0
-1672 -1825 1493 0
-1672 -1826 1494 0
-1672 -1827 1495 0
-1672 -1828 1496 0
-1672 -1829 1497 0
-1672 -1830 1498 0
-1672 -1831 1499 0
-1672 -1832 1500 0
-1672 -1833 1501 0
-1672 -1834 1502 0
-1672 -1835 1503 0
-1672 -1836 1504 0
-1672 -1837 1505 0
-1672 -1838 1506 0
-1672 -1839 1507 0
-1672 -1840 1508 0
-1672 -1841 1509 0
-1672 -1842 1510 0
-1672 -1843 1511 0
-1672 -1844 1512 0
-1672 -1845 1513 0
-1672 -1846 1514 0
-1672 -1847 1515 0
-1672 -1848 1516 0
-1672 -1849 1517 0
-1672 -1850 1518 0
-1672 -1851 1519 0
-1672 -1852 1520 0
-1672 -1853 1521 0
-1672 -1854 1522 0
-1672 -1855 1523 0
-1672 -1856 1524 0
-1672 -1857 1525 0
-1672 -1858 1526 0
-1672 -1859 1527 0
-1672 -1860 1528 0
-1672 -1861 1529 0
-1672 -1862 1530 0
-1672 -1863 1531 0
-1672 -1864 1532 0
-1672 -1865 1533 0
-1672 -1866 1534 0
-1672 -1867 1535 0
-1672 -1868 1536 0
-1672 -1869 1537 0
-1672 -1870 1538 0
-1672 -1871 1539 0
-1672 -1872 1540 0
-1672 -1873 1541 0
-1672 -1874 1542 0
-1672 -1875 1543 0
-1672 -1876 1544 0
-1672 -1877 1545 0
-1672 -1878 1546 0
-1672 -1879 1547 0
-1672 -1880 1548 0
-1672 -1881 1549 0
-1672 -1882 1550 0
-1672 -1883 1551 0
-1672 -1884 1552 0
-1672 -1885 1553 0
-1672 -1886 1554 0
-1672 -1887 1555 0
-1672 -1888 1556 0
-1673 -1773 1442 0
-1673 -1774 1443 0
-1673 -1775 1444 0
-1673 -1776 1445 0
-1673 -1777 1446 0
-1673 -1778 1447 0
-1673 -1779 1448 0
-1673 -1780 1449 0
-1673 -1781 1450 0
-1673 -1782 1451 0
-1673 -1783 1452 0
-1673 -1784 1453 0
-1673 -1785 1454 0
-1673 -1786 1455 0
-1673 -1787 1456 0
-1673 -1788 1457 0
-1673 -1789 1458 0
-1673 -1790 1459 0
-1673 -1791 1460 0
-1673 -1792 1461 0
-1673 -1793 1462 0
-1673 -1794 1463 0
-1673 -1795 1464 0
-1673 -1796 1465 0
-1673 -1797 1466 0
-1673 -1798 1467 0
-1673 -1799 1468 0
-1673 -1800 1469 0
-1673 -1801 1470 0
-1673 -1802 1471 0
-1673 -1803 1472 0
-1673 -1804 1473 0
-1673 -1805 1474 0
-1673 -1806 1475 0
-1673 -1807 1476 0
-1673 -1808 1477 0
-1673 -1809 1478 0
-1673 -1810 1479 0
-1673 -1811 1480 0
-1673 -1812 1481 0
-1673 -1813 1482 0
-1673 -1814 1483 0
-1673 -1815 1484 0
-1673 -1816 1485 0
-1673 -1817 1486 0
-1673 -1818 1487 0
-1673 -1819 1488 0
-1673 -1820 1489 0
-1673 -1821 1490 0
-1673 -1822 1491 0
-1673 -1823 1492 0
-1673 -1824 1493 0
-1673 -1825 1494 0
-1673 -1826 1495 0
-1673 -1827 1496 0
-1673 -1828 1497 0
-1673 -1829 1498 0
-1673 -1830 1499 0
-1673 -1831 1500 0
-1673 -1832 1501 0
-1673 -1833 1502 0
-1673 -1834 1503 0
-1673 -1835 1504 0
-1673 -1836 1505 0
-1673 -1837 1506 0
-1673 -1838 1507 0
-1673 -1839 1508 0
-1673 -1840 1509 0
-1673 -1841 1510 0
-1673 -1842 1511 0
-1673 -1843 1512 0
-1673 -1844 1513 0
-1673 -1845 1514 0
-1673 -1846 1515 0
-1673 -1847 1516 0
-1673 -1848 1517 0
-1673 -1849 1518 0
-1673 -1850 1519 0
-1673 -1851 1520 0
-1673 -1852 1521 0
-1673 -1853 1522 0
-1673 -1854 1523 0
-1673 -1855 1524 0
-1673 -1856 1525 0
-1673 -1857 1526 0
-1673 -1858 1527 0
-1673 -1859 1528 0
-1673 -1860 1529 0
-1673 -1861 1530 0
-1673 -1862 1531 0
-1673 -1863 1532 0
-1673 -1864 1533 0
-1673 -1865 1534 0
-1673 -1866 1535 0
-1673 -1867 1536 0
-1673 -1868 1537 0
-1673 -1869 1538 0
-1673 -1870 1539 0
-1673 -1871 1540 0
-1673 -1872 1541 0
-1673 -1873 1542 0
-1673 -1874 1543 0
-1673 -1875 1544 0
-1673 -1876 1545 0
-1673 -1877 1546 0
-1673 -1878 1547 0
-1673 -1879 1548 0
-1673 -1880 1549 0
-1673 -1881 1550 0
-1673 -1882 1551 0
-1673 -1883 1552 0
-1673 -1884 1553 0
-1673 -1885 1554 0
-1673 -1886 1555 0
-1673 -1887 1556 0
-1673 -1888 1557 0
-1674 -1773 1443 0
-1674 -1774 1444 0
-1674 -1775 1445 0
-1674 -1776 1446 0
-1674 -1777 1447 0
-1674 -1778 1448 0
-1674 -1779 1449 0
-1674 -1780 1450 0
-1674 -1781 1451 0
-1674 -1782 1452 0
-1674 -1783 1453 0
-1674 -1784 1454 0
-1674 -1785 1455 0
-1674 -1786 1456 0
-1674 -1787 1457 0
-1674 -1788 1458 0
-1674 -1789 1459 0
-1674 -1790 1460 0
-1674 -1791 1461 0
-1674 -1792 1462 0
-1674 -1793 1463 0
-1674 -1794 1464 0
-1674 -1795 1465 0
-1674 -1796 1466 0
-1674 -1797 1467 0
-1674 -1798 1468 0
-1674 -1799 1469 0
-1674 -1800 1470 0
-1674 -1801 1471 0
-1674 -1802 1472 0
-1674 -1803 1473 0
-1674 -1804 1474 0
-1674 -1805 1475 0
-1674 -1806 1476 0
-1674 -1807 1477 0
-1674 -1808 1478 0
-1674 -1809 1479 0
-1674 -1810 1480 0
-1674 -1811 1481 0
-1674 -1812 1482 0
-1674 -1813 1483 0
-1674 -1814 1484 0
-1674 -1815 1485 0
-1674 -1816 1486 0
-1674 -1817 1487 0
-1674 -1818 1488 0
-1674 -1819 1489 0
-1674 -1820 1490 0
-1674 -1821 1491 0
-1674 -1822 1492 0
-1674 -1823 1493 0
-1674 -1824 1494 0
-1674 -1825 1495 0
-1674 -1826 1496 0
-1674 -1827 1497 0
-1674 -1828 1498 0
-1674 -1829 1499 0
-1674 -1830 1500 0
-1674 -1831 1501 0
-1674 -1832 1502 0
-1674 -1833 1503 0
-1674 -1834 1504 0
-1674 -1835 1505 0
-1674 -1836 1506 0
-1674 -1837 1507 0
-1674 -1838 1508 0
-1674 -1839 1509 0
-1674 -1840 1510 0
-1674 -1841 1511 0
-1674 -1842 1512 0
-1674 -1843 1513 0
-1674 -1844 1514 0
-1674 -1845 1515 0
-1674 -1846 1516 0
-1674 -1847 1517 0
-1674 -1848 1518 0
-1674 -1849 1519 0
-1674 -1850 1520 0
-1674 -1851 1521 0
-1674 -1852 1522 0
-1674 -1853 1523 0
-1674 -1854 1524 0
-1674 -1855 1525 0
-1674 -1856 1526 0
-1674 -1857 1527 0
-1674 -1858 1528 0
-1674 -1859 1529 0
-1674 -1860 1530 0
-1674 -1861 1531 0
-1674 -1862 1532 0
-1674 -1863 1533 0
-1674 -1864 1534 0
-1674 -1865 1535 0
-1674 -1866 1536 0
-1674 -1867 1537 0
-1674 -1868 1538 0
-1674 -1869 1539 0
-1674 -1870 1540 0
-1674 -1871 1541 0
-1674 -1872 1542 0
-1674 -1873 1543 0
-1674 -1874 1544 0
-1674 -1875 1545 0
-1674 -1876 1546 0
-1674 -1877 1547 0
-1674 -1878 1548 0
-1674 -1879 1549 0
-1674 -1880 1550 0
-1674 -1881 1551 0
-1674 -1882 1552 0
-1674 -1883 1553 0
-1674 -1884 1554 0
-1674 -1885 1555 0
-1674 -1886 1556 0
-1674 -1887 1557 0
-1674 -1888 1558 0
-1675 -1773 1444 0
-1675 -1774 1445 0
-1675 -1775 1446 0
-1675 -1776 1447 0
-1675 -1777 1448 0
-1675 -1778 1449 0
-1675 -1779 1450 0
-1675 -1780 1451 0
-1675 -1781 1452 0
-1675 -1782 1453 0
-1675 -1783 1454 0
-1675 -1784 1455 0
-1675 -1785 1456 0
-1675 -1786 1457 0
-1675 -1787 1458 0
-1675 -1788 1459 0
-1675 -1789 1460 0
-1675 -1790 1461 0
-1675 -1791 1462 0
-1675 -1792 1463 0
-1675 -1793 1464 0
-1675 -1794 1465 0
-1675 -1795 1466 0
-1675 -1796 1467 0
-1675 -1797 1468 0
-1675 -1798 1469 0
-1675 -1799 1470 0
-1675 -1800 1471 0
-1675 -1801 1472 0
-1675 -1802 1473 0
-1675 -1803 1474 0
-1675 -1804 1475 0
-1675 -1805 1476 0
-1675 -1806 1477 0
-1675 -1807 1478 0
-1675 -1808 1479 0
-1675 -1809 1480 0
-1675 -1810 1481 0
-1675 -1811 1482 0
-1675 -1812 1483 0
-1675 -1813 1484 0
-1675 -1814 1485 0
-1675 -1815 1486 0
-1675 -1816 1487 0
-1675 -1817 1488 0
-1675 -1818 1489 0
-1675 -1819 1490 0
-1675 -1820 1491 0
-1675 -1821 1492 0
-1675 -1822 1493 0
-1675 -1823 1494 0
-1675 -1824 1495 0
-1675 -1825 1496 0
-1675 -1826 1497 0
-1675 -1827 1498 0
-1675 -1828 1499 0
-1675 -1829 1500 0
-1675 -1830 1501 0
-1675 -1831 1502 0
-1675 -1832 1503 0
-1675 -1833 1504 0
-1675 -1834 1505 0
-1675 -1835 1506 0
-1675 -1836 1507 0
-1675 -1837 1508 0
-1675 -1838 1509 0
-1675 -1839 1510 0
-1675 -1840 1511 0
-1675 -1841 1512 0
-1675 -1842 1513 0
-1675 -1843 1514 0
-1675 -1844 1515 0
-1675 -1845 1516 0
-1675 -1846 1517 0
-1675 -1847 1518 0
-1675 -1848 1519 0
-1675 -1849 1520 0
-1675 -1850 1521 0
-1675 -1851 1522 0
-1675 -1852 1523 0
-1675 -1853 1524 0
-1675 -1854 1525 0
-1675 -1855 1526 0
-1675 -1856 1527 0
-1675 -1857 1528 0
-1675 -1858 1529 0
-1675 -1859 1530 0
-1675 -1860 1531 0
-1675 -1861 1532 0
-1675 -1862 1533 0
-1675 -1863 1534 0
-1675 -1864 1535 0
-1675 -1865 1536 0
-1675 -1866 1537 0
-1675 -1867 1538 0
-1675 -1868 1539 0
-1675 -1869 1540 0
-1675 -1870 1541 0
-1675 -1871 1542 0
-1675 -1872 1543 0
-1675 -1873 1544 0
-1675 -1874 1545 0
-1675 -1875 1546 0
-1675 -1876 1547 0
-1675 -1877 1548 0
-1675 -1878 1549 0
-1675 -1879 1550 0
-1675 -1880 1551 0
-1675 -1881 1552 0
-1675 -1882 1553 0
-1675 -1883 1554 0
-1675 -1884 1555 0
-1675 -1885 1556 0
-1675 -1886 1557 0
-1675 -1887 1558 0
-1675 -1888 1559 0
-1676 -1773 1445 0
-1676 -1774 1446 0
-1676 -1775 1447 0
-1676 -1776 1448 0
-1676 -1777 1449 0
-1676 -1778 1450 0
-1676 -1779 1451 0
-1676 -1780 1452 0
-1676 -1781 1453 0
-1676 -1782 1454 0
-1676 -1783 1455 0
-1676 -1784 1456 0
-1676 -1785 1457 0
-1676 -1786 1458 0
-1676 -1787 1459 0
-1676 -1788 1460 0
-1676 -1789 1461 0
-1676 -1790 1462 0
-1676 -1791 1463 0
-1676 -1792 1464 0
-1676 -1793 1465 0
-1676 -1794 1466 0
-1676 -1795 1467 0
-1676 -1796 1468 0
-1676 -1797 1469 0
-1676 -1798 1470 0
-1676 -1799 1471 0
-1676 -1800 1472 0
-1676 -1801 1473 0
-1676 -1802 1474 0
-1676 -1803 1475 0
-1676 -1804 1476 0
-1676 -1805 1477 0
-1676 -1806 1478 0
-1676 -1807 1479 0
-1676 -1808 1480 0
-1676 -1809 1481 0
-1676 -1810 1482 0
-1676 -1811 1483 0
-1676 -1812 1484 0
-1676 -1813 1485 0
-1676 -1814 1486 0
-1676 -1815 1487 0
-1676 -1816 1488 0
-1676 -1817 1489 0
-1676 -1818 1490 0
-1676 -1819 1491 0
-1676 -1820 1492 0
-1676 -1821 1493 0
-1676 -1822 1494 0
-1676 -1823 1495 0
-1676 -1824 1496 0
-1676 -1825 1497 0
-1676 -1826 1498 0
-1676 -1827 1499 0
-1676 -1828 1500 0
-1676 -1829 1501 0
-1676 -1830 1502 0
-1676 -1831 1503 0
-1676 -1832 1504 0
-1676 -1833 1505 0
-1676 -1834 1506 0
-1676 -1835 1507 0
-1676 -1836 1508 0
-1676 -1837 1509 0
-1676 -1838 1510 0
-1676 -1839 1511 0
-1676 -1840 1512 0
-1676 -1841 1513 0
-1676 -1842 1514 0
-1676 -1843 1515 0
-1676 -1844 1516 0
-1676 -1845 1517 0
-1676 -1846 1518 0
-1676 -1847 1519 0
-1676 -1848 1520 0
-1676 -1849 1521 0
-1676 -1850 1522 0
-1676 -1851 1523 0
-1676 -1852 1524 0
-1676 -1853 1525 0
-1676 -1854 1526 0
-1676 -1855 1527 0
-1676 -1856 1528 0
-1676 -1857 1529 0
-1676 -1858 1530 0
-1676 -1859 1531 0
-1676 -1860 1532 0
-1676 -1861 1533 0
-1676 -1862 1534 0
-1676 -1863 1535 0
-1676 -1864 1536 0
-1676 -1865 1537 0
-1676 -1866 1538 0
-1676 -1867 1539 0
-1676 -1868 1540 0
-1676 -1869 1541 0
-1676 -1870 1542 0
-1676 -1871 1543 0
-1676 -1872 1544 0
-1676 -1873 1545 0
-1676 -1874 1546 0
-1676 -1875 1547 0
-1676 -1876 1548 0
-1676 -1877 1549 0
-1676 -1878 1550 0
-1676 -1879 1551 0
-1676 -1880 1552 0
-1676 -1881 1553 0
-1676 -1882 1554 0
-1676 -1883 1555 0
-1676 -1884 1556 0
-1676 -1885 1557 0
-1676 -1886 1558 0
-1676 -1887 1559 0
-1676 -1888 1560 0
-1677 -1773 1446 0
-1677 -1774 1447 0
-1677 -1775 1448 0
-1677 -1776 1449 0
-1677 -1777 1450 0
-1677 -1778 1451 0
-1677 -1779 1452 0
-1677 -1780 1453 0
-1677 -1781 1454 0
-1677 -1782 1455 0
-1677 -1783 1456 0
-1677 -1784 1457 0
-1677 -1785 1458 0
-1677 -1786 1459 0
-1677 -1787 1460 0
-1677 -1788 1461 0
-1677 -1789 1462 0
-1677 -1790 1463 0
-1677 -1791 1464 0
-1677 -1792 1465 0
-1677 -1793 1466 0
-1677 -1794 1467 0
-1677 -1795 1468 0
-1677 -1796 1469 0
-1677 -1797 1470 0
-1677 -1798 1471 0
-1677 -1799 1472 0
-1677 -1800 1473 0
-1677 -1801 1474 0
-1677 -1802 1475 0
-1677 -1803 1476 0
-1677 -1804 1477 0
-1677 -1805 1478 0
-1677 -1806 1479 0
-1677 -1807 1480 0
-1677 -1808 1481 0
-1677 -1809 1482 0
-1677 -1810 1483 0
-1677 -1811 1484 0
-1677 -1812 1485 0
-1677 -1813 1486 0
-1677 -1814 1487 0
-1677 -1815 1488 0
-1677 -1816 1489 0
-1677 -1817 1490 0
-1677 -1818 1491 0
-1677 -1819 1492 0
-1677 -1820 1493 0
-1677 -1821 1494 0
-1677 -1822 1495 0
-1677 -1823 1496 0
-1677 -1824 1497 0
-1677 -1825 1498 0
-1677 -1826 1499 0
-1677 -1827 1500 0
-1677 -1828 1501 0
-1677 -1829 1502 0
-1677 -1830 1503 0
-1677 -1831 1504 0
-1677 -1832 1505 0
-1677 -1833 1506 0
-1677 -1834 1507 0
-1677 -1835 1508 0
-1677 -1836 1509 0
-1677 -1837 1510 0
-1677 -1838 1511 0
-1677 -1839 1512 0
-1677 -1840 1513 0
-1677 -1841 1514 0
-1677 -1842 1515 0
-1677 -1843 1516 0
-1677 -1844 1517 0
-1677 -1845 1518 0
-1677 -1846 1519 0
-1677 -1847 1520 0
-1677 -1848 1521 0
-1677 -1849 1522 0
-1677 -1850 1523 0
-1677 -1851 1524 0
-1677 -1852 1525 0
-1677 -1853 1526 0
-1677 -1854 1527 0
-1677 -1855 1528 0
-1677 -1856 1529 0
-1677 -1857 1530 0
-1677 -1858 1531 0
-1677 -1859 1532 0
-1677 -1860 1533 0
-1677 -1861 1534 0
-1677 -1862 1535 0
-1677 -1863 1536 0
-1677 -1864 1537 0
-1677 -1865 1538 0
-1677 -1866 1539 0
-1677 -1867 1540 0
-1677 -1868 1541 0
-1677 -1869 1542 0
-1677 -1870 1543 0
-1677 -1871 1544 0
-1677 -1872 1545 0
-1677 -1873 1546 0
-1677 -1874 1547 0
-1677 -1875 1548 0
-1677 -1876 1549 0
-1677 -1877 1550 0
-1677 -1878 1551 0
-1677 -1879 1552 0
-1677 -1880 1553 0
-1677 -1881 1554 0
-1677 -1882 1555 0
-1677 -1883 1556 0
-1677 -1884 1557 0
-1677 -1885 1558 0
-1677 -1886 1559 0
-1677 -1887 1560 0
-1677 -1888 1561 0
-1678 -1773 1447 0
-1678 -1774 1448 0
-1678 -1775 1449 0
-1678 -1776 1450 0
-1678 -1777 1451 0
-1678 -1778 1452 0
-1678 -1779 1453 0
-1678 -1780 1454 0
-1678 -1781 1455 0
-1678 -1782 1456 0
-1678 -1783 1457 0
-1678 -1784 1458 0
-1678 -1785 1459 0
-1678 -1786 1460 0
-1678 -1787 1461 0
-1678 -1788 1462 0
-1678 -1789 1463 0
-1678 -1790 1464 0
-1678 -1791 1465 0
-1678 -1792 1466 0
-1678 -1793 1467 0
-1678 -1794 1468 0
-1678 -1795 1469 0
-1678 -1796 1470 0
-1678 -1797 1471 0
-1678 -1798 1472 0
-1678 -1799 1473 0
-1678 -1800 1474 0
-1678 -1801 1475 0
-1678 -1802 1476 0
-1678 -1803 1477 0
-1678 -1804 1478 0
-1678 -1805 1479 0
-1678 -1806 1480 0
-1678 -1807 1481 0
-1678 -1808 1482 0
-1678 -1809 1483 0
-1678 -1810 1484 0
-1678 -1811 1485 0
-1678 -1812 1486 0
-1678 -1813 1487 0
-1678 -1814 1488 0
-1678 -1815 1489 0
-1678 -1816 1490 0
-1678 -1817 1491 0
-1678 -1818 1492 0
-1678 -1819 1493 0
-1678 -1820 1494 0
-1678 -1821 1495 0
-1678 -1822 1496 0
-1678 -1823 1497 0
-1678 -1824 1498 0
-1678 -1825 1499 0
-1678 -1826 1500 0
-1678 -1827 1501 0
-1678 -1828 1502 0
-1678 -1829 1503 0
-1678 -1830 1504 0
-1678 -1831 1505 0
-1678 -1832 1506 0
-1678 -1833 1507 0
-1678 -1834 1508 0
-1678 -1835 1509 0
-1678 -1836 1510 0
-1678 -1837 1511 0
-1678 -1838 1512 0
-1678 -1839 1513 0
-1678 -1840 1514 0
-1678 -1841 1515 0
-1678 -1842 1516 0
-1678 -1843 1517 0
-1678 -1844 1518 0
-1678 -1845 1519 0
-1678 -1846 1520 0
-1678 -1847 1521 0
-1678 -1848 1522 0
-1678 -1849 1523 0
-1678 -1850 1524 0
-1678 -1851 1525 0
-1678 -1852 1526 0
-1678 -1853 1527 0
-1678 -1854 1528 0
-1678 -1855 1529 0
-1678 -1856 1530 0
-1678 -1857 1531 0
-1678 -1858 1532 0
-1678 -1859 1533 0
-1678 -1860 1534 0
-1678 -1861 1535 0
-1678 -1862 1536 0
-1678 -1863 1537 0
-1678 -1864 1538 0
-1678 -1865 1539 0
-1678 -1866 1540 0
-1678 -1867 1541 0
-1678 -1868 1542 0
-1678 -1869 1543 0
-1678 -1870 1544 0
-1678 -1871 1545 0
-1678 -1872 1546 0
-1678 -1873 1547 0
-1678 -1874 1548 0
-1678 -1875 1549 0
-1678 -1876 1550 0
-1678 -1877 1551 0
-1678 -1878 1552 0
-1678 -1879 1553 0
-1678 -1880 1554 0
-1678 -1881 1555 0
-1678 -1882 1556 0
-1678 -1883 1557 0
-1678 -1884 1558 0
-1678 -1885 1559 0
-1678 -1886 1560 0
-1678 -1887 1561 0
-1678 -1888 1562 0
-1679 -1773 1448 0
-1679 -1774 1449 0
-1679 -1775 1450 0
-1679 -1776 1451 0
-1679 -1777 1452 0
-1679 -1778 1453 0
-1679 -1779 1454 0
-1679 -1780 1455 0
-1679 -1781 1456 0
-1679 -1782 1457 0
-1679 -1783 1458 0
-1679 -1784 1459 0
-1679 -1785 1460 0
-1679 -1786 1461 0
-1679 -1787 1462 0
-1679 -1788 1463 0
-1679 -1789 1464 0
-1679 -1790 1465 0
-1679 -1791 1466 0
-1679 -1792 1467 0
-1679 -1793 1468 0
-1679 -1794 1469 0
-1679 -1795 1470 0
-1679 -1796 1471 0
-1679 -1797 1472 0
-1679 -1798 1473 0
-1679 -1799 1474 0
-1679 -1800 1475 0
-1679 -1801 1476 0
-1679 -1802 1477 0
-1679 -1803 1478 0
-1679 -1804 1479 0
-1679 -1805 1480 0
-1679 -1806 1481 0
-1679 -1807 1482 0
-1679 -1808 1483 0
-1679 -1809 1484 0
-1679 -1810 1485 0
-1679 -1811 1486 0
-1679 -1812 1487 0
-1679 -1813 1488 0
-1679 -1814 1489 0
-1679 -1815 1490 0
-1679 -1816 1491 0
-1679 -1817 1492 0
-1679 -1818 1493 0
-1679 -1819 1494 0
-1679 -1820 1495 0
-1679 -1821 1496 0
-1679 -1822 1497 0
-1679 -1823 1498 0
-1679 -1824 1499 0
-1679 -1825 1500 0
-1679 -1826 1501 0
-1679 -1827 1502 0
-1679 -1828 1503 0
-1679 -1829 1504 0
-1679 -1830 1505 0
-1679 -1831 1506 0
-1679 -1832 1507 0
-1679 -1833 1508 0
-1679 -1834 1509 0
-1679 -1835 1510 0
-1679 -1836 1511 0
-1679 -1837 1512 0
-1679 -1838 1513 0
-1679 -1839 1514 0
-1679 -1840 1515 0
-1679 -1841 1516 0
-1679 -1842 1517 0
-1679 -1843 1518 0
-1679 -1844 1519 0
-1679 -1845 1520 0
-1679 -1846 1521 0
-1679 -1847 1522 0
-1679 -1848 1523 0
-1679 -1849 1524 0
-1679 -1850 1525 0
-1679 -1851 1526 0
-1679 -1852 1527 0
-1679 -1853 1528 0
-1679 -1854 1529 0
-1679 -1855 1530 0
-1679 -1856 1531 0
-1679 -1857 1532 0
-1679 -1858 1533 0
-1679 -1859 1534 0
-1679 -1860 1535 0
-1679 -1861 1536 0
-1679 -1862 1537 0
-1679 -1863 1538 0
-1679 -1864 1539 0
-1679 -1865 1540 0
-1679 -1866 1541 0
-1679 -1867 1542 0
-1679 -1868 1543 0
-1679 -1869 1544 0
-1679 -1870 1545 0
-1679 -1871 1546 0
-1679 -1872 1547 0
-1679 -1873 1548 0
-1679 -1874 1549 0
-1679 -1875 1550 0
-1679 -1876 1551 0
-1679 -1877 1552 0
-1679 -1878 1553 0
-1679 -1879 1554 0
-1679 -1880 1555 0
-1679 -1881 1556 0
-1679 -1882 1557 0
-1679 -1883 1558 0
-1679 -1884 1559 0
-1679 -1885 1560 0
-1679 -1886 1561 0
-1679 -1887 1562 0
-1679 -1888 1563 0
-1680 -1773 1449 0
-1680 -1774 1450 0
-1680 -1775 1451 0
-1680 -1776 1452 0
-1680 -1777 1453 0
-1680 -1778 1454 0
-1680 -1779 1455 0
-1680 -1780 1456 0
-1680 -1781 1457 0
-1680 -1782 1458 0
-1680 -1783 1459 0
-1680 -1784 1460 0
-1680 -1785 1461 0
-1680 -1786 1462 0
-1680 -1787 1463 0
-1680 -1788 1464 0
-1680 -1789 1465 0
-1680 -1790 1466 0
-1680 -1791 1467 0
-1680 -1792 1468 0
-1680 -1793 1469 0
-1680 -1794 1470 0
-1680 -1795 1471 0
-1680 -1796 1472 0
-1680 -1797 1473 0
-1680 -1798 1474 0
-1680 -1799 1475 0
-1680 -1800 1476 0
-1680 -1801 1477 0
-1680 -1802 1478 0
-1680 -1803 1479 0
-1680 -1804 1480 0
-1680 -1805 1481 0
-1680 -1806 1482 0
-1680 -1807 1483 0
-1680 -1808 1484 0
-1680 -1809 1485 0
-1680 -1810 1486 0
-1680 -1811 1487 0
-1680 -1812 1488 0
-1680 -1813 1489 0
-1680 -1814 1490 0
-1680 -1815 1491 0
-1680 -1816 1492 0
-1680 -1817 1493 0
-1680 -1818 1494 0
-1680 -1819 1495 0
-1680 -1820 1496 0
-1680 -1821 1497 0
-1680 -1822 1498 0
-1680 -1823 1499 0
-1680 -1824 1500 0
-1680 -1825 1501 0
-1680 -1826 1502 0
-1680 -1827 1503 0
-1680 -1828 1504 0
-1680 -1829 1505 0
-1680 -1830 1506 0
-1680 -1831 1507 0
-1680 -1832 1508 0
-1680 -1833 1509 0
-1680 -1834 1510 0
-1680 -1835 1511 0
-1680 -1836 1512 0
-1680 -1837 1513 0
-1680 -1838 1514 0
-1680 -1839 1515 0
-1680 -1840 1516 0
-1680 -1841 1517 0
-1680 -1842 1518 0
-1680 -1843 1519 0
-1680 -1844 1520 0
-1680 -1845 1521 0
-1680 -1846 1522 0
-1680 -1847 1523 0
-1680 -1848 1524 0
-1680 -1849 1525 0
-1680 -1850 1526 0
-1680 -1851 1527 0
-1680 -1852 1528 0
-1680 -1853 1529 0
-1680 -1854 1530 0
-1680 -1855 1531 0
-1680 -1856 1532 0
-1680 -1857 1533 0
-1680 -1858 1534 0
-1680 -1859 1535 0
-1680 -1860 1536 0
-1680 -1861 1537 0
-1680 -1862 1538 0
-1680 -1863 1539 0
-1680 -1864 1540 0
-1680 -1865 1541 0
-1680 -1866 1542 0
-1680 -1867 1543 0
-1680 -1868 1544 0
-1680 -1869 1545 0
-1680 -1870 1546 0
-1680 -1871 1547 0
-1680 -1872 1548 0
-1680 -1873 1549 0
-1680 -1874 1550 0
-1680 -1875 1551 0
-1680 -1876 1552 0
-1680 -1877 1553 0
-1680 -1878 1554 0
-1680 -1879 1555 0
-1680 -1880 1556 0
-1680 -1881 1557 0
-1680 -1882 1558 0
-1680 -1883 1559 0
-1680 -1884 1560 0
-1680 -1885 1561 0
-1680 -1886 1562 0
-1680 -1887 1563 0
-1680 -1888 1564 0
-1681 -1773 1450 0
-1681 -1774 1451 0
-1681 -1775 1452 0
-1681 -1776 1453 0
-1681 -1777 1454 0
-1681 -1778 1455 0
-1681 -1779 1456 0
-1681 -1780 1457 0
-1681 -1781 1458 0
-1681 -1782 1459 0
-1681 -1783 1460 0
-1681 -1784 1461 0
-1681 -1785 1462 0
-1681 -1786 1463 0
-1681 -1787 1464 0
-1681 -1788 1465 0
-1681 -1789 1466 0
-1681 -1790 1467 0
-1681 -1791 1468 0
-1681 -1792 1469 0
-1681 -1793 1470 0
-1681 -1794 1471 0
-1681 -1795 1472 0
-1681 -1796 1473 0
-1681 -1797 1474 0
-1681 -1798 1475 0
-1681 -1799 1476 0
-1681 -1800 1477 0
-1681 -1801 1478 0
-1681 -1802 1479 0
-1681 -1803 1480 0
-1681 -1804 1481 0
-1681 -1805 1482 0
-1681 -1806 1483 0
-1681 -1807 1484 0
-1681 -1808 1485 0
-1681 -1809 1486 0
-1681 -1810 1487 0
-1681 -1811 1488 0
-1681 -1812 1489 0
-1681 -1813 1490 0
-1681 -1814 1491 0
-1681 -1815 1492 0
-1681 -1816 1493 0
-1681 -1817 1494 0
-1681 -1818 1495 0
-1681 -1819 1496 0
-1681 -1820 1497 0
-1681 -1821 1498 0
-1681 -1822 1499 0
-1681 -1823 1500 0
-1681 -1824 1501 0
-1681 -1825 1502 0
-1681 -1826 1503 0
-1681 -1827 1504 0
-1681 -1828 1505 0
-1681 -1829 1506 0
-1681 -1830 1507 0
-1681 -1831 1508 0
-1681 -1832 1509 0
-1681 -1833 1510 0
-1681 -1834 1511 0
-1681 -1835 1512 0
-1681 -1836 1513 0
-1681 -1837 1514 0
-1681 -1838 1515 0
-1681 -1839 1516 0
-1681 -1840 1517 0
-1681 -1841 1518 0
-1681 -1842 1519 0
-1681 -1843 1520 0
-1681 -1844 1521 0
-1681 -1845 1522 0
-1681 -1846 1523 0
-1681 -1847 1524 0
-1681 -1848 1525 0
-1681 -1849 1526 0
-1681 -1850 1527 0
-1681 -1851 1528 0
-1681 -1852 1529 0
-1681 -1853 1530 0
-1681 -1854 1531 0
-1681 -1855 1532 0
-1681 -1856 1533 0
-1681 -1857 1534 0
-1681 -1858 1535 0
-1681 -1859 1536 0
-1681 -1860 1537 0
-1681 -1861 1538 0
-1681 -1862 1539 0
-1681 -1863 1540 0
-1681 -1864 1541 0
-1681 -1865 1542 0
-1681 -1866 1543 0
-1681 -1867 1544 0
-1681 -1868 1545 0
-1681 -1869 1546 0
-1681 -1870 1547 0
-1681 -1871 1548 0
-1681 -1872 1549 0
-1681 -1873 1550 0
-1681 -1874 1551 0
-1681 -1875 1552 0
-1681 -1876 1553 0
-1681 -1877 1554 0
-1681 -1878 1555 0
-1681 -1879 1556 0
-1681 -1880 1557 0
-1681 -1881 1558 0
-1681 -1882 1559 0
-1681 -1883 1560 0
-1681 -1884 1561 0
-1681 -1885 1562 0
-1681 -1886 1563 0
-1681 -1887 1564 0
-1681 -1888 1565 0
-1682 -1773 1451 0
-1682 -1774 1452 0
-1682 -1775 1453 0
-1682 -1776 1454 0
-1682 -1777 1455 0
-1682 -1778 1456 0
-1682 -1779 1457 0
-1682 -1780 1458 0
-1682 -1781 1459 0
-1682 -1782 1460 0
-1682 -1783 1461 0
-1682 -1784 1462 0
-1682 -1785 1463 0
-1682 -1786 1464 0
-1682 -1787 1465 0
-1682 -1788 1466 0
-1682 -1789 1467 0
-1682 -1790 1468 0
-1682 -1791 1469 0
-1682 -1792 1470 0
-1682 -1793 1471 0
-1682 -1794 1472 0
-1682 -1795 1473 0
-1682 -1796 1474 0
-1682 -1797 1475 0
-1682 -1798 1476 0
-1682 -1799 1477 0
-1682 -1800 1478 0
-1682 -1801 1479 0
-1682 -1802 1480 0
-1682 -1803 1481 0
-1682 -1804 1482 0
-1682 -1805 1483 0
-1682 -1806 1484 0
-1682 -1807 1485 0
-1682 -1808 1486 0
-1682 -1809 1487 0
-1682 -1810 1488 0
-1682 -1811 1489 0
-1682 -1812 1490 0
-1682 -1813 1491 0
-1682 -1814 1492 0
-1682 -1815 1493 0
-1682 -1816 1494 0
-1682 -1817 1495 0
-1682 -1818 1496 0
-1682 -1819 1497 0
-1682 -1820 1498 0
-1682 -1821 1499 0
-1682 -1822 1500 0
-1682 -1823 1501 0
-1682 -1824 1502 0
-1682 -1825 1503 0
-1682 -1826 1504 0
-1682 -1827 1505 0
-1682 -1828 1506 0
-1682 -1829 1507 0
-1682 -1830 1508 0
-1682 -1831 1509 0
-1682 -1832 1510 0
-1682 -1833 1511 0
-1682 -1834 1512 0
-1682 -1835 1513 0
-1682 -1836 1514 0
-1682 -1837 1515 0
-1682 -1838 1516 0
-1682 -1839 1517 0
-1682 -1840 1518 0
-1682 -1841 1519 0
-1682 -1842 1520 0
-1682 -1843 1521 0
-1682 -1844 1522 0
-1682 -1845 1523 0
-1682 -1846 1524 0
-1682 -1847 1525 0
-1682 -1848 1526 0
-1682 -1849 1527 0
-1682 -1850 1528 0
-1682 -1851 1529 0
-1682 -1852 1530 0
-1682 -1853 1531 0
-1682 -1854 1532 0
-1682 -1855 1533 0
-1682 -1856 1534 0
-1682 -1857 1535 0
-1682 -1858 1536 0
-1682 -1859 1537 0
-1682 -1860 1538 0
-1682 -1861 1539 0
-1682 -1862 1540 0
-1682 -1863 1541 0
-1682 -1864 1542 0
-1682 -1865 1543 0
-1682 -1866 1544 0
-1682 -1867 1545 0
-1682 -1868 1546 0
-1682 -1869 1547 0
-1682 -1870 1548 0
-1682 -1871 1549 0
-1682 -1872 1550 0
-1682 -1873 1551 0
-1682 -1874 1552 0
-1682 -1875 1553 0
-1682 -1876 1554 0
-1682 -1877 1555 0
-1682 -1878 1556 0
-1682 -1879 1557 0
-1682 -1880 1558 0
-1682 -1881 1559 0
-1682 -1882 1560 0
-1682 -1883 1561 0
-1682 -1884 1562 0
-1682 -1885 1563 0
-1682 -1886 1564 0
-1682 -1887 1565 0
-1682 -1888 1566 0
-1683 -1773 1452 0
-1683 -1774 1453 0
-1683 -1775 1454 0
-1683 -1776 1455 0
-1683 -1777 1456 0
-1683 -1778 1457 0
-1683 -1779 1458 0
-1683 -1780 1459 0
-1683 -1781 1460 0
-1683 -1782 1461 0
-1683 -1783 1462 0
-1683 -1784 1463 0
-1683 -1785 1464 0
-1683 -1786 1465 0
-1683 -1787 1466 0
-1683 -1788 1467 0
-1683 -1789 1468 0
-1683 -1790 1469 0
-1683 -1791 1470 0
-1683 -1792 1471 0
-1683 -1793 1472 0
-1683 -1794 1473 0
-1683 -1795 1474 0
-1683 -1796 1475 0
-1683 -1797 1476 0
-1683 -1798 1477 0
-1683 -1799 1478 0
-1683 -1800 1479 0
-1683 -1801 1480 0
-1683 -1802 1481 0
-1683 -1803 1482 0
-1683 -1804 1483 0
-1683 -1805 1484 0
-1683 -1806 1485 0
-1683 -1807 1486 0
-1683 -1808 1487 0
-1683 -1809 1488 0
-1683 -1810 1489 0
-1683 -1811 1490 0
-1683 -1812 1491 0
-1683 -1813 1492 0
-1683 -1814 1493 0
-1683 -1815 1494 0
-1683 -1816 1495 0
-1683 -1817 1496 0
-1683 -1818 1497 0
-1683 -1819 1498 0
-1683 -1820 1499 0
-1683 -1821 1500 0
-1683 -1822 1501 0
-1683 -1823 1502 0
-1683 -1824 1503 0
-1683 -1825 1504 0
-1683 -1826 1505 0
-1683 -1827 1506 0
-1683 -1828 1507 0
-1683 -1829 1508 0
-1683 -1830 1509 0
-1683 -1831 1510 0
-1683 -1832 1511 0
-1683 -1833 1512 0
-1683 -1834 1513 0
-1683 -1835 1514 0
-1683 -1836 1515 0
-1683 -1837 1516 0
-1683 -1838 1517 0
-1683 -1839 1518 0
-1683 -1840 1519 0
-1683 -1841 1520 0
-1683 -1842 1521 0
-1683 -1843 1522 0
-1683 -1844 1523 0
-1683 -1845 1524 0
-1683 -1846 1525 0
-1683 -1847 1526 0
-1683 -1848 1527 0
-1683 -1849 1528 0
-1683 -1850 1529 0
-1683 -1851 1530 0
-1683 -1852 1531 0
-1683 -1853 1532 0
-1683 -1854 1533 0
-1683 -1855 1534 0
-1683 -1856 1535 0
-1683 -1857 1536 0
-1683 -1858 1537 0
-1683 -1859 1538 0
-1683 -1860 1539 0
-1683 -1861 1540 0
-1683 -1862 1541 0
-1683 -1863 1542 0
-1683 -1864 1543 0
-1683 -1865 1544 0
-1683 -1866 1545 0
-1683 -1867 1546 0
-1683 -1868 1547 0
-1683 -1869 1548 0
-1683 -1870 1549 0
-1683 -1871 1550 0
-1683 -1872 1551 0
-1683 -1873 1552 0
-1683 -1874 1553 0
-1683 -1875 1554 0
-1683 -1876 1555 0
-1683 -1877 1556 0
-1683 -1878 1557 0
-1683 -1879 1558 0
-1683 -1880 1559 0
-1683 -1881 1560 0
-1683 -1882 1561 0
-1683 -1883 1562 0
-1683 -1884 1563 0
-1683 -1885 1564 0
-1683 -1886 1565 0
-1683 -1887 1566 0
-1683 -1888 1567 0
-1684 -1773 1453 0
-1684 -1774 1454 0
-1684 -1775 1455 0
-1684 -1776 1456 0
-1684 -1777 1457 0
-1684 -1778 1458 0
-1684 -1779 1459 0
-1684 -1780 1460 0
-1684 -1781 1461 0
-1684 -1782 1462 0
-1684 -1783 1463 0
-1684 -1784 1464 0
-1684 -1785 1465 0
-1684 -1786 1466 0
-1684 -1787 1467 0
-1684 -1788 1468 0
-1684 -1789 1469 0
-1684 -1790 1470 0
-1684 -1791 1471 0
-1684 -1792 1472 0
-1684 -1793 1473 0
-1684 -1794 1474 0
-1684 -1795 1475 0
-1684 -1796 1476 0
-1684 -1797 1477 0
-1684 -1798 1478 0
-1684 -1799 1479 0
-1684 -1800 1480 0
-1684 -1801 1481 0
-1684 -1802 1482 0
-1684 -1803 1483 0
-1684 -1804 1484 0
-1684 -1805 1485 0
-1684 -1806 1486 0
-1684 -1807 1487 0
-1684 -1808 1488 0
-1684 -1809 1489 0
-1684 -1810 1490 0
-1684 -1811 1491 0
-1684 -1812 1492 0
-1684 -1813 1493 0
-1684 -1814 1494 0
-1684 -1815 1495 0
-1684 -1816 1496 0
-1684 -1817 1497 0
-1684 -1818 1498 0
-1684 -1819 1499 0
-1684 -1820 1500 0
-1684 -1821 1501 0
-1684 -1822 1502 0
-1684 -1823 1503 0
-1684 -1824 1504 0
-1684 -1825 1505 0
-1684 -1826 1506 0
-1684 -1827 1507 0
-1684 -1828 1508 0
-1684 -1829 1509 0
-1684 -1830 1510 0
-1684 -1831 1511 0
-1684 -1832 1512 0
-1684 -1833 1513 0
-1684 -1834 1514 0
-1684 -1835 1515 0
-1684 -1836 1516 0
-1684 -1837 1517 0
-1684 -1838 1518 0
-1684 -1839 1519 0
-1684 -1840 1520 0
-1684 -1841 1521 0
-1684 -1842 1522 0
-1684 -1843 1523 0
-1684 -1844 1524 0
-1684 -1845 1525 0
-1684 -1846 1526 0
-1684 -1847 1527 0
-1684 -1848 1528 0
-1684 -1849 1529 0
-1684 -1850 1530 0
-1684 -1851 1531 0
-1684 -1852 1532 0
-1684 -1853 1533 0
-1684 -1854 1534 0
-1684 -1855 1535 0
-1684 -1856 1536 0
-1684 -1857 1537 0
-1684 -1858 1538 0
-1684 -1859 1539 0
-1684 -1860 1540 0
-1684 -1861 1541 0
-1684 -1862 1542 0
-1684 -1863 1543 0
-1684 -1864 1544 0
-1684 -1865 1545 0
-1684 -1866 1546 0
-1684 -1867 1547 0
-1684 -1868 1548 0
-1684 -1869 1549 0
-1684 -1870 1550 0
-1684 -1871 1551 0
-1684 -1872 1552 0
-1684 -1873 1553 0
-1684 -1874 1554 0
-1684 -1875 1555 0
-1684 -1876 1556 0
-1684 -1877 1557 0
-1684 -1878 1558 0
-1684 -1879 1559 0
-1684 -1880 1560 0
-1684 -1881 1561 0
-1684 -1882 1562 0
-1684 -1883 1563 0
-1684 -1884 1564 0
-1684 -1885 1565 0
-1684 -1886 1566 0
-1684 -1887 1567 0
-1684 -1888 1568 0
-1685 -1773 1454 0
-1685 -1774 1455 0
-1685 -1775 1456 0
-1685 -1776 1457 0
-1685 -1777 1458 0
-1685 -1778 1459 0
-1685 -1779 1460 0
-1685 -1780 1461 0
-1685 -1781 1462 0
-1685 -1782 1463 0
-1685 -1783 1464 0
-1685 -1784 1465 0
-1685 -1785 1466 0
-1685 -1786 1467 0
-1685 -1787 1468 0
-1685 -1788 1469 0
-1685 -1789 1470 0
-1685 -1790 1471 0
-1685 -1791 1472 0
-1685 -1792 1473 0
-1685 -1793 1474 0
-1685 -1794 1475 0
-1685 -1795 1476 0
-1685 -1796 1477 0
-1685 -1797 1478 0
-1685 -1798 1479 0
-1685 -1799 1480 0
-1685 -1800 1481 0
-1685 -1801 1482 0
-1685 -1802 1483 0
-1685 -1803 1484 0
-1685 -1804 1485 0
-1685 -1805 1486 0
-1685 -1806 1487 0
-1685 -1807 1488 0
-1685 -1808 1489 0
-1685 -1809 1490 0
-1685 -1810 1491 0
-1685 -1811 1492 0
-1685 -1812 1493 0
-1685 -1813 1494 0
-1685 -1814 1495 0
-1685 -1815 1496 0
-1685 -1816 1497 0
-1685 -1817 1498 0
-1685 -1818 1499 0
-1685 -1819 1500 0
-1685 -1820 1501 0
-1685 -1821 1502 0
-1685 -1822 1503 0
-1685 -1823 1504 0
-1685 -1824 1505 0
-1685 -1825 1506 0
-1685 -1826 1507 0
-1685 -1827 1508 0
-1685 -1828 1509 0
-1685 -1829 1510 0
-1685 -1830 1511 0
-1685 -1831 1512 0
-1685 -1832 1513 0
-1685 -1833 1514 0
-1685 -1834 1515 0
-1685 -1835 1516 0
-1685 -1836 1517 0
-1685 -1837 1518 0
-1685 -1838 1519 0
-1685 -1839 1520 0
-1685 -1840 1521 0
-1685 -1841 1522 0
-1685 -1842 1523 0
-1685 -1843 1524 0
-1685 -1844 1525 0
-1685 -1845 1526 0
-1685 -1846 1527 0
-1685 -1847 1528 0
-1685 -1848 1529 0
-1685 -1849 1530 0
-1685 -1850 1531 0
-1685 -1851 1532 0
-1685 -1852 1533 0
-1685 -1853 1534 0
-1685 -1854 1535 0
-1685 -1855 1536 0
-1685 -1856 1537 0
-1685 -1857 1538 0
-1685 -1858 1539 0
-1685 -1859 1540 0
-1685 -1860 1541 0
-1685 -1861 1542 0
-1685 -1862 1543 0
-1685 -1863 1544 0
-1685 -1864 1545 0
-1685 -1865 1546 0
-1685 -1866 1547 0
-1685 -1867 1548 0
-1685 -1868 1549 0
-1685 -1869 1550 0
-1685 -1870 1551 0
-1685 -1871 1552 0
-1685 -1872 1553 0
-1685 -1873 1554 0
-1685 -1874 1555 0
-1685 -1875 1556 0
-1685 -1876 1557 0
-1685 -1877 1558 0
-1685 -1878 1559 0
-1685 -1879 1560 0
-1685 -1880 1561 0
-1685 -1881 1562 0
-1685 -1882 1563 0
-1685 -1883 1564 0
-1685 -1884 1565 0
-1685 -1885 1566 0
-1685 -1886 1567 0
-1685 -1887 1568 0
-1685 -1888 1569 0
-1686 -1773 1455 0
-1686 -1774 1456 0
-1686 -1775 1457 0
-1686 -1776 1458 0
-1686 -1777 1459 0
-1686 -1778 1460 0
-1686 -1779 1461 0
-1686 -1780 1462 0
-1686 -1781 1463 0
-1686 -1782 1464 0
-1686 -1783 1465 0
-1686 -1784 1466 0
-1686 -1785 1467 0
-1686 -1786 1468 0
-1686 -1787 1469 0
-1686 -1788 1470 0
-1686 -1789 1471 0
-1686 -1790 1472 0
-1686 -1791 1473 0
-1686 -1792 1474 0
-1686 -1793 1475 0
-1686 -1794 1476 0
-1686 -1795 1477 0
-1686 -1796 1478 0
-1686 -1797 1479 0
-1686 -1798 1480 0
-1686 -1799 1481 0
-1686 -1800 1482 0
-1686 -1801 1483 0
-1686 -1802 1484 0
-1686 -1803 1485 0
-1686 -1804 1486 0
-1686 -1805 1487 0
-1686 -1806 1488 0
-1686 -1807 1489 0
-1686 -1808 1490 0
-1686 -1809 1491 0
-1686 -1810 1492 0
-1686 -1811 1493 0
-1686 -1812 1494 0
-1686 -1813 1495 0
-1686 -1814 1496 0
-1686 -1815 1497 0
-1686 -1816 1498 0
-1686 -1817 1499 0
-1686 -1818 1500 0
-1686 -1819 1501 0
-1686 -1820 1502 0
-1686 -1821 1503 0
-1686 -1822 1504 0
-1686 -1823 1505 0
-1686 -1824 1506 0
-1686 -1825 1507 0
-1686 -1826 1508 0
-1686 -1827 1509 0
-1686 -1828 1510 0
-1686 -1829 1511 0
-1686 -1830 1512 0
-1686 -1831 1513 0
-1686 -1832 1514 0
-1686 -1833 1515 0
-1686 -1834 1516 0
-1686 -1835 1517 0
-1686 -1836 1518 0
-1686 -1837 1519 0
-1686 -1838 1520 0
-1686 -1839 1521 0
-1686 -1840 1522 0
-1686 -1841 1523 0
-1686 -1842 1524 0
-1686 -1843 1525 0
-1686 -1844 1526 0
-1686 -1845 1527 0
-1686 -1846 1528 0
-1686 -1847 1529 0
-1686 -1848 1530 0
-1686 -1849 1531 0
-1686 -1850 1532 0
-1686 -1851 1533 0
-1686 -1852 1534 0
-1686 -1853 1535 0
-1686 -1854 1536 0
-1686 -1855 1537 0
-1686 -1856 1538 0
-1686 -1857 1539 0
-1686 -1858 1540 0
-1686 -1859 1541 0
-1686 -1860 1542 0
-1686 -1861 1543 0
-1686 -1862 1544 0
-1686 -1863 1545 0
-1686 -1864 1546 0
-1686 -1865 1547 0
-1686 -1866 1548 0
-1686 -1867 1549 0
-1686 -1868 1550 0
-1686 -1869 1551 0
-1686 -1870 1552 0
-1686 -1871 1553 0
-1686 -1872 1554 0
-1686 -1873 1555 0
-1686 -1874 1556 0
-1686 -1875 1557 0
-1686 -1876 1558 0
-1686 -1877 1559 0
-1686 -1878 1560 0
-1686 -1879 1561 0
-1686 -1880 1562 0
-1686 -1881 1563 0
-1686 -1882 1564 0
-1686 -1883 1565 0
-1686 -1884 1566 0
-1686 -1885 1567 0
-1686 -1886 1568 0
-1686 -1887 1569 0
-1686 -1888 1570 0
-1687 -1773 1456 0
-1687 -1774 1457 0
-1687 -1775 1458 0
-1687 -1776 1459 0
-1687 -1777 1460 0
-1687 -1778 1461 0
-1687 -1779 1462 0
-1687 -1780 1463 0
-1687 -1781 1464 0
-1687 -1782 1465 0
-1687 -1783 1466 0
-1687 -1784 1467 0
-1687 -1785 1468 0
-1687 -1786 1469 0
-1687 -1787 1470 0
-1687 -1788 1471 0
-1687 -1789 1472 0
-1687 -1790 1473 0
-1687 -1791 1474 0
-1687 -1792 1475 0
-1687 -1793 1476 0
-1687 -1794 1477 0
-1687 -1795 1478 0
-1687 -1796 1479 0
-1687 -1797 1480 0
-1687 -1798 1481 0
-1687 -1799 1482 0
-1687 -1800 1483 0
-1687 -1801 1484 0
-1687 -1802 1485 0
-1687 -1803 1486 0
-1687 -1804 1487 0
-1687 -1805 1488 0
-1687 -1806 1489 0
-1687 -1807 1490 0
-1687 -1808 1491 0
-1687 -1809 1492 0
-1687 -1810 1493 0
-1687 -1811 1494 0
-1687 -1812 1495 0
-1687 -1813 1496 0
-1687 -1814 1497 0
-1687 -1815 1498 0
-1687 -1816 1499 0
-1687 -1817 1500 0
-1687 -1818 1501 0
-1687 -1819 1502 0
-1687 -1820 1503 0
-1687 -1821 1504 0
-1687 -1822 1505 0
-1687 -1823 1506 0
-1687 -1824 1507 0
-1687 -1825 1508 0
-1687 -1826 1509 0
-1687 -1827 1510 0
-1687 -1828 1511 0
-1687 -1829 1512 0
-1687 -1830 1513 0
-1687 -1831 1514 0
-1687 -1832 1515 0
-1687 -1833 1516 0
-1687 -1834 1517 0
-1687 -1835 1518 0
-1687 -1836 1519 0
-1687 -1837 1520 0
-1687 -1838 1521 0
-1687 -1839 1522 0
-1687 -1840 1523 0
-1687 -1841 1524 0
-1687 -1842 1525 0
-1687 -1843 1526 0
-1687 -1844 1527 0
-1687 -1845 1528 0
-1687 -1846 1529 0
-1687 -1847 1530 0
-1687 -1848 1531 0
-1687 -1849 1532 0
-1687 -1850 1533 0
-1687 -1851 1534 0
-1687 -1852 1535 0
-1687 -1853 1536 0
-1687 -1854 1537 0
-1687 -1855 1538 0
-1687 -1856 1539 0
-1687 -1857 1540 0
-1687 -1858 1541 0
-1687 -1859 1542 0
-1687 -1860 1543 0
-1687 -1861 1544 0
-1687 -1862 1545 0
-1687 -1863 1546 0
-1687 -1864 1547 0
-1687 -1865 1548 0
-1687 -1866 1549 0
-1687 -1867 1550 0
-1687 -1868 1551 0
-1687 -1869 1552 0
-1687 -1870 1553 0
-1687 -1871 1554 0
-1687 -1872 1555 0
-1687 -1873 1556 0
-1687 -1874 1557 0
-1687 -1875 1558 0
-1687 -1876 1559 0
-1687 -1877 1560 0
-1687 -1878 1561 0
-1687 -1879 1562 0
-1687 -1880 1563 0
-1687 -1881 1564 0
-1687 -1882 1565 0
-1687 -1883 1566 0
-1687 -1884 1567 0
-1687 -1885 1568 0
-1687 -1886 1569 0
-1687 -1887 1570 0
-1687 -1888 1571 0
-1688 -1773 1457 0
-1688 -1774 1458 0
-1688 -1775 1459 0
-1688 -1776 1460 0
-1688 -1777 1461 0
-1688 -1778 1462 0
-1688 -1779 1463 0
-1688 -1780 1464 0
-1688 -1781 1465 0
-1688 -1782 1466 0
-1688 -1783 1467 0
-1688 -1784 1468 0
-1688 -1785 1469 0
-1688 -1786 1470 0
-1688 -1787 1471 0
-1688 -1788 1472 0
-1688 -1789 1473 0
-1688 -1790 1474 0
-1688 -1791 1475 0
-1688 -1792 1476 0
-1688 -1793 1477 0
-1688 -1794 1478 0
-1688 -1795 1479 0
-1688 -1796 1480 0
-1688 -1797 1481 0
-1688 -1798 1482 0
-1688 -1799 1483 0
-1688 -1800 1484 0
-1688 -1801 1485 0
-1688 -1802 1486 0
-1688 -1803 1487 0
-1688 -1804 1488 0
-1688 -1805 1489 0
-1688 -1806 1490 0
-1688 -1807 1491 0
-1688 -1808 1492 0
-1688 -1809 1493 0
-1688 -1810 1494 0
-1688 -1811 1495 0
-1688 -1812 1496 0
-1688 -1813 1497 0
-1688 -1814 1498 0
-1688 -1815 1499 0
-1688 -1816 1500 0
-1688 -1817 1501 0
-1688 -1818 1502 0
-1688 -1819 1503 0
-1688 -1820 1504 0
-1688 -1821 1505 0
-1688 -1822 1506 0
-1688 -1823 1507 0
-1688 -1824 1508 0
-1688 -1825 1509 0
-1688 -1826 1510 0
-1688 -1827 1511 0
-1688 -1828 1512 0
-1688 -1829 1513 0
-1688 -1830 1514 0
-1688 -1831 1515 0
-1688 -1832 1516 0
-1688 -1833 1517 0
-1688 -1834 1518 0
-1688 -1835 1519 0
-1688 -1836 1520 0
-1688 -1837 1521 0
-1688 -1838 1522 0
-1688 -1839 1523 0
-1688 -1840 1524 0
-1688 -1841 1525 0
-1688 -1842 1526 0
-1688 -1843 1527 0
-1688 -1844 1528 0
-1688 -1845 1529 0
-1688 -1846 1530 0
-1688 -1847 1531 0
-1688 -1848 1532 0
-1688 -1849 1533 0
-1688 -1850 1534 0
-1688 -1851 1535 0
-1688 -1852 1536 0
-1688 -1853 1537 0
-1688 -1854 1538 0
-1688 -1855 1539 0
-1688 -1856 1540 0
-1688 -1857 1541 0
-1688 -1858 1542 0
-1688 -1859 1543 0
-1688 -1860 1544 0
-1688 -1861 1545 0
-1688 -1862 1546 0
-1688 -1863 1547 0
-1688 -1864 1548 0
-1688 -1865 1549 0
-1688 -1866 1550 0
-1688 -1867 1551 0
-1688 -1868 1552 0
-1688 -1869 1553 0
-1688 -1870 1554 0
-1688 -1871 1555 0
-1688 -1872 1556 0
-1688 -1873 1557 0
-1688 -1874 1558 0
-1688 -1875 1559 0
-1688 -1876 1560 0
-1688 -1877 1561 0
-1688 -1878 1562 0
-1688 -1879 1563 0
-1688 -1880 1564 0
-1688 -1881 1565 0
-1688 -1882 1566 0
-1688 -1883 1567 0
-1688 -1884 1568 0
-1688 -1885 1569 0
-1688 -1886 1570 0
-1688 -1887 1571 0
-1688 -1888 1572 0
-1689 -1773 1458 0
-1689 -1774 1459 0
-1689 -1775 1460 0
-1689 -1776 1461 0
-1689 -1777 1462 0
-1689 -1778 1463 0
-1689 -1779 1464 0
-1689 -1780 1465 0
-1689 -1781 1466 0
-1689 -1782 1467 0
-1689 -1783 1468 0
-1689 -1784 1469 0
-1689 -1785 1470 0
-1689 -1786 1471 0
-1689 -1787 1472 0
-1689 -1788 1473 0
-1689 -1789 1474 0
-1689 -1790 1475 0
-1689 -1791 1476 0
-1689 -1792 1477 0
-1689 -1793 1478 0
-1689 -1794 1479 0
-1689 -1795 1480 0
-1689 -1796 1481 0
-1689 -1797 1482 0
-1689 -1798 1483 0
-1689 -1799 1484 0
-1689 -1800 1485 0
-1689 -1801 1486 0
-1689 -1802 1487 0
-1689 -1803 1488 0
-1689 -1804 1489 0
-1689 -1805 1490 0
-1689 -1806 1491 0
-1689 -1807 1492 0
-1689 -1808 1493 0
-1689 -1809 1494 0
-1689 -1810 1495 0
-1689 -1811 1496 0
-1689 -1812 1497 0
-1689 -1813 1498 0
-1689 -1814 1499 0
-1689 -1815 1500 0
-1689 -1816 1501 0
-1689 -1817 1502 0
-1689 -1818 1503 0
-1689 -1819 1504 0
-1689 -1820 1505 0
-1689 -1821 1506 0
-1689 -1822 1507 0
-1689 -1823 1508 0
-1689 -1824 1509 0
-1689 -1825 1510 0
-1689 -1826 1511 0
-1689 -1827 1512 0
-1689 -1828 1513 0
-1689 -1829 1514 0
-1689 -1830 1515 0
-1689 -1831 1516 0
-1689 -1832 1517 0
-1689 -1833 1518 0
-1689 -1834 1519 0
-1689 -1835 1520 0
-1689 -1836 1521 0
-1689 -1837 1522 0
-1689 -1838 1523 0
-1689 -1839 1524 0
-1689 -1840 1525 0
-1689 -1841 1526 0
-1689 -1842 1527 0
-1689 -1843 1528 0
-1689 -1844 1529 0
-1689 -1845 1530 0
-1689 -1846 1531 0
-1689 -1847 1532 0
-1689 -1848 1533 0
-1689 -1849 1534 0
-1689 -1850 1535 0
-1689 -1851 1536 0
-1689 -1852 1537 0
-1689 -1853 1538 0
-1689 -1854 1539 0
-1689 -1855 1540 0
-1689 -1856 1541 0
-1689 -1857 1542 0
-1689 -1858 1543 0
-1689 -1859 1544 0
-1689 -1860 1545 0
-1689 -1861 1546 0
-1689 -1862 1547 0
-1689 -1863 1548 0
-1689 -1864 1549 0
-1689 -1865 1550 0
-1689 -1866 1551 0
-1689 -1867 1552 0
-1689 -1868 1553 0
-1689 -1869 1554 0
-1689 -1870 1555 0
-1689 -1871 1556 0
-1689 -1872 1557 0
-1689 -1873 1558 0
-1689 -1874 1559 0
-1689 -1875 1560 0
-1689 -1876 1561 0
-1689 -1877 1562 0
-1689 -1878 1563 0
-1689 -1879 1564 0
-1689 -1880 1565 0
-1689 -1881 1566 0
-1689 -1882 1567 0
-1689 -1883 1568 0
-1689 -1884 1569 0
-1689 -1885 1570 0
-1689 -1886 1571 0
-1689 -1887 1572 0
-1689 -1888 1573 0
-1690 -1773 1459 0
-1690 -1774 1460 0
-1690 -1775 1461 0
-1690 -1776 1462 0
-1690 -1777 1463 0
-1690 -1778 1464 0
-1690 -1779 1465 0
-1690 -1780 1466 0
-1690 -1781 1467 0
-1690 -1782 1468 0
-1690 -1783 1469 0
-1690 -1784 1470 0
-1690 -1785 1471 0
-1690 -1786 1472 0
-1690 -1787 1473 0
-1690 -1788 1474 0
-1690 -1789 1475 0
-1690 -1790 1476 0
-1690 -1791 1477 0
-1690 -1792 1478 0
-1690 -1793 1479 0
-1690 -1794 1480 0
-1690 -1795 1481 0
-1690 -1796 1482 0
-1690 -1797 1483 0
-1690 -1798 1484 0
-1690 -1799 1485 0
-1690 -1800 1486 0
-1690 -1801 1487 0
-1690 -1802 1488 0
-1690 -1803 1489 0
-1690 -1804 1490 0
-1690 -1805 1491 0
-1690 -1806 1492 0
-1690 -1807 1493 0
-1690 -1808 1494 0
-1690 -1809 1495 0
-1690 -1810 1496 0
-1690 -1811 1497 0
-1690 -1812 1498 0
-1690 -1813 1499 0
-1690 -1814 1500 0
-1690 -1815 1501 0
-1690 -1816 1502 0
-1690 -1817 1503 0
-1690 -1818 1504 0
-1690 -1819 1505 0
-1690 -1820 1506 0
-1690 -1821 1507 0
-1690 -1822 1508 0
-1690 -1823 1509 0
-1690 -1824 1510 0
-1690 -1825 1511 0
-1690 -1826 1512 0
-1690 -1827 1513 0
-1690 -1828 1514 0
-1690 -1829 1515 0
-1690 -1830 1516 0
-1690 -1831 1517 0
-1690 -1832 1518 0
-1690 -1833 1519 0
-1690 -1834 1520 0
-1690 -1835 1521 0
-1690 -1836 1522 0
-1690 -1837 1523 0
-1690 -1838 1524 0
-1690 -1839 1525 0
-1690 -1840 1526 0
-1690 -1841 1527 0
-1690 -1842 1528 0
-1690 -1843 1529 0
-1690 -1844 1530 0
-1690 -1845 1531 0
-1690 -1846 1532 0
-1690 -1847 1533 0
-1690 -1848 1534 0
-1690 -1849 1535 0
-1690 -1850 1536 0
-1690 -1851 1537 0
-1690 -1852 1538 0
-1690 -1853 1539 0
-1690 -1854 1540 0
-1690 -1855 1541 0
-1690 -1856 1542 0
-1690 -1857 1543 0
-1690 -1858 1544 0
-1690 -1859 1545 0
-1690 -1860 1546 0
-1690 -1861 1547 0
-1690 -1862 1548 0
-1690 -1863 1549 0
-1690 -1864 1550 0
-1690 -1865 1551 0
-1690 -1866 1552 0
-1690 -1867 1553 0
-1690 -1868 1554 0
-1690 -1869 1555 0
-1690 -1870 1556 0
-1690 -1871 1557 0
-1690 -1872 1558 0
-1690 -1873 1559 0
-1690 -1874 1560 0
-1690 -1875 1561 0
-1690 -1876 1562 0
-1690 -1877 1563 0
-1690 -1878 1564 0
-1690 -1879 1565 0
-1690 -1880 1566 0
-1690 -1881 1567 0
-1690 -1882 1568 0
-1690 -1883 1569 0
-1690 -1884 1570 0
-1690 -1885 1571 0
-1690 -1886 1572 0
-1690 -1887 1573 0
-1690 -1888 1574 0
-1691 -1773 1460 0
-1691 -1774 1461 0
-1691 -1775 1462 0
-1691 -1776 1463 0
-1691 -1777 1464 0
-1691 -1778 1465 0
-1691 -1779 1466 0
-1691 -1780 1467 0
-1691 -1781 1468 0
-1691 -1782 1469 0
-1691 -1783 1470 0
-1691 -1784 1471 0
-1691 -1785 1472 0
-1691 -1786 1473 0
-1691 -1787 1474 0
-1691 -1788 1475 0
-1691 -1789 1476 0
-1691 -1790 1477 0
-1691 -1791 1478 0
-1691 -1792 1479 0
-1691 -1793 1480 0
-1691 -1794 1481 0
-1691 -1795 1482 0
-1691 -1796 1483 0
-1691 -1797 1484 0
-1691 -1798 1485 0
-1691 -1799 1486 0
-1691 -1800 1487 0
-1691 -1801 1488 0
-1691 -1802 1489 0
-1691 -1803 1490 0
-1691 -1804 1491 0
-1691 -1805 1492 0
-1691 -1806 1493 0
-1691 -1807 1494 0
-1691 -1808 1495 0
-1691 -1809 1496 0
-1691 -1810 1497 0
-1691 -1811 1498 0
-1691 -1812 1499 0
-1691 -1813 1500 0
-1691 -1814 1501 0
-1691 -1815 1502 0
-1691 -1816 1503 0
-1691 -1817 1504 0
-1691 -1818 1505 0
-1691 -1819 1506 0
-1691 -1820 1507 0
-1691 -1821 1508 0
-1691 -1822 1509 0
-1691 -1823 1510 0
-1691 -1824 1511 0
-1691 -1825 1512 0
-1691 -1826 1513 0
-1691 -1827 1514 0
-1691 -1828 1515 0
-1691 -1829 1516 0
-1691 -1830 1517 0
-1691 -1831 1518 0
-1691 -1832 1519 0
-1691 -1833 1520 0
-1691 -1834 1521 0
-1691 -1835 1522 0
-1691 -1836 1523 0
-1691 -1837 1524 0
-1691 -1838 1525 0
-1691 -1839 1526 0
-1691 -1840 1527 0
-1691 -1841 1528 0
-1691 -1842 1529 0
-1691 -1843 1530 0
-1691 -1844 1531 0
-1691 -1845 1532 0
-1691 -1846 1533 0
-1691 -1847 1534 0
-1691 -1848 1535 0
-1691 -1849 1536 0
-1691 -1850 1537 0
-1691 -1851 1538 0
-1691 -1852 1539 0
-1691 -1853 1540 0
-1691 -1854 1541 0
-1691 -1855 1542 0
-1691 -1856 1543 0
-1691 -1857 1544 0
-1691 -1858 1545 0
-1691 -1859 1546 0
-1691 -1860 1547 0
-1691 -1861 1548 0
-1691 -1862 1549 0
-1691 -1863 1550 0
-1691 -1864 1551 0
-1691 -1865 1552 0
-1691 -1866 1553 0
-1691 -1867 1554 0
-1691 -1868 1555 0
-1691 -1869 1556 0
-1691 -1870 1557 0
-1691 -1871 1558 0
-1691 -1872 1559 0
-1691 -1873 1560 0
-1691 -1874 1561 0
-1691 -1875 1562 0
-1691 -1876 1563 0
-1691 -1877 1564 0
-1691 -1878 1565 0
-1691 -1879 1566 0
-1691 -1880 1567 0
-1691 -1881 1568 0
-1691 -1882 1569 0
-1691 -1883 1570 0
-1691 -1884 1571 0
-1691 -1885 1572 0
-1691 -1886 1573 0
-1691 -1887 1574 0
-1691 -1888 1575 0
-1692 -1773 1461 0
-1692 -1774 1462 0
-1692 -1775 1463 0
-1692 -1776 1464 0
-1692 -1777 1465 0
-1692 -1778 1466 0
-1692 -1779 1467 0
-1692 -1780 1468 0
-1692 -1781 1469 0
-1692 -1782 1470 0
-1692 -1783 1471 0
-1692 -1784 1472 0
-1692 -1785 1473 0
-1692 -1786 1474 0
-1692 -1787 1475 0
-1692 -1788 1476 0
-1692 -1789 1477 0
-1692 -1790 1478 0
-1692 -1791 1479 0
-1692 -1792 1480 0
-1692 -1793 1481 0
-1692 -1794 1482 0
-1692 -1795 1483 0
-1692 -1796 1484 0
-1692 -1797 1485 0
-1692 -1798 1486 0
-1692 -1799 1487 0
-1692 -1800 1488 0
-1692 -1801 1489 0
-1692 -1802 1490 0
-1692 -1803 1491 0
-1692 -1804 1492 0
-1692 -1805 1493 0
-1692 -1806 1494 0
-1692 -1807 1495 0
-1692 -1808 1496 0
-1692 -1809 1497 0
-1692 -1810 1498 0
-1692 -1811 1499 0
-1692 -1812 1500 0
-1692 -1813 1501 0
-1692 -1814 1502 0
-1692 -1815 1503 0
-1692 -1816 1504 0
-1692 -1817 1505 0
-1692 -1818 1506 0
-1692 -1819 1507 0
-1692 -1820 1508 0
-1692 -1821 1509 0
-1692 -1822 1510 0
-1692 -1823 1511 0
-1692 -1824 1512 0
-1692 -1825 1513 0
-1692 -1826 1514 0
-1692 -1827 1515 0
-1692 -1828 1516 0
-1692 -1829 1517 0
-1692 -1830 1518 0
-1692 -1831 1519 0
-1692 -1832 1520 0
-1692 -1833 1521 0
-1692 -1834 1522 0
-1692 -1835 1523 0
-1692 -1836 1524 0
-1692 -1837 1525 0
-1692 -1838 1526 0
-1692 -1839 1527 0
-1692 -1840 1528 0
-1692 -1841 1529 0
-1692 -1842 1530 0
-1692 -1843 1531 0
-1692 -1844 1532 0
-1692 -1845 1533 0
-1692 -1846 1534 0
-1692 -1847 1535 0
-1692 -1848 1536 0
-1692 -1849 1537 0
-1692 -1850 1538 0
-1692 -1851 1539 0
-1692 -1852 1540 0
-1692 -1853 1541 0
-1692 -1854 1542 0
-1692 -1855 1543 0
-1692 -1856 1544 0
-1692 -1857 1545 0
-1692 -1858 1546 0
-1692 -1859 1547 0
-1692 -1860 1548 0
-1692 -1861 1549 0
-1692 -1862 1550 0
-1692 -1863 1551 0
-1692 -1864 1552 0
-1692 -1865 1553 0
-1692 -1866 1554 0
-1692 -1867 1555 0
-1692 -1868 1556 0
-1692 -1869 1557 0
-1692 -1870 1558 0
-1692 -1871 1559 0
-1692 -1872 1560 0
-1692 -1873 1561 0
-1692 -1874 1562 0
-1692 -1875 1563 0
-1692 -1876 1564 0
-1692 -1877 1565 0
-1692 -1878 1566 0
-1692 -1879 1567 0
-1692 -1880 1568 0
-1692 -1881 1569 0
-1692 -1882 1570 0
-1692 -1883 1571 0
-1692 -1884 1572 0
-1692 -1885 1573 0
-1692 -1886 1574 0
-1692 -1887 1575 0
-1692 -1888 1576 0
-1693 -1773 1462 0
-1693 -1774 1463 0
-1693 -1775 1464 0
-1693 -1776 1465 0
-1693 -1777 1466 0
-1693 -1778 1467 0
-1693 -1779 1468 0
-1693 -1780 1469 0
-1693 -1781 1470 0
-1693 -1782 1471 0
-1693 -1783 1472 0
-1693 -1784 1473 0
-1693 -1785 1474 0
-1693 -1786 1475 0
-1693 -1787 1476 0
-1693 -1788 1477 0
-1693 -1789 1478 0
-1693 -1790 1479 0
-1693 -1791 1480 0
-1693 -1792 1481 0
-1693 -1793 1482 0
-1693 -1794 1483 0
-1693 -1795 1484 0
-1693 -1796 1485 0
-1693 -1797 1486 0
-1693 -1798 1487 0
-1693 -1799 1488 0
-1693 -1800 1489 0
-1693 -1801 1490 0
-1693 -1802 1491 0
-1693 -1803 1492 0
-1693 -1804 1493 0
-1693 -1805 1494 0
-1693 -1806 1495 0
-1693 -1807 1496 0
-1693 -1808 1497 0
-1693 -1809 1498 0
-1693 -1810 1499 0
-1693 -1811 1500 0
-1693 -1812 1501 0
-1693 -1813 1502 0
-1693 -1814 1503 0
-1693 -1815 1504 0
-1693 -1816 1505 0
-1693 -1817 1506 0
-1693 -1818 1507 0
-1693 -1819 1508 0
-1693 -1820 1509 0
-1693 -1821 1510 0
-1693 -1822 1511 0
-1693 -1823 1512 0
-1693 -1824 1513 0
-1693 -1825 1514 0
-1693 -1826 1515 0
-1693 -1827 1516 0
-1693 -1828 1517 0
-1693 -1829 1518 0
-1693 -1830 1519 0
-1693 -1831 1520 0
-1693 -1832 1521 0
-1693 -1833 1522 0
-1693 -1834 1523 0
-1693 -1835 1524 0
-1693 -1836 1525 0
-1693 -1837 1526 0
-1693 -1838 1527 0
-1693 -1839 1528 0
-1693 -1840 1529 0
-1693 -1841 1530 0
-1693 -1842 1531 0
-1693 -1843 1532 0
-1693 -1844 1533 0
-1693 -1845 1534 0
-1693 -1846 1535 0
-1693 -1847 1536 0
-1693 -1848 1537 0
-1693 -1849 1538 0
-1693 -1850 1539 0
-1693 -1851 1540 0
-1693 -1852 1541 0
-1693 -1853 1542 0
-1693 -1854 1543 0
-1693 -1855 1544 0
-1693 -1856 1545 0
-1693 -1857 1546 0
-1693 -1858 1547 0
-1693 -1859 1548 0
-1693 -1860 1549 0
-1693 -1861 1550 0
-1693 -1862 1551 0
-1693 -1863 1552 0
-1693 -1864 1553 0
-1693 -1865 1554 0
-1693 -1866 1555 0
-1693 -1867 1556 0
-1693 -1868 1557 0
-1693 -1869 1558 0
-1693 -1870 1559 0
-1693 -1871 1560 0
-1693 -1872 1561 0
-1693 -1873 1562 0
-1693 -1874 1563 0
-1693 -1875 1564 0
-1693 -1876 1565 0
-1693 -1877 1566 0
-1693 -1878 1567 0
-1693 -1879 1568 0
-1693 -1880 1569 0
-1693 -1881 1570 0
-1693 -1882 1571 0
-1693 -1883 1572 0
-1693 -1884 1573 0
-1693 -1885 1574 0
-1693 -1886 1575 0
-1693 -1887 1576 0
-1693 -1888 1577 0
-1694 -1773 1463 0
-1694 -1774 1464 0
-1694 -1775 1465 0
-1694 -1776 1466 0
-1694 -1777 1467 0
-1694 -1778 1468 0
-1694 -1779 1469 0
-1694 -1780 1470 0
-1694 -1781 1471 0
-1694 -1782 1472 0
-1694 -1783 1473 0
-1694 -1784 1474 0
-1694 -1785 1475 0
-1694 -1786 1476 0
-1694 -1787 1477 0
-1694 -1788 1478 0
-1694 -1789 1479 0
-1694 -1790 1480 0
-1694 -1791 1481 0
-1694 -1792 1482 0
-1694 -1793 1483 0
-1694 -1794 1484 0
-1694 -1795 1485 0
-1694 -1796 1486 0
-1694 -1797 1487 0
-1694 -1798 1488 0
-1694 -1799 1489 0
-1694 -1800 1490 0
-1694 -1801 1491 0
-1694 -1802 1492 0
-1694 -1803 1493 0
-1694 -1804 1494 0
-1694 -1805 1495 0
-1694 -1806 1496 0
-1694 -1807 1497 0
-1694 -1808 1498 0
-1694 -1809 1499 0
-1694 -1810 1500 0
-1694 -1811 1501 0
-1694 -1812 1502 0
-1694 -1813 1503 0
-1694 -1814 1504 0
-1694 -1815 1505 0
-1694 -1816 1506 0
-1694 -1817 1507 0
-1694 -1818 1508 0
-1694 -1819 1509 0
-1694 -1820 1510 0
-1694 -1821 1511 0
-1694 -1822 1512 0
-1694 -1823 1513 0
-1694 -1824 1514 0
-1694 -1825 1515 0
-1694 -1826 1516 0
-1694 -1827 1517 0
-1694 -1828 1518 0
-1694 -1829 1519 0
-1694 -1830 1520 0
-1694 -1831 1521 0
-1694 -1832 1522 0
-1694 -1833 1523 0
-1694 -1834 1524 0
-1694 -1835 1525 0
-1694 -1836 1526 0
-1694 -1837 1527 0
-1694 -1838 1528 0
-1694 -1839 1529 0
-1694 -1840 1530 0
-1694 -1841 1531 0
-1694 -1842 1532 0
-1694 -1843 1533 0
-1694 -1844 1534 0
-1694 -1845 1535 0
-1694 -1846 1536 0
-1694 -1847 1537 0
-1694 -1848 1538 0
-1694 -1849 1539 0
-1694 -1850 1540 0
-1694 -1851 1541 0
-1694 -1852 1542 0
-1694 -1853 1543 0
-1694 -1854 1544 0
-1694 -1855 1545 0
-1694 -1856 1546 0
-1694 -1857 1547 0
-1694 -1858 1548 0
-1694 -1859 1549 0
-1694 -1860 1550 0
-1694 -1861 1551 0
-1694 -1862 1552 0
-1694 -1863 1553 0
-1694 -1864 1554 0
-1694 -1865 1555 0
-1694 -1866 1556 0
-1694 -1867 1557 0
-1694 -1868 1558 0
-1694 -1869 1559 0
-1694 -1870 1560 0
-1694 -1871 1561 0
-1694 -1872 1562 0
-1694 -1873 1563 0
-1694 -1874 1564 0
-1694 -1875 1565 0
-1694 -1876 1566 0
-1694 -1877 1567 0
-1694 -1878 1568 0
-1694 -1879 1569 0
-1694 -1880 1570 0
-1694 -1881 1571 0
-1694 -1882 1572 0
-1694 -1883 1573 0
-1694 -1884 1574 0
-1694 -1885 1575 0
-1694 -1886 1576 0
-1694 -1887 1577 0
-1694 -1888 1578 0
-1695 -1773 1464 0
-1695 -1774 1465 0
-1695 -1775 1466 0
-1695 -1776 1467 0
-1695 -1777 1468 0
-1695 -1778 1469 0
-1695 -1779 1470 0
-1695 -1780 1471 0
-1695 -1781 1472 0
-1695 -1782 1473 0
-1695 -1783 1474 0
-1695 -1784 1475 0
-1695 -1785 1476 0
-1695 -1786 1477 0
-1695 -1787 1478 0
-1695 -1788 1479 0
-1695 -1789 1480 0
-1695 -1790 1481 0
-1695 -1791 1482 0
-1695 -1792 1483 0
-1695 -1793 1484 0
-1695 -1794 1485 0
-1695 -1795 1486 0
-1695 -1796 1487 0
-1695 -1797 1488 0
-1695 -1798 1489 0
-1695 -1799 1490 0
-1695 -1800 1491 0
-1695 -1801 1492 0
-1695 -1802 1493 0
-1695 -1803 1494 0
-1695 -1804 1495 0
-1695 -1805 1496 0
-1695 -1806 1497 0
-1695 -1807 1498 0
-1695 -1808 1499 0
-1695 -1809 1500 0
-1695 -1810 1501 0
-1695 -1811 1502 0
-1695 -1812 1503 0
-1695 -1813 1504 0
-1695 -1814 1505 0
-1695 -1815 1506 0
-1695 -1816 1507 0
-1695 -1817 1508 0
-1695 -1818 1509 0
-1695 -1819 1510 0
-1695 -1820 1511 0
-1695 -1821 1512 0
-1695 -1822 1513 0
-1695 -1823 1514 0
-1695 -1824 1515 0
-1695 -1825 1516 0
-1695 -1826 1517 0
-1695 -1827 1518 0
-1695 -1828 1519 0
-1695 -1829 1520 0
-1695 -1830 1521 0
-1695 -1831 1522 0
-1695 -1832 1523 0
-1695 -1833 1524 0
-1695 -1834 1525 0
-1695 -1835 1526 0
-1695 -1836 1527 0
-1695 -1837 1528 0
-1695 -1838 1529 0
-1695 -1839 1530 0
-1695 -1840 1531 0
-1695 -1841 1532 0
-1695 -1842 1533 0
-1695 -1843 1534 0
-1695 -1844 1535 0
-1695 -1845 1536 0
-1695 -1846 1537 0
-1695 -1847 1538 0
-1695 -1848 1539 0
-1695 -1849 1540 0
-1695 -1850 1541 0
-1695 -1851 1542 0
-1695 -1852 1543 0
-1695 -1853 1544 0
-1695 -1854 1545 0
-1695 -1855 1546 0
-1695 -1856 1547 0
-1695 -1857 1548 0
-1695 -1858 1549 0
-1695 -1859 1550 0
-1695 -1860 1551 0
-1695 -1861 1552 0
-1695 -1862 1553 0
-1695 -1863 1554 0
-1695 -1864 1555 0
-1695 -1865 1556 0
-1695 -1866 1557 0
-1695 -1867 1558 0
-1695 -1868 1559 0
-1695 -1869 1560 0
-1695 -1870 1561 0
-1695 -1871 1562 0
-1695 -1872 1563 0
-1695 -1873 1564 0
-1695 -1874 1565 0
-1695 -1875 1566 0
-1695 -1876 1567 0
-1695 -1877 1568 0
-1695 -1878 1569 0
-1695 -1879 1570 0
-1695 -1880 1571 0
-1695 -1881 1572 0
-1695 -1882 1573 0
-1695 -1883 1574 0
-1695 -1884 1575 0
-1695 -1885 1576 0
-1695 -1886 1577 0
-1695 -1887 1578 0
-1695 -1888 1579 0
-1696 -1773 1465 0
-1696 -1774 1466 0
-1696 -1775 1467 0
-1696 -1776 1468 0
-1696 -1777 1469 0
-1696 -1778 1470 0
-1696 -1779 1471 0
-1696 -1780 1472 0
-1696 -1781 1473 0
-1696 -1782 1474 0
-1696 -1783 1475 0
-1696 -1784 1476 0
-1696 -1785 1477 0
-1696 -1786 1478 0
-1696 -1787 1479 0
-1696 -1788 1480 0
-1696 -1789 1481 0
-1696 -1790 1482 0
-1696 -1791 1483 0
-1696 -1792 1484 0
-1696 -1793 1485 0
-1696 -1794 1486 0
-1696 -1795 1487 0
-1696 -1796 1488 0
-1696 -1797 1489 0
-1696 -1798 1490 0
-1696 -1799 1491 0
-1696 -1800 1492 0
-1696 -1801 1493 0
-1696 -1802 1494 0
-1696 -1803 1495 0
-1696 -1804 1496 0
-1696 -1805 1497 0
-1696 -1806 1498 0
-1696 -1807 1499 0
-1696 -1808 1500 0
-1696 -1809 1501 0
-1696 -1810 1502 0
-1696 -1811 1503 0
-1696 -1812 1504 0
-1696 -1813 1505 0
-1696 -1814 1506 0
-1696 -1815 1507 0
-1696 -1816 1508 0
-1696 -1817 1509 0
-1696 -1818 1510 0
-1696 -1819 1511 0
-1696 -1820 1512 0
-1696 -1821 1513 0
-1696 -1822 1514 0
-1696 -1823 1515 0
-1696 -1824 1516 0
-1696 -1825 1517 0
-1696 -1826 1518 0
-1696 -1827 1519 0
-1696 -1828 1520 0
-1696 -1829 1521 0
-1696 -1830 1522 0
-1696 -1831 1523 0
-1696 -1832 1524 0
-1696 -1833 1525 0
-1696 -1834 1526 0
-1696 -1835 1527 0
-1696 -1836 1528 0
-1696 -1837 1529 0
-1696 -1838 1530 0
-1696 -1839 1531 0
-1696 -1840 1532 0
-1696 -1841 1533 0
-1696 -1842 1534 0
-1696 -1843 1535 0
-1696 -1844 1536 0
-1696 -1845 1537 0
-1696 -1846 1538 0
-1696 -1847 1539 0
-1696 -1848 1540 0
-1696 -1849 1541 0
-1696 -1850 1542 0
-1696 -1851 1543 0
-1696 -1852 1544 0
-1696 -1853 1545 0
-1696 -1854 1546 0
-1696 -1855 1547 0
-1696 -1856 1548 0
-1696 -1857 1549 0
-1696 -1858 1550 0
-1696 -1859 1551 0
-1696 -1860 1552 0
-1696 -1861 1553 0
-1696 -1862 1554 0
-1696 -1863 1555 0
-1696 -1864 1556 0
-1696 -1865 1557 0
-1696 -1866 1558 0
-1696 -1867 1559 0
-1696 -1868 1560 0
-1696 -1869 1561 0
-1696 -1870 1562 0
-1696 -1871 1563 0
-1696 -1872 1564 0
-1696 -1873 1565 0
-1696 -1874 1566 0
-1696 -1875 1567 0
-1696 -1876 1568 0
-1696 -1877 1569 0
-1696 -1878 1570 0
-1696 -1879 1571 0
-1696 -1880 1572 0
-1696 -1881 1573 0
-1696 -1882 1574 0
-1696 -1883 1575 0
-1696 -1884 1576 0
-1696 -1885 1577 0
-1696 -1886 1578 0
-1696 -1887 1579 0
-1696 -1888 1580 0
-1697 -1773 1466 0
-1697 -1774 1467 0
-1697 -1775 1468 0
-1697 -1776 1469 0
-1697 -1777 1470 0
-1697 -1778 1471 0
-1697 -1779 1472 0
-1697 -1780 1473 0
-1697 -1781 1474 0
-1697 -1782 1475 0
-1697 -1783 1476 0
-1697 -1784 1477 0
-1697 -1785 1478 0
-1697 -1786 1479 0
-1697 -1787 1480 0
-1697 -1788 1481 0
-1697 -1789 1482 0
-1697 -1790 1483 0
-1697 -1791 1484 0
-1697 -1792 1485 0
-1697 -1793 1486 0
-1697 -1794 1487 0
-1697 -1795 1488 0
-1697 -1796 1489 0
-1697 -1797 1490 0
-1697 -1798 1491 0
-1697 -1799 1492 0
-1697 -1800 1493 0
-1697 -1801 1494 0
-1697 -1802 1495 0
-1697 -1803 1496 0
-1697 -1804 1497 0
-1697 -1805 1498 0
-1697 -1806 1499 0
-1697 -1807 1500 0
-1697 -1808 1501 0
-1697 -1809 1502 0
-1697 -1810 1503 0
-1697 -1811 1504 0
-1697 -1812 1505 0
-1697 -1813 1506 0
-1697 -1814 1507 0
-1697 -1815 1508 0
-1697 -1816 1509 0
-1697 -1817 1510 0
-1697 -1818 1511 0
-1697 -1819 1512 0
-1697 -1820 1513 0
-1697 -1821 1514 0
-1697 -1822 1515 0
-1697 -1823 1516 0
-1697 -1824 1517 0
-1697 -1825 1518 0
-1697 -1826 1519 0
-1697 -1827 1520 0
-1697 -1828 1521 0
-1697 -1829 1522 0
-1697 -1830 1523 0
-1697 -1831 1524 0
-1697 -1832 1525 0
-1697 -1833 1526 0
-1697 -1834 1527 0
-1697 -1835 1528 0
-1697 -1836 1529 0
-1697 -1837 1530 0
-1697 -1838 1531 0
-1697 -1839 1532 0
-1697 -1840 1533 0
-1697 -1841 1534 0
-1697 -1842 1535 0
-1697 -1843 1536 0
-1697 -1844 1537 0
-1697 -1845 1538 0
-1697 -1846 1539 0
-1697 -1847 1540 0
-1697 -1848 1541 0
-1697 -1849 1542 0
-1697 -1850 1543 0
-1697 -1851 1544 0
-1697 -1852 1545 0
-1697 -1853 1546 0
-1697 -1854 1547 0
-1697 -1855 1548 0
-1697 -1856 1549 0
-1697 -1857 1550 0
-1697 -1858 1551 0
-1697 -1859 1552 0
-1697 -1860 1553 0
-1697 -1861 1554 0
-1697 -1862 1555 0
-1697 -1863 1556 0
-1697 -1864 1557 0
-1697 -1865 1558 0
-1697 -1866 1559 0
-1697 -1867 1560 0
-1697 -1868 1561 0
-1697 -1869 1562 0
-1697 -1870 1563 0
-1697 -1871 1564 0
-1697 -1872 1565 0
-1697 -1873 1566 0
-1697 -1874 1567 0
-1697 -1875 1568 0
-1697 -1876 1569 0
-1697 -1877 1570 0
-1697 -1878 1571 0
-1697 -1879 1572 0
-1697 -1880 1573 0
-1697 -1881 1574 0
-1697 -1882 1575 0
-1697 -1883 1576 0
-1697 -1884 1577 0
-1697 -1885 1578 0
-1697 -1886 1579 0
-1697 -1887 1580 0
-1697 -1888 1581 0
-1698 -1773 1467 0
-1698 -1774 1468 0
-1698 -1775 1469 0
-1698 -1776 1470 0
-1698 -1777 1471 0
-1698 -1778 1472 0
-1698 -1779 1473 0
-1698 -1780 1474 0
-1698 -1781 1475 0
-1698 -1782 1476 0
-1698 -1783 1477 0
-1698 -1784 1478 0
-1698 -1785 1479 0
-1698 -1786 1480 0
-1698 -1787 1481 0
-1698 -1788 1482 0
-1698 -1789 1483 0
-1698 -1790 1484 0
-1698 -1791 1485 0
-1698 -1792 1486 0
-1698 -1793 1487 0
-1698 -1794 1488 0
-1698 -1795 1489 0
-1698 -1796 1490 0
-1698 -1797 1491 0
-1698 -1798 1492 0
-1698 -1799 1493 0
-1698 -1800 1494 0
-1698 -1801 1495 0
-1698 -1802 1496 0
-1698 -1803 1497 0
-1698 -1804 1498 0
-1698 -1805 1499 0
-1698 -1806 1500 0
-1698 -1807 1501 0
-1698 -1808 1502 0
-1698 -1809 1503 0
-1698 -1810 1504 0
-1698 -1811 1505 0
-1698 -1812 1506 0
-1698 -1813 1507 0
-1698 -1814 1508 0
-1698 -1815 1509 0
-1698 -1816 1510 0
-1698 -1817 1511 0
-1698 -1818 1512 0
-1698 -1819 1513 0
-1698 -1820 1514 0
-1698 -1821 1515 0
-1698 -1822 1516 0
-1698 -1823 1517 0
-1698 -1824 1518 0
-1698 -1825 1519 0
-1698 -1826 1520 0
-1698 -1827 1521 0
-1698 -1828 1522 0
-1698 -1829 1523 0
-1698 -1830 1524 0
-1698 -1831 1525 0
-1698 -1832 1526 0
-1698 -1833 1527 0
-1698 -1834 1528 0
-1698 -1835 1529 0
-1698 -1836 1530 0
-1698 -1837 1531 0
-1698 -1838 1532 0
-1698 -1839 1533 0
-1698 -1840 1534 0
-1698 -1841 1535 0
-1698 -1842 1536 0
-1698 -1843 1537 0
-1698 -1844 1538 0
-1698 -1845 1539 0
-1698 -1846 1540 0
-1698 -1847 1541 0
-1698 -1848 1542 0
-1698 -1849 1543 0
-1698 -1850 1544 0
-1698 -1851 1545 0
-1698 -1852 1546 0
-1698 -1853 1547 0
-1698 -1854 1548 0
-1698 -1855 1549 0
-1698 -1856 1550 0
-1698 -1857 1551 0
-1698 -1858 1552 0
-1698 -1859 1553 0
-1698 -1860 1554 0
-1698 -1861 1555 0
-1698 -1862 1556 0
-1698 -1863 1557 0
-1698 -1864 1558 0
-1698 -1865 1559 0
-1698 -1866 1560 0
-1698 -1867 1561 0
-1698 -1868 1562 0
-1698 -1869 1563 0
-1698 -1870 1564 0
-1698 -1871 1565 0
-1698 -1872 1566 0
-1698 -1873 1567 0
-1698 -1874 1568 0
-1698 -1875 1569 0
-1698 -1876 1570 0
-1698 -1877 1571 0
-1698 -1878 1572 0
-1698 -1879 1573 0
-1698 -1880 1574 0
-1698 -1881 1575 0
-1698 -1882 1576 0
-1698 -1883 1577 0
-1698 -1884 1578 0
-1698 -1885 1579 0
-1698 -1886 1580 0
-1698 -1887 1581 0
-1698 -1888 1582 0
-1699 -1773 1468 0
-1699 -1774 1469 0
-1699 -1775 1470 0
-1699 -1776 1471 0
-1699 -1777 1472 0
-1699 -1778 1473 0
-1699 -1779 1474 0
-1699 -1780 1475 0
-1699 -1781 1476 0
-1699 -1782 1477 0
-1699 -1783 1478 0
-1699 -1784 1479 0
-1699 -1785 1480 0
-1699 -1786 1481 0
-1699 -1787 1482 0
-1699 -1788 1483 0
-1699 -1789 1484 0
-1699 -1790 1485 0
-1699 -1791 1486 0
-1699 -1792 1487 0
-1699 -1793 1488 0
-1699 -1794 1489 0
-1699 -1795 1490 0
-1699 -1796 1491 0
-1699 -1797 1492 0
-1699 -1798 1493 0
-1699 -1799 1494 0
-1699 -1800 1495 0
-1699 -1801 1496 0
-1699 -1802 1497 0
-1699 -1803 1498 0
-1699 -1804 1499 0
-1699 -1805 1500 0
-1699 -1806 1501 0
-1699 -1807 1502 0
-1699 -1808 1503 0
-1699 -1809 1504 0
-1699 -1810 1505 0
-1699 -1811 1506 0
-1699 -1812 1507 0
-1699 -1813 1508 0
-1699 -1814 1509 0
-1699 -1815 1510 0
-1699 -1816 1511 0
-1699 -1817 1512 0
-1699 -1818 1513 0
-1699 -1819 1514 0
-1699 -1820 1515 0
-1699 -1821 1516 0
-1699 -1822 1517 0
-1699 -1823 1518 0
-1699 -1824 1519 0
-1699 -1825 1520 0
-1699 -1826 1521 0
-1699 -1827 1522 0
-1699 -1828 1523 0
-1699 -1829 1524 0
-1699 -1830 1525 0
-1699 -1831 1526 0
-1699 -1832 1527 0
-1699 -1833 1528 0
-1699 -1834 1529 0
-1699 -1835 1530 0
-1699 -1836 1531 0
-1699 -1837 1532 0
-1699 -1838 1533 0
-1699 -1839 1534 0
-1699 -1840 1535 0
-1699 -1841 1536 0
-1699 -1842 1537 0
-1699 -1843 1538 0
-1699 -1844 1539 0
-1699 -1845 1540 0
-1699 -1846 1541 0
-1699 -1847 1542 0
-1699 -1848 1543 0
-1699 -1849 1544 0
-1699 -1850 1545 0
-1699 -1851 1546 0
-1699 -1852 1547 0
-1699 -1853 1548 0
-1699 -1854 1549 0
-1699 -1855 1550 0
-1699 -1856 1551 0
-1699 -1857 1552 0
-1699 -1858 1553 0
-1699 -1859 1554 0
-1699 -1860 1555 0
-1699 -1861 1556 0
-1699 -1862 1557 0
-1699 -1863 1558 0
-1699 -1864 1559 0
-1699 -1865 1560 0
-1699 -1866 1561 0
-1699 -1867 1562 0
-1699 -1868 1563 0
-1699 -1869 1564 0
-1699 -1870 1565 0
-1699 -1871 1566 0
-1699 -1872 1567 0
-1699 -1873 1568 0
-1699 -1874 1569 0
-1699 -1875 1570 0
-1699 -1876 1571 0
-1699 -1877 1572 0
-1699 -1878 1573 0
-1699 -1879 1574 0
-1699 -1880 1575 0
-1699 -1881 1576 0
-1699 -1882 1577 0
-1699 -1883 1578 0
-1699 -1884 1579 0
-1699 -1885 1580 0
-1699 -1886 1581 0
-1699 -1887 1582 0
-1699 -1888 1583 0
-1700 -1773 1469 0
-1700 -1774 1470 0
-1700 -1775 1471 0
-1700 -1776 1472 0
-1700 -1777 1473 0
-1700 -1778 1474 0
-1700 -1779 1475 0
-1700 -1780 1476 0
-1700 -1781 1477 0
-1700 -1782 1478 0
-1700 -1783 1479 0
-1700 -1784 1480 0
-1700 -1785 1481 0
-1700 -1786 1482 0
-1700 -1787 1483 0
-1700 -1788 1484 0
-1700 -1789 1485 0
-1700 -1790 1486 0
-1700 -1791 1487 0
-1700 -1792 1488 0
-1700 -1793 1489 0
-1700 -1794 1490 0
-1700 -1795 1491 0
-1700 -1796 1492 0
-1700 -1797 1493 0
-1700 -1798 1494 0
-1700 -1799 1495 0
-1700 -1800 1496 0
-1700 -1801 1497 0
-1700 -1802 1498 0
-1700 -1803 1499 0
-1700 -1804 1500 0
-1700 -1805 1501 0
-1700 -1806 1502 0
-1700 -1807 1503 0
-1700 -1808 1504 0
-1700 -1809 1505 0
-1700 -1810 1506 0
-1700 -1811 1507 0
-1700 -1812 1508 0
-1700 -1813 1509 0
-1700 -1814 1510 0
-1700 -1815 1511 0
-1700 -1816 1512 0
-1700 -1817 1513 0
-1700 -1818 1514 0
-1700 -1819 1515 0
-1700 -1820 1516 0
-1700 -1821 1517 0
-1700 -1822 1518 0
-1700 -1823 1519 0
-1700 -1824 1520 0
-1700 -1825 1521 0
-1700 -1826 1522 0
-1700 -1827 1523 0
-1700 -1828 1524 0
-1700 -1829 1525 0
-1700 -1830 1526 0
-1700 -1831 1527 0
-1700 -1832 1528 0
-1700 -1833 1529 0
-1700 -1834 1530 0
-1700 -1835 1531 0
-1700 -1836 1532 0
-1700 -1837 1533 0
-1700 -1838 1534 0
-1700 -1839 1535 0
-1700 -1840 1536 0
-1700 -1841 1537 0
-1700 -1842 1538 0
-1700 -1843 1539 0
-1700 -1844 1540 0
-1700 -1845 1541 0
-1700 -1846 1542 0
-1700 -1847 1543 0
-1700 -1848 1544 0
-1700 -1849 1545 0
-1700 -1850 1546 0
-1700 -1851 1547 0
-1700 -1852 1548 0
-1700 -1853 1549 0
-1700 -1854 1550 0
-1700 -1855 1551 0
-1700 -1856 1552 0
-1700 -1857 1553 0
-1700 -1858 1554 0
-1700 -1859 1555 0
-1700 -1860 1556 0
-1700 -1861 1557 0
-1700 -1862 1558 0
-1700 -1863 1559 0
-1700 -1864 1560 0
-1700 -1865 1561 0
-1700 -1866 1562 0
-1700 -1867 1563 0
-1700 -1868 1564 0
-1700 -1869 1565 0
-1700 -1870 1566 0
-1700 -1871 1567 0
-1700 -1872 1568 0
-1700 -1873 1569 0
-1700 -1874 1570 0
-1700 -1875 1571 0
-1700 -1876 1572 0
-1700 -1877 1573 0
-1700 -1878 1574 0
-1700 -1879 1575 0
-1700 -1880 1576 0
-1700 -1881 1577 0
-1700 -1882 1578 0
-1700 -1883 1579 0
-1700 -1884 1580 0
-1700 -1885 1581 0
-1700 -1886 1582 0
-1700 -1887 1583 0
-1700 -1888 1584 0
-1701 -1773 1470 0
-1701 -1774 1471 0
-1701 -1775 1472 0
-1701 -1776 1473 0
-1701 -1777 1474 0
-1701 -1778 1475 0
-1701 -1779 1476 0
-1701 -1780 1477 0
-1701 -1781 1478 0
-1701 -1782 1479 0
-1701 -1783 1480 0
-1701 -1784 1481 0
-1701 -1785 1482 0
-1701 -1786 1483 0
-1701 -1787 1484 0
-1701 -1788 1485 0
-1701 -1789 1486 0
-1701 -1790 1487 0
-1701 -1791 1488 0
-1701 -1792 1489 0
-1701 -1793 1490 0
-1701 -1794 1491 0
-1701 -1795 1492 0
-1701 -1796 1493 0
-1701 -1797 1494 0
-1701 -1798 1495 0
-1701 -1799 1496 0
-1701 -1800 1497 0
-1701 -1801 1498 0
-1701 -1802 1499 0
-1701 -1803 1500 0
-1701 -1804 1501 0
-1701 -1805 1502 0
-1701 -1806 1503 0
-1701 -1807 1504 0
-1701 -1808 1505 0
-1701 -1809 1506 0
-1701 -1810 1507 0
-1701 -1811 1508 0
-1701 -1812 1509 0
-1701 -1813 1510 0
-1701 -1814 1511 0
-1701 -1815 1512 0
-1701 -1816 1513 0
-1701 -1817 1514 0
-1701 -1818 1515 0
-1701 -1819 1516 0
-1701 -1820 1517 0
-1701 -1821 1518 0
-1701 -1822 1519 0
-1701 -1823 1520 0
-1701 -1824 1521 0
-1701 -1825 1522 0
-1701 -1826 1523 0
-1701 -1827 1524 0
-1701 -1828 1525 0
-1701 -1829 1526 0
-1701 -1830 1527 0
-1701 -1831 1528 0
-1701 -1832 1529 0
-1701 -1833 1530 0
-1701 -1834 1531 0
-1701 -1835 1532 0
-1701 -1836 1533 0
-1701 -1837 1534 0
-1701 -1838 1535 0
-1701 -1839 1536 0
-1701 -1840 1537 0
-1701 -1841 1538 0
-1701 -1842 1539 0
-1701 -1843 1540 0
-1701 -1844 1541 0
-1701 -1845 1542 0
-1701 -1846 1543 0
-1701 -1847 1544 0
-1701 -1848 1545 0
-1701 -1849 1546 0
-1701 -1850 1547 0
-1701 -1851 1548 0
-1701 -1852 1549 0
-1701 -1853 1550 0
-1701 -1854 1551 0
-1701 -1855 1552 0
-1701 -1856 1553 0
-1701 -1857 1554 0
-1701 -1858 1555 0
-1701 -1859 1556 0
-1701 -1860 1557 0
-1701 -1861 1558 0
-1701 -1862 1559 0
-1701 -1863 1560 0
-1701 -1864 1561 0
-1701 -1865 1562 0
-1701 -1866 1563 0
-1701 -1867 1564 0
-1701 -1868 1565 0
-1701 -1869 1566 0
-1701 -1870 1567 0
-1701 -1871 1568 0
-1701 -1872 1569 0
-1701 -1873 1570 0
-1701 -1874 1571 0
-1701 -1875 1572 0
-1701 -1876 1573 0
-1701 -1877 1574 0
-1701 -1878 1575 0
-1701 -1879 1576 0
-1701 -1880 1577 0
-1701 -1881 1578 0
-1701 -1882 1579 0
-1701 -1883 1580 0
-1701 -1884 1581 0
-1701 -1885 1582 0
-1701 -1886 1583 0
-1701 -1887 1584 0
-1701 -1888 1585 0
-1702 -1773 1471 0
-1702 -1774 1472 0
-1702 -1775 1473 0
-1702 -1776 1474 0
-1702 -1777 1475 0
-1702 -1778 1476 0
-1702 -1779 1477 0
-1702 -1780 1478 0
-1702 -1781 1479 0
-1702 -1782 1480 0
-1702 -1783 1481 0
-1702 -1784 1482 0
-1702 -1785 1483 0
-1702 -1786 1484 0
-1702 -1787 1485 0
-1702 -1788 1486 0
-1702 -1789 1487 0
-1702 -1790 1488 0
-1702 -1791 1489 0
-1702 -1792 1490 0
-1702 -1793 1491 0
-1702 -1794 1492 0
-1702 -1795 1493 0
-1702 -1796 1494 0
-1702 -1797 1495 0
-1702 -1798 1496 0
-1702 -1799 1497 0
-1702 -1800 1498 0
-1702 -1801 1499 0
-1702 -1802 1500 0
-1702 -1803 1501 0
-1702 -1804 1502 0
-1702 -1805 1503 0
-1702 -1806 1504 0
-1702 -1807 1505 0
-1702 -1808 1506 0
-1702 -1809 1507 0
-1702 -1810 1508 0
-1702 -1811 1509 0
-1702 -1812 1510 0
-1702 -1813 1511 0
-1702 -1814 1512 0
-1702 -1815 1513 0
-1702 -1816 1514 0
-1702 -1817 1515 0
-1702 -1818 1516 0
-1702 -1819 1517 0
-1702 -1820 1518 0
-1702 -1821 1519 0
-1702 -1822 1520 0
-1702 -1823 1521 0
-1702 -1824 1522 0
-1702 -1825 1523 0
-1702 -1826 1524 0
-1702 -1827 1525 0
-1702 -1828 1526 0
-1702 -1829 1527 0
-1702 -1830 1528 0
-1702 -1831 1529 0
-1702 -1832 1530 0
-1702 -1833 1531 0
-1702 -1834 1532 0
-1702 -1835 1533 0
-1702 -1836 1534 0
-1702 -1837 1535 0
-1702 -1838 1536 0
-1702 -1839 1537 0
-1702 -1840 1538 0
-1702 -1841 1539 0
-1702 -1842 1540 0
-1702 -1843 1541 0
-1702 -1844 1542 0
-1702 -1845 1543 0
-1702 -1846 1544 0
-1702 -1847 1545 0
-1702 -1848 1546 0
-1702 -1849 1547 0
-1702 -1850 1548 0
-1702 -1851 1549 0
-1702 -1852 1550 0
-1702 -1853 1551 0
-1702 -1854 1552 0
-1702 -1855 1553 0
-1702 -1856 1554 0
-1702 -1857 1555 0
-1702 -1858 1556 0
-1702 -1859 1557 0
-1702 -1860 1558 0
-1702 -1861 1559 0
-1702 -1862 1560 0
-1702 -1863 1561 0
-1702 -1864 1562 0
-1702 -1865 1563 0
-1702 -1866 1564 0
-1702 -1867 1565 0
-1702 -1868 1566 0
-1702 -1869 1567 0
-1702 -1870 1568 0
-1702 -1871 1569 0
-1702 -1872 1570 0
-1702 -1873 1571 0
-1702 -1874 1572 0
-1702 -1875 1573 0
-1702 -1876 1574 0
-1702 -1877 1575 0
-1702 -1878 1576 0
-1702 -1879 1577 0
-1702 -1880 1578 0
-1702 -1881 1579 0
-1702 -1882 1580 0
-1702 -1883 1581 0
-1702 -1884 1582 0
-1702 -1885 1583 0
-1702 -1886 1584 0
-1702 -1887 1585 0
-1702 -1888 1586 0
-1703 -1773 1472 0
-1703 -1774 1473 0
-1703 -1775 1474 0
-1703 -1776 1475 0
-1703 -1777 1476 0
-1703 -1778 1477 0
-1703 -1779 1478 0
-1703 -1780 1479 0
-1703 -1781 1480 0
-1703 -1782 1481 0
-1703 -1783 1482 0
-1703 -1784 1483 0
-1703 -1785 1484 0
-1703 -1786 1485 0
-1703 -1787 1486 0
-1703 -1788 1487 0
-1703 -1789 1488 0
-1703 -1790 1489 0
-1703 -1791 1490 0
-1703 -1792 1491 0
-1703 -1793 1492 0
-1703 -1794 1493 0
-1703 -1795 1494 0
-1703 -1796 1495 0
-1703 -1797 1496 0
-1703 -1798 1497 0
-1703 -1799 1498 0
-1703 -1800 1499 0
-1703 -1801 1500 0
-1703 -1802 1501 0
-1703 -1803 1502 0
-1703 -1804 1503 0
-1703 -1805 1504 0
-1703 -1806 1505 0
-1703 -1807 1506 0
-1703 -1808 1507 0
-1703 -1809 1508 0
-1703 -1810 1509 0
-1703 -1811 1510 0
-1703 -1812 1511 0
-1703 -1813 1512 0
-1703 -1814 1513 0
-1703 -1815 1514 0
-1703 -1816 1515 0
-1703 -1817 1516 0
-1703 -1818 1517 0
-1703 -1819 1518 0
-1703 -1820 1519 0
-1703 -1821 1520 0
-1703 -1822 1521 0
-1703 -1823 1522 0
-1703 -1824 1523 0
-1703 -1825 1524 0
-1703 -1826 1525 0
-1703 -1827 1526 0
-1703 -1828 1527 0
-1703 -1829 1528 0
-1703 -1830 1529 0
-1703 -1831 1530 0
-1703 -1832 1531 0
-1703 -1833 1532 0
-1703 -1834 1533 0
-1703 -1835 1534 0
-1703 -1836 1535 0
-1703 -1837 1536 0
-1703 -1838 1537 0
-1703 -1839 1538 0
-1703 -1840 1539 0
-1703 -1841 1540 0
-1703 -1842 1541 0
-1703 -1843 1542 0
-1703 -1844 1543 0
-1703 -1845 1544 0
-1703 -1846 1545 0
-1703 -1847 1546 0
-1703 -1848 1547 0
-1703 -1849 1548 0
-1703 -1850 1549 0
-1703 -1851 1550 0
-1703 -1852 1551 0
-1703 -1853 1552 0
-1703 -1854 1553 0
-1703 -1855 1554 0
-1703 -1856 1555 0
-1703 -1857 1556 0
-1703 -1858 1557 0
-1703 -1859 1558 0
-1703 -1860 1559 0
-1703 -1861 1560 0
-1703 -1862 1561 0
-1703 -1863 1562 0
-1703 -1864 1563 0
-1703 -1865 1564 0
-1703 -1866 1565 0
-1703 -1867 1566 0
-1703 -1868 1567 0
-1703 -1869 1568 0
-1703 -1870 1569 0
-1703 -1871 1570 0
-1703 -1872 1571 0
-1703 -1873 1572 0
-1703 -1874 1573 0
-1703 -1875 1574 0
-1703 -1876 1575 0
-1703 -1877 1576 0
-1703 -1878 1577 0
-1703 -1879 1578 0
-1703 -1880 1579 0
-1703 -1881 1580 0
-1703 -1882 1581 0
-1703 -1883 1582 0
-1703 -1884 1583 0
-1703 -1885 1584 0
-1703 -1886 1585 0
-1703 -1887 1586 0
-1703 -1888 1587 0
-1704 -1773 1473 0
-1704 -1774 1474 0
-1704 -1775 1475 0
-1704 -1776 1476 0
-1704 -1777 1477 0
-1704 -1778 1478 0
-1704 -1779 1479 0
-1704 -1780 1480 0
-1704 -1781 1481 0
-1704 -1782 1482 0
-1704 -1783 1483 0
-1704 -1784 1484 0
-1704 -1785 1485 0
-1704 -1786 1486 0
-1704 -1787 1487 0
-1704 -1788 1488 0
-1704 -1789 1489 0
-1704 -1790 1490 0
-1704 -1791 1491 0
-1704 -1792 1492 0
-1704 -1793 1493 0
-1704 -1794 1494 0
-1704 -1795 1495 0
-1704 -1796 1496 0
-1704 -1797 1497 0
-1704 -1798 1498 0
-1704 -1799 1499 0
-1704 -1800 1500 0
-1704 -1801 1501 0
-1704 -1802 1502 0
-1704 -1803 1503 0
-1704 -1804 1504 0
-1704 -1805 1505 0
-1704 -1806 1506 0
-1704 -1807 1507 0
-1704 -1808 1508 0
-1704 -1809 1509 0
-1704 -1810 1510 0
-1704 -1811 1511 0
-1704 -1812 1512 0
-1704 -1813 1513 0
-1704 -1814 1514 0
-1704 -1815 1515 0
-1704 -1816 1516 0
-1704 -1817 1517 0
-1704 -1818 1518 0
-1704 -1819 1519 0
-1704 -1820 1520 0
-1704 -1821 1521 0
-1704 -1822 1522 0
-1704 -1823 1523 0
-1704 -1824 1524 0
-1704 -1825 1525 0
-1704 -1826 1526 0
-1704 -1827 1527 0
-1704 -1828 1528 0
-1704 -1829 1529 0
-1704 -1830 1530 0
-1704 -1831 1531 0
-1704 -1832 1532 0
-1704 -1833 1533 0
-1704 -1834 1534 0
-1704 -1835 1535 0
-1704 -1836 1536 0
-1704 -1837 1537 0
-1704 -1838 1538 0
-1704 -1839 1539 0
-1704 -1840 1540 0
-1704 -1841 1541 0
-1704 -1842 1542 0
-1704 -1843 1543 0
-1704 -1844 1544 0
-1704 -1845 1545 0
-1704 -1846 1546 0
-1704 -1847 1547 0
-1704 -1848 1548 0
-1704 -1849 1549 0
-1704 -1850 1550 0
-1704 -1851 1551 0
-1704 -1852 1552 0
-1704 -1853 1553 0
-1704 -1854 1554 0
-1704 -1855 1555 0
-1704 -1856 1556 0
-1704 -1857 1557 0
-1704 -1858 1558 0
-1704 -1859 1559 0
-1704 -1860 1560 0
-1704 -1861 1561 0
-1704 -1862 1562 0
-1704 -1863 1563 0
-1704 -1864 1564 0
-1704 -1865 1565 0
-1704 -1866 1566 0
-1704 -1867 1567 0
-1704 -1868 1568 0
-1704 -1869 1569 0
-1704 -1870 1570 0
-1704 -1871 1571 0
-1704 -1872 1572 0
-1704 -1873 1573 0
-1704 -1874 1574 0
-1704 -1875 1575 0
-1704 -1876 1576 0
-1704 -1877 1577 0
-1704 -1878 1578 0
-1704 -1879 1579 0
-1704 -1880 1580 0
-1704 -1881 1581 0
-1704 -1882 1582 0
-1704 -1883 1583 0
-1704 -1884 1584 0
-1704 -1885 1585 0
-1704 -1886 1586 0
-1704 -1887 1587 0
-1704 -1888 1588 0
-1705 -1773 1474 0
-1705 -1774 1475 0
-1705 -1775 1476 0
-1705 -1776 1477 0
-1705 -1777 1478 0
-1705 -1778 1479 0
-1705 -1779 1480 0
-1705 -1780 1481 0
-1705 -1781 1482 0
-1705 -1782 1483 0
-1705 -1783 1484 0
-1705 -1784 1485 0
-1705 -1785 1486 0
-1705 -1786 1487 0
-1705 -1787 1488 0
-1705 -1788 1489 0
-1705 -1789 1490 0
-1705 -1790 1491 0
-1705 -1791 1492 0
-1705 -1792 1493 0
-1705 -1793 1494 0
-1705 -1794 1495 0
-1705 -1795 1496 0
-1705 -1796 1497 0
-1705 -1797 1498 0
-1705 -1798 1499 0
-1705 -1799 1500 0
-1705 -1800 1501 0
-1705 -1801 1502 0
-1705 -1802 1503 0
-1705 -1803 1504 0
-1705 -1804 1505 0
-1705 -1805 1506 0
-1705 -1806 1507 0
-1705 -1807 1508 0
-1705 -1808 1509 0
-1705 -1809 1510 0
-1705 -1810 1511 0
-1705 -1811 1512 0
-1705 -1812 1513 0
-1705 -1813 1514 0
-1705 -1814 1515 0
-1705 -1815 1516 0
-1705 -1816 1517 0
-1705 -1817 1518 0
-1705 -1818 1519 0
-1705 -1819 1520 0
-1705 -1820 1521 0
-1705 -1821 1522 0
-1705 -1822 1523 0
-1705 -1823 1524 0
-1705 -1824 1525 0
-1705 -1825 1526 0
-1705 -1826 1527 0
-1705 -1827 1528 0
-1705 -1828 1529 0
-1705 -1829 1530 0
-1705 -1830 1531 0
-1705 -1831 1532 0
-1705 -1832 1533 0
-1705 -1833 1534 0
-1705 -1834 1535 0
-1705 -1835 1536 0
-1705 -1836 1537 0
-1705 -1837 1538 0
-1705 -1838 1539 0
-1705 -1839 1540 0
-1705 -1840 1541 0
-1705 -1841 1542 0
-1705 -1842 1543 0
-1705 -1843 1544 0
-1705 -1844 1545 0
-1705 -1845 1546 0
-1705 -1846 1547 0
-1705 -1847 1548 0
-1705 -1848 1549 0
-1705 -1849 1550 0
-1705 -1850 1551 0
-1705 -1851 1552 0
-1705 -1852 1553 0
-1705 -1853 1554 0
-1705 -1854 1555 0
-1705 -1855 1556 0
-1705 -1856 1557 0
-1705 -1857 1558 0
-1705 -1858 1559 0
-1705 -1859 1560 0
-1705 -1860 1561 0
-1705 -1861 1562 0
-1705 -1862 1563 0
-1705 -1863 1564 0
-1705 -1864 1565 0
-1705 -1865 1566 0
-1705 -1866 1567 0
-1705 -1867 1568 0
-1705 -1868 1569 0
-1705 -1869 1570 0
-1705 -1870 1571 0
-1705 -1871 1572 0
-1705 -1872 1573 0
-1705 -1873 1574 0
-1705 -1874 1575 0
-1705 -1875 1576 0
-1705 -1876 1577 0
-1705 -1877 1578 0
-1705 -1878 1579 0
-1705 -1879 1580 0
-1705 -1880 1581 0
-1705 -1881 1582 0
-1705 -1882 1583 0
-1705 -1883 1584 0
-1705 -1884 1585 0
-1705 -1885 1586 0
-1705 -1886 1587 0
-1705 -1887 1588 0
-1705 -1888 1589 0
-1706 -1773 1475 0
-1706 -1774 1476 0
-1706 -1775 1477 0
-1706 -1776 1478 0
-1706 -1777 1479 0
-1706 -1778 1480 0
-1706 -1779 1481 0
-1706 -1780 1482 0
-1706 -1781 1483 0
-1706 -1782 1484 0
-1706 -1783 1485 0
-1706 -1784 1486 0
-1706 -1785 1487 0
-1706 -1786 1488 0
-1706 -1787 1489 0
-1706 -1788 1490 0
-1706 -1789 1491 0
-1706 -1790 1492 0
-1706 -1791 1493 0
-1706 -1792 1494 0
-1706 -1793 1495 0
-1706 -1794 1496 0
-1706 -1795 1497 0
-1706 -1796 1498 0
-1706 -1797 1499 0
-1706 -1798 1500 0
-1706 -1799 1501 0
-1706 -1800 1502 0
-1706 -1801 1503 0
-1706 -1802 1504 0
-1706 -1803 1505 0
-1706 -1804 1506 0
-1706 -1805 1507 0
-1706 -1806 1508 0
-1706 -1807 1509 0
-1706 -1808 1510 0
-1706 -1809 1511 0
-1706 -1810 1512 0
-1706 -1811 1513 0
-1706 -1812 1514 0
-1706 -1813 1515 0
-1706 -1814 1516 0
-1706 -1815 1517 0
-1706 -1816 1518 0
-1706 -1817 1519 0
-1706 -1818 1520 0
-1706 -1819 1521 0
-1706 -1820 1522 0
-1706 -1821 1523 0
-1706 -1822 1524 0
-1706 -1823 1525 0
-1706 -1824 1526 0
-1706 -1825 1527 0
-1706 -1826 1528 0
-1706 -1827 1529 0
-1706 -1828 1530 0
-1706 -1829 1531 0
-1706 -1830 1532 0
-1706 -1831 1533 0
-1706 -1832 1534 0
-1706 -1833 1535 0
-1706 -1834 1536 0
-1706 -1835 1537 0
-1706 -1836 1538 0
-1706 -1837 1539 0
-1706 -1838 1540 0
-1706 -1839 1541 0
-1706 -1840 1542 0
-1706 -1841 1543 0
-1706 -1842 1544 0
-1706 -1843 1545 0
-1706 -1844 1546 0
-1706 -1845 1547 0
-1706 -1846 1548 0
-1706 -1847 1549 0
-1706 -1848 1550 0
-1706 -1849 1551 0
-1706 -1850 1552 0
-1706 -1851 1553 0
-1706 -1852 1554 0
-1706 -1853 1555 0
-1706 -1854 1556 0
-1706 -1855 1557 0
-1706 -1856 1558 0
-1706 -1857 1559 0
-1706 -1858 1560 0
-1706 -1859 1561 0
-1706 -1860 1562 0
-1706 -1861 1563 0
-1706 -1862 1564 0
-1706 -1863 1565 0
-1706 -1864 1566 0
-1706 -1865 1567 0
-1706 -1866 1568 0
-1706 -1867 1569 0
-1706 -1868 1570 0
-1706 -1869 1571 0
-1706 -1870 1572 0
-1706 -1871 1573 0
-1706 -1872 1574 0
-1706 -1873 1575 0
-1706 -1874 1576 0
-1706 -1875 1577 0
-1706 -1876 1578 0
-1706 -1877 1579 0
-1706 -1878 1580 0
-1706 -1879 1581 0
-1706 -1880 1582 0
-1706 -1881 1583 0
-1706 -1882 1584 0
-1706 -1883 1585 0
-1706 -1884 1586 0
-1706 -1885 1587 0
-1706 -1886 1588 0
-1706 -1887 1589 0
-1706 -1888 1590 0
-1707 -1773 1476 0
-1707 -1774 1477 0
-1707 -1775 1478 0
-1707 -1776 1479 0
-1707 -1777 1480 0
-1707 -1778 1481 0
-1707 -1779 1482 0
-1707 -1780 1483 0
-1707 -1781 1484 0
-1707 -1782 1485 0
-1707 -1783 1486 0
-1707 -1784 1487 0
-1707 -1785 1488 0
-1707 -1786 1489 0
-1707 -1787 1490 0
-1707 -1788 1491 0
-1707 -1789 1492 0
-1707 -1790 1493 0
-1707 -1791 1494 0
-1707 -1792 1495 0
-1707 -1793 1496 0
-1707 -1794 1497 0
-1707 -1795 1498 0
-1707 -1796 1499 0
-1707 -1797 1500 0
-1707 -1798 1501 0
-1707 -1799 1502 0
-1707 -1800 1503 0
-1707 -1801 1504 0
-1707 -1802 1505 0
-1707 -1803 1506 0
-1707 -1804 1507 0
-1707 -1805 1508 0
-1707 -1806 1509 0
-1707 -1807 1510 0
-1707 -1808 1511 0
-1707 -1809 1512 0
-1707 -1810 1513 0
-1707 -1811 1514 0
-1707 -1812 1515 0
-1707 -1813 1516 0
-1707 -1814 1517 0
-1707 -1815 1518 0
-1707 -1816 1519 0
-1707 -1817 1520 0
-1707 -1818 1521 0
-1707 -1819 1522 0
-1707 -1820 1523 0
-1707 -1821 1524 0
-1707 -1822 1525 0
-1707 -1823 1526 0
-1707 -1824 1527 0
-1707 -1825 1528 0
-1707 -1826 1529 0
-1707 -1827 1530 0
-1707 -1828 1531 0
-1707 -1829 1532 0
-1707 -1830 1533 0
-1707 -1831 1534 0
-1707 -1832 1535 0
-1707 -1833 1536 0
-1707 -1834 1537 0
-1707 -1835 1538 0
-1707 -1836 1539 0
-1707 -1837 1540 0
-1707 -1838 1541 0
-1707 -1839 1542 0
-1707 -1840 1543 0
-1707 -1841 1544 0
-1707 -1842 1545 0
-1707 -1843 1546 0
-1707 -1844 1547 0
-1707 -1845 1548 0
-1707 -1846 1549 0
-1707 -1847 1550 0
-1707 -1848 1551 0
-1707 -1849 1552 0
-1707 -1850 1553 0
-1707 -1851 1554 0
-1707 -1852 1555 0
-1707 -1853 1556 0
-1707 -1854 1557 0
-1707 -1855 1558 0
-1707 -1856 1559 0
-1707 -1857 1560 0
-1707 -1858 1561 0
-1707 -1859 1562 0
-1707 -1860 1563 0
-1707 -1861 1564 0
-1707 -1862 1565 0
-1707 -1863 1566 0
-1707 -1864 1567 0
-1707 -1865 1568 0
-1707 -1866 1569 0
-1707 -1867 1570 0
-1707 -1868 1571 0
-1707 -1869 1572 0
-1707 -1870 1573 0
-1707 -1871 1574 0
-1707 -1872 1575 0
-1707 -1873 1576 0
-1707 -1874 1577 0
-1707 -1875 1578 0
-1707 -1876 1579 0
-1707 -1877 1580 0
-1707 -1878 1581 0
-1707 -1879 1582 0
-1707 -1880 1583 0
-1707 -1881 1584 0
-1707 -1882 1585 0
-1707 -1883 1586 0
-1707 -1884 1587 0
-1707 -1885 1588 0
-1707 -1886 1589 0
-1707 -1887 1590 0
-1707 -1888 1591 0
-1708 -1773 1477 0
-1708 -1774 1478 0
-1708 -1775 1479 0
-1708 -1776 1480 0
-1708 -1777 1481 0
-1708 -1778 1482 0
-1708 -1779 1483 0
-1708 -1780 1484 0
-1708 -1781 1485 0
-1708 -1782 1486 0
-1708 -1783 1487 0
-1708 -1784 1488 0
-1708 -1785 1489 0
-1708 -1786 1490 0
-1708 -1787 1491 0
-1708 -1788 1492 0
-1708 -1789 1493 0
-1708 -1790 1494 0
-1708 -1791 1495 0
-1708 -1792 1496 0
-1708 -1793 1497 0
-1708 -1794 1498 0
-1708 -1795 1499 0
-1708 -1796 1500 0
-1708 -1797 1501 0
-1708 -1798 1502 0
-1708 -1799 1503 0
-1708 -1800 1504 0
-1708 -1801 1505 0
-1708 -1802 1506 0
-1708 -1803 1507 0
-1708 -1804 1508 0
-1708 -1805 1509 0
-1708 -1806 1510 0
-1708 -1807 1511 0
-1708 -1808 1512 0
-1708 -1809 1513 0
-1708 -1810 1514 0
-1708 -1811 1515 0
-1708 -1812 1516 0
-1708 -1813 1517 0
-1708 -1814 1518 0
-1708 -1815 1519 0
-1708 -1816 1520 0
-1708 -1817 1521 0
-1708 -1818 1522 0
-1708 -1819 1523 0
-1708 -1820 1524 0
-1708 -1821 1525 0
-1708 -1822 1526 0
-1708 -1823 1527 0
-1708 -1824 1528 0
-1708 -1825 1529 0
-1708 -1826 1530 0
-1708 -1827 1531 0
-1708 -1828 1532 0
-1708 -1829 1533 0
-1708 -1830 1534 0
-1708 -1831 1535 0
-1708 -1832 1536 0
-1708 -1833 1537 0
-1708 -1834 1538 0
-1708 -1835 1539 0
-1708 -1836 1540 0
-1708 -1837 1541 0
-1708 -1838 1542 0
-1708 -1839 1543 0
-1708 -1840 1544 0
-1708 -1841 1545 0
-1708 -1842 1546 0
-1708 -1843 1547 0
-1708 -1844 1548 0
-1708 -1845 1549 0
-1708 -1846 1550 0
-1708 -1847 1551 0
-1708 -1848 1552 0
-1708 -1849 1553 0
-1708 -1850 1554 0
-1708 -1851 1555 0
-1708 -1852 1556 0
-1708 -1853 1557 0
-1708 -1854 1558 0
-1708 -1855 1559 0
-1708 -1856 1560 0
-1708 -1857 1561 0
-1708 -1858 1562 0
-1708 -1859 1563 0
-1708 -1860 1564 0
-1708 -1861 1565 0
-1708 -1862 1566 0
-1708 -1863 1567 0
-1708 -1864 1568 0
-1708 -1865 1569 0
-1708 -1866 1570 0
-1708 -1867 1571 0
-1708 -1868 1572 0
-1708 -1869 1573 0
-1708 -1870 1574 0
-1708 -1871 1575 0
-1708 -1872 1576 0
-1708 -1873 1577 0
-1708 -1874 1578 0
-1708 -1875 1579 0
-1708 -1876 1580 0
-1708 -1877 1581 0
-1708 -1878 1582 0
-1708 -1879 1583 0
-1708 -1880 1584 0
-1708 -1881 1585 0
-1708 -1882 1586 0
-1708 -1883 1587 0
-1708 -1884 1588 0
-1708 -1885 1589 0
-1708 -1886 1590 0
-1708 -1887 1591 0
-1708 -1888 1592 0
-1709 -1773 1478 0
-1709 -1774 1479 0
-1709 -1775 1480 0
-1709 -1776 1481 0
-1709 -1777 1482 0
-1709 -1778 1483 0
-1709 -1779 1484 0
-1709 -1780 1485 0
-1709 -1781 1486 0
-1709 -1782 1487 0
-1709 -1783 1488 0
-1709 -1784 1489 0
-1709 -1785 1490 0
-1709 -1786 1491 0
-1709 -1787 1492 0
-1709 -1788 1493 0
-1709 -1789 1494 0
-1709 -1790 1495 0
-1709 -1791 1496 0
-1709 -1792 1497 0
-1709 -1793 1498 0
-1709 -1794 1499 0
-1709 -1795 1500 0
-1709 -1796 1501 0
-1709 -1797 1502 0
-1709 -1798 1503 0
-1709 -1799 1504 0
-1709 -1800 1505 0
-1709 -1801 1506 0
-1709 -1802 1507 0
-1709 -1803 1508 0
-1709 -1804 1509 0
-1709 -1805 1510 0
-1709 -1806 1511 0
-1709 -1807 1512 0
-1709 -1808 1513 0
-1709 -1809 1514 0
-1709 -1810 1515 0
-1709 -1811 1516 0
-1709 -1812 1517 0
-1709 -1813 1518 0
-1709 -1814 1519 0
-1709 -1815 1520 0
-1709 -1816 1521 0
-1709 -1817 1522 0
-1709 -1818 1523 0
-1709 -1819 1524 0
-1709 -1820 1525 0
-1709 -1821 1526 0
-1709 -1822 1527 0
-1709 -1823 1528 0
-1709 -1824 1529 0
-1709 -1825 1530 0
-1709 -1826 1531 0
-1709 -1827 1532 0
-1709 -1828 1533 0
-1709 -1829 1534 0
-1709 -1830 1535 0
-1709 -1831 1536 0
-1709 -1832 1537 0
-1709 -1833 1538 0
-1709 -1834 1539 0
-1709 -1835 1540 0
-1709 -1836 1541 0
-1709 -1837 1542 0
-1709 -1838 1543 0
-1709 -1839 1544 0
-1709 -1840 1545 0
-1709 -1841 1546 0
-1709 -1842 1547 0
-1709 -1843 1548 0
-1709 -1844 1549 0
-1709 -1845 1550 0
-1709 -1846 1551 0
-1709 -1847 1552 0
-1709 -1848 1553 0
-1709 -1849 1554 0
-1709 -1850 1555 0
-1709 -1851 1556 0
-1709 -1852 1557 0
-1709 -1853 1558 0
-1709 -1854 1559 0
-1709 -1855 1560 0
-1709 -1856 1561 0
-1709 -1857 1562 0
-1709 -1858 1563 0
-1709 -1859 1564 0
-1709 -1860 1565 0
-1709 -1861 1566 0
-1709 -1862 1567 0
-1709 -1863 1568 0
-1709 -1864 1569 0
-1709 -1865 1570 0
-1709 -1866 1571 0
-1709 -1867 1572 0
-1709 -1868 1573 0
-1709 -1869 1574 0
-1709 -1870 1575 0
-1709 -1871 1576 0
-1709 -1872 1577 0
-1709 -1873 1578 0
-1709 -1874 1579 0
-1709 -1875 1580 0
-1709 -1876 1581 0
-1709 -1877 1582 0
-1709 -1878 1583 0
-1709 -1879 1584 0
-1709 -1880 1585 0
-1709 -1881 1586 0
-1709 -1882 1587 0
-1709 -1883 1588 0
-1709 -1884 1589 0
-1709 -1885 1590 0
-1709 -1886 1591 0
-1709 -1887 1592 0
-1709 -1888 1593 0
-1710 -1773 1479 0
-1710 -1774 1480 0
-1710 -1775 1481 0
-1710 -1776 1482 0
-1710 -1777 1483 0
-1710 -1778 1484 0
-1710 -1779 1485 0
-1710 -1780 1486 0
-1710 -1781 1487 0
-1710 -1782 1488 0
-1710 -1783 1489 0
-1710 -1784 1490 0
-1710 -1785 1491 0
-1710 -1786 1492 0
-1710 -1787 1493 0
-1710 -1788 1494 0
-1710 -1789 1495 0
-1710 -1790 1496 0
-1710 -1791 1497 0
-1710 -1792 1498 0
-1710 -1793 1499 0
-1710 -1794 1500 0
-1710 -1795 1501 0
-1710 -1796 1502 0
-1710 -1797 1503 0
-1710 -1798 1504 0
-1710 -1799 1505 0
-1710 -1800 1506 0
-1710 -1801 1507 0
-1710 -1802 1508 0
-1710 -1803 1509 0
-1710 -1804 1510 0
-1710 -1805 1511 0
-1710 -1806 1512 0
-1710 -1807 1513 0
-1710 -1808 1514 0
-1710 -1809 1515 0
-1710 -1810 1516 0
-1710 -1811 1517 0
-1710 -1812 1518 0
-1710 -1813 1519 0
-1710 -1814 1520 0
-1710 -1815 1521 0
-1710 -1816 1522 0
-1710 -1817 1523 0
-1710 -1818 1524 0
-1710 -1819 1525 0
-1710 -1820 1526 0
-1710 -1821 1527 0
-1710 -1822 1528 0
-1710 -1823 1529 0
-1710 -1824 1530 0
-1710 -1825 1531 0
-1710 -1826 1532 0
-1710 -1827 1533 0
-1710 -1828 1534 0
-1710 -1829 1535 0
-1710 -1830 1536 0
-1710 -1831 1537 0
-1710 -1832 1538 0
-1710 -1833 1539 0
-1710 -1834 1540 0
-1710 -1835 1541 0
-1710 -1836 1542 0
-1710 -1837 1543 0
-1710 -1838 1544 0
-1710 -1839 1545 0
-1710 -1840 1546 0
-1710 -1841 1547 0
-1710 -1842 1548 0
-1710 -1843 1549 0
-1710 -1844 1550 0
-1710 -1845 1551 0
-1710 -1846 1552 0
-1710 -1847 1553 0
-1710 -1848 1554 0
-1710 -1849 1555 0
-1710 -1850 1556 0
-1710 -1851 1557 0
-1710 -1852 1558 0
-1710 -1853 1559 0
-1710 -1854 1560 0
-1710 -1855 1561 0
-1710 -1856 1562 0
-1710 -1857 1563 0
-1710 -1858 1564 0
-1710 -1859 1565 0
-1710 -1860 1566 0
-1710 -1861 1567 0
-1710 -1862 1568 0
-1710 -1863 1569 0
-1710 -1864 1570 0
-1710 -1865 1571 0
-1710 -1866 1572 0
-1710 -1867 1573 0
-1710 -1868 1574 0
-1710 -1869 1575 0
-1710 -1870 1576 0
-1710 -1871 1577 0
-1710 -1872 1578 0
-1710 -1873 1579 0
-1710 -1874 1580 0
-1710 -1875 1581 0
-1710 -1876 1582 0
-1710 -1877 1583 0
-1710 -1878 1584 0
-1710 -1879 1585 0
-1710 -1880 1586 0
-1710 -1881 1587 0
-1710 -1882 1588 0
-1710 -1883 1589 0
-1710 -1884 1590 0
-1710 -1885 1591 0
-1710 -1886 1592 0
-1710 -1887 1593 0
-1710 -1888 1594 0
-1711 -1773 1480 0
-1711 -1774 1481 0
-1711 -1775 1482 0
-1711 -1776 1483 0
-1711 -1777 1484 0
-1711 -1778 1485 0
-1711 -1779 1486 0
-1711 -1780 1487 0
-1711 -1781 1488 0
-1711 -1782 1489 0
-1711 -1783 1490 0
-1711 -1784 1491 0
-1711 -1785 1492 0
-1711 -1786 1493 0
-1711 -1787 1494 0
-1711 -1788 1495 0
-1711 -1789 1496 0
-1711 -1790 1497 0
-1711 -1791 1498 0
-1711 -1792 1499 0
-1711 -1793 1500 0
-1711 -1794 1501 0
-1711 -1795 1502 0
-1711 -1796 1503 0
-1711 -1797 1504 0
-1711 -1798 1505 0
-1711 -1799 1506 0
-1711 -1800 1507 0
-1711 -1801 1508 0
-1711 -1802 1509 0
-1711 -1803 1510 0
-1711 -1804 1511 0
-1711 -1805 1512 0
-1711 -1806 1513 0
-1711 -1807 1514 0
-1711 -1808 1515 0
-1711 -1809 1516 0
-1711 -1810 1517 0
-1711 -1811 1518 0
-1711 -1812 1519 0
-1711 -1813 1520 0
-1711 -1814 1521 0
-1711 -1815 1522 0
-1711 -1816 1523 0
-1711 -1817 1524 0
-1711 -1818 1525 0
-1711 -1819 1526 0
-1711 -1820 1527 0
-1711 -1821 1528 0
-1711 -1822 1529 0
-1711 -1823 1530 0
-1711 -1824 1531 0
-1711 -1825 1532 0
-1711 -1826 1533 0
-1711 -1827 1534 0
-1711 -1828 1535 0
-1711 -1829 1536 0
-1711 -1830 1537 0
-1711 -1831 1538 0
-1711 -1832 1539 0
-1711 -1833 1540 0
-1711 -1834 1541 0
-1711 -1835 1542 0
-1711 -1836 1543 0
-1711 -1837 1544 0
-1711 -1838 1545 0
-1711 -1839 1546 0
-1711 -1840 1547 0
-1711 -1841 1548 0
-1711 -1842 1549 0
-1711 -1843 1550 0
-1711 -1844 1551 0
-1711 -1845 1552 0
-1711 -1846 1553 0
-1711 -1847 1554 0
-1711 -1848 1555 0
-1711 -1849 1556 0
-1711 -1850 1557 0
-1711 -1851 1558 0
-1711 -1852 1559 0
-1711 -1853 1560 0
-1711 -1854 1561 0
-1711 -1855 1562 0
-1711 -1856 1563 0
-1711 -1857 1564 0
-1711 -1858 1565 0
-1711 -1859 1566 0
-1711 -1860 1567 0
-1711 -1861 1568 0
-1711 -1862 1569 0
-1711 -1863 1570 0
-1711 -1864 1571 0
-1711 -1865 1572 0
-1711 -1866 1573 0
-1711 -1867 1574 0
-1711 -1868 1575 0
-1711 -1869 1576 0
-1711 -1870 1577 0
-1711 -1871 1578 0
-1711 -1872 1579 0
-1711 -1873 1580 0
-1711 -1874 1581 0
-1711 -1875 1582 0
-1711 -1876 1583 0
-1711 -1877 1584 0
-1711 -1878 1585 0
-1711 -1879 1586 0
-1711 -1880 1587 0
-1711 -1881 1588 0
-1711 -1882 1589 0
-1711 -1883 1590 0
-1711 -1884 1591 0
-1711 -1885 1592 0
-1711 -1886 1593 0
-1711 -1887 1594 0
-1711 -1888 1595 0
-1712 -1773 1481 0
-1712 -1774 1482 0
-1712 -1775 1483 0
-1712 -1776 1484 0
-1712 -1777 1485 0
-1712 -1778 1486 0
-1712 -1779 1487 0
-1712 -1780 1488 0
-1712 -1781 1489 0
-1712 -1782 1490 0
-1712 -1783 1491 0
-1712 -1784 1492 0
-1712 -1785 1493 0
-1712 -1786 1494 0
-1712 -1787 1495 0
-1712 -1788 1496 0
-1712 -1789 1497 0
-1712 -1790 1498 0
-1712 -1791 1499 0
-1712 -1792 1500 0
-1712 -1793 1501 0
-1712 -1794 1502 0
-1712 -1795 1503 0
-1712 -1796 1504 0
-1712 -1797 1505 0
-1712 -1798 1506 0
-1712 -1799 1507 0
-1712 -1800 1508 0
-1712 -1801 1509 0
-1712 -1802 1510 0
-1712 -1803 1511 0
-1712 -1804 1512 0
-1712 -1805 1513 0
-1712 -1806 1514 0
-1712 -1807 1515 0
-1712 -1808 1516 0
-1712 -1809 1517 0
-1712 -1810 1518 0
-1712 -1811 1519 0
-1712 -1812 1520 0
-1712 -1813 1521 0
-1712 -1814 1522 0
-1712 -1815 1523 0
-1712 -1816 1524 0
-1712 -1817 1525 0
-1712 -1818 1526 0
-1712 -1819 1527 0
-1712 -1820 1528 0
-1712 -1821 1529 0
-1712 -1822 1530 0
-1712 -1823 1531 0
-1712 -1824 1532 0
-1712 -1825 1533 0
-1712 -1826 1534 0
-1712 -1827 1535 0
-1712 -1828 1536 0
-1712 -1829 1537 0
-1712 -1830 1538 0
-1712 -1831 1539 0
-1712 -1832 1540 0
-1712 -1833 1541 0
-1712 -1834 1542 0
-1712 -1835 1543 0
-1712 -1836 1544 0
-1712 -1837 1545 0
-1712 -1838 1546 0
-1712 -1839 1547 0
-1712 -1840 1548 0
-1712 -1841 1549 0
-1712 -1842 1550 0
-1712 -1843 1551 0
-1712 -1844 1552 0
-1712 -1845 1553 0
-1712 -1846 1554 0
-1712 -1847 1555 0
-1712 -1848 1556 0
-1712 -1849 1557 0
-1712 -1850 1558 0
-1712 -1851 1559 0
-1712 -1852 1560 0
-1712 -1853 1561 0
-1712 -1854 1562 0
-1712 -1855 1563 0
-1712 -1856 1564 0
-1712 -1857 1565 0
-1712 -1858 1566 0
-1712 -1859 1567 0
-1712 -1860 1568 0
-1712 -1861 1569 0
-1712 -1862 1570 0
-1712 -1863 1571 0
-1712 -1864 1572 0
-1712 -1865 1573 0
-1712 -1866 1574 0
-1712 -1867 1575 0
-1712 -1868 1576 0
-1712 -1869 1577 0
-1712 -1870 1578 0
-1712 -1871 1579 0
-1712 -1872 1580 0
-1712 -1873 1581 0
-1712 -1874 1582 0
-1712 -1875 1583 0
-1712 -1876 1584 0
-1712 -1877 1585 0
-1712 -1878 1586 0
-1712 -1879 1587 0
-1712 -1880 1588 0
-1712 -1881 1589 0
-1712 -1882 1590 0
-1712 -1883 1591 0
-1712 -1884 1592 0
-1712 -1885 1593 0
-1712 -1886 1594 0
-1712 -1887 1595 0
-1712 -1888 1596 0
-1713 -1773 1482 0
-1713 -1774 1483 0
-1713 -1775 1484 0
-1713 -1776 1485 0
-1713 -1777 1486 0
-1713 -1778 1487 0
-1713 -1779 1488 0
-1713 -1780 1489 0
-1713 -1781 1490 0
-1713 -1782 1491 0
-1713 -1783 1492 0
-1713 -1784 1493 0
-1713 -1785 1494 0
-1713 -1786 1495 0
-1713 -1787 1496 0
-1713 -1788 1497 0
-1713 -1789 1498 0
-1713 -1790 1499 0
-1713 -1791 1500 0
-1713 -1792 1501 0
-1713 -1793 1502 0
-1713 -1794 1503 0
-1713 -1795 1504 0
-1713 -1796 1505 0
-1713 -1797 1506 0
-1713 -1798 1507 0
-1713 -1799 1508 0
-1713 -1800 1509 0
-1713 -1801 1510 0
-1713 -1802 1511 0
-1713 -1803 1512 0
-1713 -1804 1513 0
-1713 -1805 1514 0
-1713 -1806 1515 0
-1713 -1807 1516 0
-1713 -1808 1517 0
-1713 -1809 1518 0
-1713 -1810 1519 0
-1713 -1811 1520 0
-1713 -1812 1521 0
-1713 -1813 1522 0
-1713 -1814 1523 0
-1713 -1815 1524 0
-1713 -1816 1525 0
-1713 -1817 1526 0
-1713 -1818 1527 0
-1713 -1819 1528 0
-1713 -1820 1529 0
-1713 -1821 1530 0
-1713 -1822 1531 0
-1713 -1823 1532 0
-1713 -1824 1533 0
-1713 -1825 1534 0
-1713 -1826 1535 0
-1713 -1827 1536 0
-1713 -1828 1537 0
-1713 -1829 1538 0
-1713 -1830 1539 0
-1713 -1831 1540 0
-1713 -1832 1541 0
-1713 -1833 1542 0
-1713 -1834 1543 0
-1713 -1835 1544 0
-1713 -1836 1545 0
-1713 -1837 1546 0
-1713 -1838 1547 0
-1713 -1839 1548 0
-1713 -1840 1549 0
-1713 -1841 1550 0
-1713 -1842 1551 0
-1713 -1843 1552 0
-1713 -1844 1553 0
-1713 -1845 1554 0
-1713 -1846 1555 0
-1713 -1847 1556 0
-1713 -1848 1557 0
-1713 -1849 1558 0
-1713 -1850 1559 0
-1713 -1851 1560 0
-1713 -1852 1561 0
-1713 -1853 1562 0
-1713 -1854 1563 0
-1713 -1855 1564 0
-1713 -1856 1565 0
-1713 -1857 1566 0
-1713 -1858 1567 0
-1713 -1859 1568 0
-1713 -1860 1569 0
-1713 -1861 1570 0
-1713 -1862 1571 0
-1713 -1863 1572 0
-1713 -1864 1573 0
-1713 -1865 1574 0
-1713 -1866 1575 0
-1713 -1867 1576 0
-1713 -1868 1577 0
-1713 -1869 1578 0
-1713 -1870 1579 0
-1713 -1871 1580 0
-1713 -1872 1581 0
-1713 -1873 1582 0
-1713 -1874 1583 0
-1713 -1875 1584 0
-1713 -1876 1585 0
-1713 -1877 1586 0
-1713 -1878 1587 0
-1713 -1879 1588 0
-1713 -1880 1589 0
-1713 -1881 1590 0
-1713 -1882 1591 0
-1713 -1883 1592 0
-1713 -1884 1593 0
-1713 -1885 1594 0
-1713 -1886 1595 0
-1713 -1887 1596 0
-1713 -1888 1597 0
-1714 -1773 1483 0
-1714 -1774 1484 0
-1714 -1775 1485 0
-1714 -1776 1486 0
-1714 -1777 1487 0
-1714 -1778 1488 0
-1714 -1779 1489 0
-1714 -1780 1490 0
-1714 -1781 1491 0
-1714 -1782 1492 0
-1714 -1783 1493 0
-1714 -1784 1494 0
-1714 -1785 1495 0
-1714 -1786 1496 0
-1714 -1787 1497 0
-1714 -1788 1498 0
-1714 -1789 1499 0
-1714 -1790 1500 0
-1714 -1791 1501 0
-1714 -1792 1502 0
-1714 -1793 1503 0
-1714 -1794 1504 0
-1714 -1795 1505 0
-1714 -1796 1506 0
-1714 -1797 1507 0
-1714 -1798 1508 0
-1714 -1799 1509 0
-1714 -1800 1510 0
-1714 -1801 1511 0
-1714 -1802 1512 0
-1714 -1803 1513 0
-1714 -1804 1514 0
-1714 -1805 1515 0
-1714 -1806 1516 0
-1714 -1807 1517 0
-1714 -1808 1518 0
-1714 -1809 1519 0
-1714 -1810 1520 0
-1714 -1811 1521 0
-1714 -1812 1522 0
-1714 -1813 1523 0
-1714 -1814 1524 0
-1714 -1815 1525 0
-1714 -1816 1526 0
-1714 -1817 1527 0
-1714 -1818 1528 0
-1714 -1819 1529 0
-1714 -1820 1530 0
-1714 -1821 1531 0
-1714 -1822 1532 0
-1714 -1823 1533 0
-1714 -1824 1534 0
-1714 -1825 1535 0
-1714 -1826 1536 0
-1714 -1827 1537 0
-1714 -1828 1538 0
-1714 -1829 1539 0
-1714 -1830 1540 0
-1714 -1831 1541 0
-1714 -1832 1542 0
-1714 -1833 1543 0
-1714 -1834 1544 0
-1714 -1835 1545 0
-1714 -1836 1546 0
-1714 -1837 1547 0
-1714 -1838 1548 0
-1714 -1839 1549 0
-1714 -1840 1550 0
-1714 -1841 1551 0
-1714 -1842 1552 0
-1714 -1843 1553 0
-1714 -1844 1554 0
-1714 -1845 1555 0
-1714 -1846 1556 0
-1714 -1847 1557 0
-1714 -1848 1558 0
-1714 -1849 1559 0
-1714 -1850 1560 0
-1714 -1851 1561 0
-1714 -1852 1562 0
-1714 -1853 1563 0
-1714 -1854 1564 0
-1714 -1855 1565 0
-1714 -1856 1566 0
-1714 -1857 1567 0
-1714 -1858 1568 0
-1714 -1859 1569 0
-1714 -1860 1570 0
-1714 -1861 1571 0
-1714 -1862 1572 0
-1714 -1863 1573 0
-1714 -1864 1574 0
-1714 -1865 1575 0
-1714 -1866 1576 0
-1714 -1867 1577 0
-1714 -1868 1578 0
-1714 -1869 1579 0
-1714 -1870 1580 0
-1714 -1871 1581 0
-1714 -1872 1582 0
-1714 -1873 1583 0
-1714 -1874 1584 0
-1714 -1875 1585 0
-1714 -1876 1586 0
-1714 -1877 1587 0
-1714 -1878 1588 0
-1714 -1879 1589 0
-1714 -1880 1590 0
-1714 -1881 1591 0
-1714 -1882 1592 0
-1714 -1883 1593 0
-1714 -1884 1594 0
-1714 -1885 1595 0
-1714 -1886 1596 0
-1714 -1887 1597 0
-1714 -1888 1598 0
-1715 -1773 1484 0
-1715 -1774 1485 0
-1715 -1775 1486 0
-1715 -1776 1487 0
-1715 -1777 1488 0
-1715 -1778 1489 0
-1715 -1779 1490 0
-1715 -1780 1491 0
-1715 -1781 1492 0
-1715 -1782 1493 0
-1715 -1783 1494 0
-1715 -1784 1495 0
-1715 -1785 1496 0
-1715 -1786 1497 0
-1715 -1787 1498 0
-1715 -1788 1499 0
-1715 -1789 1500 0
-1715 -1790 1501 0
-1715 -1791 1502 0
-1715 -1792 1503 0
-1715 -1793 1504 0
-1715 -1794 1505 0
-1715 -1795 1506 0
-1715 -1796 1507 0
-1715 -1797 1508 0
-1715 -1798 1509 0
-1715 -1799 1510 0
-1715 -1800 1511 0
-1715 -1801 1512 0
-1715 -1802 1513 0
-1715 -1803 1514 0
-1715 -1804 1515 0
-1715 -1805 1516 0
-1715 -1806 1517 0
-1715 -1807 1518 0
-1715 -1808 1519 0
-1715 -1809 1520 0
-1715 -1810 1521 0
-1715 -1811 1522 0
-1715 -1812 1523 0
-1715 -1813 1524 0
-1715 -1814 1525 0
-1715 -1815 1526 0
-1715 -1816 1527 0
-1715 -1817 1528 0
-1715 -1818 1529 0
-1715 -1819 1530 0
-1715 -1820 1531 0
-1715 -1821 1532 0
-1715 -1822 1533 0
-1715 -1823 1534 0
-1715 -1824 1535 0
-1715 -1825 1536 0
-1715 -1826 1537 0
-1715 -1827 1538 0
-1715 -1828 1539 0
-1715 -1829 1540 0
-1715 -1830 1541 0
-1715 -1831 1542 0
-1715 -1832 1543 0
-1715 -1833 1544 0
-1715 -1834 1545 0
-1715 -1835 1546 0
-1715 -1836 1547 0
-1715 -1837 1548 0
-1715 -1838 1549 0
-1715 -1839 1550 0
-1715 -1840 1551 0
-1715 -1841 1552 0
-1715 -1842 1553 0
-1715 -1843 1554 0
-1715 -1844 1555 0
-1715 -1845 1556 0
-1715 -1846 1557 0
-1715 -1847 1558 0
-1715 -1848 1559 0
-1715 -1849 1560 0
-1715 -1850 1561 0
-1715 -1851 1562 0
-1715 -1852 1563 0
-1715 -1853 1564 0
-1715 -1854 1565 0
-1715 -1855 1566 0
-1715 -1856 1567 0
-1715 -1857 1568 0
-1715 -1858 1569 0
-1715 -1859 1570 0
-1715 -1860 1571 0
-1715 -1861 1572 0
-1715 -1862 1573 0
-1715 -1863 1574 0
-1715 -1864 1575 0
-1715 -1865 1576 0
-1715 -1866 1577 0
-1715 -1867 1578 0
-1715 -1868 1579 0
-1715 -1869 1580 0
-1715 -1870 1581 0
-1715 -1871 1582 0
-1715 -1872 1583 0
-1715 -1873 1584 0
-1715 -1874 1585 0
-1715 -1875 1586 0
-1715 -1876 1587 0
-1715 -1877 1588 0
-1715 -1878 1589 0
-1715 -1879 1590 0
-1715 -1880 1591 0
-1715 -1881 1592 0
-1715 -1882 1593 0
-1715 -1883 1594 0
-1715 -1884 1595 0
-1715 -1885 1596 0
-1715 -1886 1597 0
-1715 -1887 1598 0
-1715 -1888 1599 0
-1716 -1773 1485 0
-1716 -1774 1486 0
-1716 -1775 1487 0
-1716 -1776 1488 0
-1716 -1777 1489 0
-1716 -1778 1490 0
-1716 -1779 1491 0
-1716 -1780 1492 0
-1716 -1781 1493 0
-1716 -1782 1494 0
-1716 -1783 1495 0
-1716 -1784 1496 0
-1716 -1785 1497 0
-1716 -1786 1498 0
-1716 -1787 1499 0
-1716 -1788 1500 0
-1716 -1789 1501 0
-1716 -1790 1502 0
-1716 -1791 1503 0
-1716 -1792 1504 0
-1716 -1793 1505 0
-1716 -1794 1506 0
-1716 -1795 1507 0
-1716 -1796 1508 0
-1716 -1797 1509 0
-1716 -1798 1510 0
-1716 -1799 1511 0
-1716 -1800 1512 0
-1716 -1801 1513 0
-1716 -1802 1514 0
-1716 -1803 1515 0
-1716 -1804 1516 0
-1716 -1805 1517 0
-1716 -1806 1518 0
-1716 -1807 1519 0
-1716 -1808 1520 0
-1716 -1809 1521 0
-1716 -1810 1522 0
-1716 -1811 1523 0
-1716 -1812 1524 0
-1716 -1813 1525 0
-1716 -1814 1526 0
-1716 -1815 1527 0
-1716 -1816 1528 0
-1716 -1817 1529 0
-1716 -1818 1530 0
-1716 -1819 1531 0
-1716 -1820 1532 0
-1716 -1821 1533 0
-1716 -1822 1534 0
-1716 -1823 1535 0
-1716 -1824 1536 0
-1716 -1825 1537 0
-1716 -1826 1538 0
-1716 -1827 1539 0
-1716 -1828 1540 0
-1716 -1829 1541 0
-1716 -1830 1542 0
-1716 -1831 1543 0
-1716 -1832 1544 0
-1716 -1833 1545 0
-1716 -1834 1546 0
-1716 -1835 1547 0
-1716 -1836 1548 0
-1716 -1837 1549 0
-1716 -1838 1550 0
-1716 -1839 1551 0
-1716 -1840 1552 0
-1716 -1841 1553 0
-1716 -1842 1554 0
-1716 -1843 1555 0
-1716 -1844 1556 0
-1716 -1845 1557 0
-1716 -1846 1558 0
-1716 -1847 1559 0
-1716 -1848 1560 0
-1716 -1849 1561 0
-1716 -1850 1562 0
-1716 -1851 1563 0
-1716 -1852 1564 0
-1716 -1853 1565 0
-1716 -1854 1566 0
-1716 -1855 1567 0
-1716 -1856 1568 0
-1716 -1857 1569 0
-1716 -1858 1570 0
-1716 -1859 1571 0
-1716 -1860 1572 0
-1716 -1861 1573 0
-1716 -1862 1574 0
-1716 -1863 1575 0
-1716 -1864 1576 0
-1716 -1865 1577 0
-1716 -1866 1578 0
-1716 -1867 1579 0
-1716 -1868 1580 0
-1716 -1869 1581 0
-1716 -1870 1582 0
-1716 -1871 1583 0
-1716 -1872 1584 0
-1716 -1873 1585 0
-1716 -1874 1586 0
-1716 -1875 1587 0
-1716 -1876 1588 0
-1716 -1877 1589 0
-1716 -1878 1590 0
-1716 -1879 1591 0
-1716 -1880 1592 0
-1716 -1881 1593 0
-1716 -1882 1594 0
-1716 -1883 1595 0
-1716 -1884 1596 0
-1716 -1885 1597 0
-1716 -1886 1598 0
-1716 -1887 1599 0
-1716 -1888 1600 0
-1717 -1773 1486 0
-1717 -1774 1487 0
-1717 -1775 1488 0
-1717 -1776 1489 0
-1717 -1777 1490 0
-1717 -1778 1491 0
-1717 -1779 1492 0
-1717 -1780 1493 0
-1717 -1781 1494 0
-1717 -1782 1495 0
-1717 -1783 1496 0
-1717 -1784 1497 0
-1717 -1785 1498 0
-1717 -1786 1499 0
-1717 -1787 1500 0
-1717 -1788 1501 0
-1717 -1789 1502 0
-1717 -1790 1503 0
-1717 -1791 1504 0
-1717 -1792 1505 0
-1717 -1793 1506 0
-1717 -1794 1507 0
-1717 -1795 1508 0
-1717 -1796 1509 0
-1717 -1797 1510 0
-1717 -1798 1511 0
-1717 -1799 1512 0
-1717 -1800 1513 0
-1717 -1801 1514 0
-1717 -1802 1515 0
-1717 -1803 1516 0
-1717 -1804 1517 0
-1717 -1805 1518 0
-1717 -1806 1519 0
-1717 -1807 1520 0
-1717 -1808 1521 0
-1717 -1809 1522 0
-1717 -1810 1523 0
-1717 -1811 1524 0
-1717 -1812 1525 0
-1717 -1813 1526 0
-1717 -1814 1527 0
-1717 -1815 1528 0
-1717 -1816 1529 0
-1717 -1817 1530 0
-1717 -1818 1531 0
-1717 -1819 1532 0
-1717 -1820 1533 0
-1717 -1821 1534 0
-1717 -1822 1535 0
-1717 -1823 1536 0
-1717 -1824 1537 0
-1717 -1825 1538 0
-1717 -1826 1539 0
-1717 -1827 1540 0
-1717 -1828 1541 0
-1717 -1829 1542 0
-1717 -1830 1543 0
-1717 -1831 1544 0
-1717 -1832 1545 0
-1717 -1833 1546 0
-1717 -1834 1547 0
-1717 -1835 1548 0
-1717 -1836 1549 0
-1717 -1837 1550 0
-1717 -1838 1551 0
-1717 -1839 1552 0
-1717 -1840 1553 0
-1717 -1841 1554 0
-1717 -1842 1555 0
-1717 -1843 1556 0
-1717 -1844 1557 0
-1717 -1845 1558 0
-1717 -1846 1559 0
-1717 -1847 1560 0
-1717 -1848 1561 0
-1717 -1849 1562 0
-1717 -1850 1563 0
-1717 -1851 1564 0
-1717 -1852 1565 0
-1717 -1853 1566 0
-1717 -1854 1567 0
-1717 -1855 1568 0
-1717 -1856 1569 0
-1717 -1857 1570 0
-1717 -1858 1571 0
-1717 -1859 1572 0
-1717 -1860 1573 0
-1717 -1861 1574 0
-1717 -1862 1575 0
-1717 -1863 1576 0
-1717 -1864 1577 0
-1717 -1865 1578 0
-1717 -1866 1579 0
-1717 -1867 1580 0
-1717 -1868 1581 0
-1717 -1869 1582 0
-1717 -1870 1583 0
-1717 -1871 1584 0
-1717 -1872 1585 0
-1717 -1873 1586 0
-1717 -1874 1587 0
-1717 -1875 1588 0
-1717 -1876 1589 0
-1717 -1877 1590 0
-1717 -1878 1591 0
-1717 -1879 1592 0
-1717 -1880 1593 0
-1717 -1881 1594 0
-1717 -1882 1595 0
-1717 -1883 1596 0
-1717 -1884 1597 0
-1717 -1885 1598 0
-1717 -1886 1599 0
-1717 -1887 1600 0
-1717 -1888 1601 0
-1718 -1773 1487 0
-1718 -1774 1488 0
-1718 -1775 1489 0
-1718 -1776 1490 0
-1718 -1777 1491 0
-1718 -1778 1492 0
-1718 -1779 1493 0
-1718 -1780 1494 0
-1718 -1781 1495 0
-1718 -1782 1496 0
-1718 -1783 1497 0
-1718 -1784 1498 0
-1718 -1785 1499 0
-1718 -1786 1500 0
-1718 -1787 1501 0
-1718 -1788 1502 0
-1718 -1789 1503 0
-1718 -1790 1504 0
-1718 -1791 1505 0
-1718 -1792 1506 0
-1718 -1793 1507 0
-1718 -1794 1508 0
-1718 -1795 1509 0
-1718 -1796 1510 0
-1718 -1797 1511 0
-1718 -1798 1512 0
-1718 -1799 1513 0
-1718 -1800 1514 0
-1718 -1801 1515 0
-1718 -1802 1516 0
-1718 -1803 1517 0
-1718 -1804 1518 0
-1718 -1805 1519 0
-1718 -1806 1520 0
-1718 -1807 1521 0
-1718 -1808 1522 0
-1718 -1809 1523 0
-1718 -1810 1524 0
-1718 -1811 1525 0
-1718 -1812 1526 0
-1718 -1813 1527 0
-1718 -1814 1528 0
-1718 -1815 1529 0
-1718 -1816 1530 0
-1718 -1817 1531 0
-1718 -1818 1532 0
-1718 -1819 1533 0
-1718 -1820 1534 0
-1718 -1821 1535 0
-1718 -1822 1536 0
-1718 -1823 1537 0
-1718 -1824 1538 0
-1718 -1825 1539 0
-1718 -1826 1540 0
-1718 -1827 1541 0
-1718 -1828 1542 0
-1718 -1829 1543 0
-1718 -1830 1544 0
-1718 -1831 1545 0
-1718 -1832 1546 0
-1718 -1833 1547 0
-1718 -1834 1548 0
-1718 -1835 1549 0
-1718 -1836 1550 0
-1718 -1837 1551 0
-1718 -1838 1552 0
-1718 -1839 1553 0
-1718 -1840 1554 0
-1718 -1841 1555 0
-1718 -1842 1556 0
-1718 -1843 1557 0
-1718 -1844 1558 0
-1718 -1845 1559 0
-1718 -1846 1560 0
-1718 -1847 1561 0
-1718 -1848 1562 0
-1718 -1849 1563 0
-1718 -1850 1564 0
-1718 -1851 1565 0
-1718 -1852 1566 0
-1718 -1853 1567 0
-1718 -1854 1568 0
-1718 -1855 1569 0
-1718 -1856 1570 0
-1718 -1857 1571 0
-1718 -1858 1572 0
-1718 -1859 1573 0
-1718 -1860 1574 0
-1718 -1861 1575 0
-1718 -1862 1576 0
-1718 -1863 1577 0
-1718 -1864 1578 0
-1718 -1865 1579 0
-1718 -1866 1580 0
-1718 -1867 1581 0
-1718 -1868 1582 0
-1718 -1869 1583 0
-1718 -1870 1584 0
-1718 -1871 1585 0
-1718 -1872 1586 0
-1718 -1873 1587 0
-1718 -1874 1588 0
-1718 -1875 1589 0
-1718 -1876 1590 0
-1718 -1877 1591 0
-1718 -1878 1592 0
-1718 -1879 1593 0
-1718 -1880 1594 0
-1718 -1881 1595 0
-1718 -1882 1596 0
-1718 -1883 1597 0
-1718 -1884 1598 0
-1718 -1885 1599 0
-1718 -1886 1600 0
-1718 -1887 1601 0
-1718 -1888 1602 0
-1719 -1773 1488 0
-1719 -1774 1489 0
-1719 -1775 1490 0
-1719 -1776 1491 0
-1719 -1777 1492 0
-1719 -1778 1493 0
-1719 -1779 1494 0
-1719 -1780 1495 0
-1719 -1781 1496 0
-1719 -1782 1497 0
-1719 -1783 1498 0
-1719 -1784 1499 0
-1719 -1785 1500 0
-1719 -1786 1501 0
-1719 -1787 1502 0
-1719 -1788 1503 0
-1719 -1789 1504 0
-1719 -1790 1505 0
-1719 -1791 1506 0
-1719 -1792 1507 0
-1719 -1793 1508 0
-1719 -1794 1509 0
-1719 -1795 1510 0
-1719 -1796 1511 0
-1719 -1797 1512 0
-1719 -1798 1513 0
-1719 -1799 1514 0
-1719 -1800 1515 0
-1719 -1801 1516 0
-1719 -1802 1517 0
-1719 -1803 1518 0
-1719 -1804 1519 0
-1719 -1805 1520 0
-1719 -1806 1521 0
-1719 -1807 1522 0
-1719 -1808 1523 0
-1719 -1809 1524 0
-1719 -1810 1525 0
-1719 -1811 1526 0
-1719 -1812 1527 0
-1719 -1813 1528 0
-1719 -1814 1529 0
-1719 -1815 1530 0
-1719 -1816 1531 0
-1719 -1817 1532 0
-1719 -1818 1533 0
-1719 -1819 1534 0
-1719 -1820 1535 0
-1719 -1821 1536 0
-1719 -1822 1537 0
-1719 -1823 1538 0
-1719 -1824 1539 0
-1719 -1825 1540 0
-1719 -1826 1541 0
-1719 -1827 1542 0
-1719 -1828 1543 0
-1719 -1829 1544 0
-1719 -1830 1545 0
-1719 -1831 1546 0
-1719 -1832 1547 0
-1719 -1833 1548 0
-1719 -1834 1549 0
-1719 -1835 1550 0
-1719 -1836 1551 0
-1719 -1837 1552 0
-1719 -1838 1553 0
-1719 -1839 1554 0
-1719 -1840 1555 0
-1719 -1841 1556 0
-1719 -1842 1557 0
-1719 -1843 1558 0
-1719 -1844 1559 0
-1719 -1845 1560 0
-1719 -1846 1561 0
-1719 -1847 1562 0
-1719 -1848 1563 0
-1719 -1849 1564 0
-1719 -1850 1565 0
-1719 -1851 1566 0
-1719 -1852 1567 0
-1719 -1853 1568 0
-1719 -1854 1569 0
-1719 -1855 1570 0
-1719 -1856 1571 0
-1719 -1857 1572 0
-1719 -1858 1573 0
-1719 -1859 1574 0
-1719 -1860 1575 0
-1719 -1861 1576 0
-1719 -1862 1577 0
-1719 -1863 1578 0
-1719 -1864 1579 0
-1719 -1865 1580 0
-1719 -1866 1581 0
-1719 -1867 1582 0
-1719 -1868 1583 0
-1719 -1869 1584 0
-1719 -1870 1585 0
-1719 -1871 1586 0
-1719 -1872 1587 0
-1719 -1873 1588 0
-1719 -1874 1589 0
-1719 -1875 1590 0
-1719 -1876 1591 0
-1719 -1877 1592 0
-1719 -1878 1593 0
-1719 -1879 1594 0
-1719 -1880 1595 0
-1719 -1881 1596 0
-1719 -1882 1597 0
-1719 -1883 1598 0
-1719 -1884 1599 0
-1719 -1885 1600 0
-1719 -1886 1601 0
-1719 -1887 1602 0
-1719 -1888 1603 0
-1720 -1773 1489 0
-1720 -1774 1490 0
-1720 -1775 1491 0
-1720 -1776 1492 0
-1720 -1777 1493 0
-1720 -1778 1494 0
-1720 -1779 1495 0
-1720 -1780 1496 0
-1720 -1781 1497 0
-1720 -1782 1498 0
-1720 -1783 1499 0
-1720 -1784 1500 0
-1720 -1785 1501 0
-1720 -1786 1502 0
-1720 -1787 1503 0
-1720 -1788 1504 0
-1720 -1789 1505 0
-1720 -1790 1506 0
-1720 -1791 1507 0
-1720 -1792 1508 0
-1720 -1793 1509 0
-1720 -1794 1510 0
-1720 -1795 1511 0
-1720 -1796 1512 0
-1720 -1797 1513 0
-1720 -1798 1514 0
-1720 -1799 1515 0
-1720 -1800 1516 0
-1720 -1801 1517 0
-1720 -1802 1518 0
-1720 -1803 1519 0
-1720 -1804 1520 0
-1720 -1805 1521 0
-1720 -1806 1522 0
-1720 -1807 1523 0
-1720 -1808 1524 0
-1720 -1809 1525 0
-1720 -1810 1526 0
-1720 -1811 1527 0
-1720 -1812 1528 0
-1720 -1813 1529 0
-1720 -1814 1530 0
-1720 -1815 1531 0
-1720 -1816 1532 0
-1720 -1817 1533 0
-1720 -1818 1534 0
-1720 -1819 1535 0
-1720 -1820 1536 0
-1720 -1821 1537 0
-1720 -1822 1538 0
-1720 -1823 1539 0
-1720 -1824 1540 0
-1720 -1825 1541 0
-1720 -1826 1542 0
-1720 -1827 1543 0
-1720 -1828 1544 0
-1720 -1829 1545 0
-1720 -1830 1546 0
-1720 -1831 1547 0
-1720 -1832 1548 0
-1720 -1833 1549 0
-1720 -1834 1550 0
-1720 -1835 1551 0
-1720 -1836 1552 0
-1720 -1837 1553 0
-1720 -1838 1554 0
-1720 -1839 1555 0
-1720 -1840 1556 0
-1720 -1841 1557 0
-1720 -1842 1558 0
-1720 -1843 1559 0
-1720 -1844 1560 0
-1720 -1845 1561 0
-1720 -1846 1562 0
-1720 -1847 1563 0
-1720 -1848 1564 0
-1720 -1849 1565 0
-1720 -1850 1566 0
-1720 -1851 1567 0
-1720 -1852 1568 0
-1720 -1853 1569 0
-1720 -1854 1570 0
-1720 -1855 1571 0
-1720 -1856 1572 0
-1720 -1857 1573 0
-1720 -1858 1574 0
-1720 -1859 1575 0
-1720 -1860 1576 0
-1720 -1861 1577 0
-1720 -1862 1578 0
-1720 -1863 1579 0
-1720 -1864 1580 0
-1720 -1865 1581 0
-1720 -1866 1582 0
-1720 -1867 1583 0
-1720 -1868 1584 0
-1720 -1869 1585 0
-1720 -1870 1586 0
-1720 -1871 1587 0
-1720 -1872 1588 0
-1720 -1873 1589 0
-1720 -1874 1590 0
-1720 -1875 1591 0
-1720 -1876 1592 0
-1720 -1877 1593 0
-1720 -1878 1594 0
-1720 -1879 1595 0
-1720 -1880 1596 0
-1720 -1881 1597 0
-1720 -1882 1598 0
-1720 -1883 1599 0
-1720 -1884 1600 0
-1720 -1885 1601 0
-1720 -1886 1602 0
-1720 -1887 1603 0
-1720 -1888 1604 0
-1721 -1773 1490 0
-1721 -1774 1491 0
-1721 -1775 1492 0
-1721 -1776 1493 0
-1721 -1777 1494 0
-1721 -1778 1495 0
-1721 -1779 1496 0
-1721 -1780 1497 0
-1721 -1781 1498 0
-1721 -1782 1499 0
-1721 -1783 1500 0
-1721 -1784 1501 0
-1721 -1785 1502 0
-1721 -1786 1503 0
-1721 -1787 1504 0
-1721 -1788 1505 0
-1721 -1789 1506 0
-1721 -1790 1507 0
-1721 -1791 1508 0
-1721 -1792 1509 0
-1721 -1793 1510 0
-1721 -1794 1511 0
-1721 -1795 1512 0
-1721 -1796 1513 0
-1721 -1797 1514 0
-1721 -1798 1515 0
-1721 -1799 1516 0
-1721 -1800 1517 0
-1721 -1801 1518 0
-1721 -1802 1519 0
-1721 -1803 1520 0
-1721 -1804 1521 0
-1721 -1805 1522 0
-1721 -1806 1523 0
-1721 -1807 1524 0
-1721 -1808 1525 0
-1721 -1809 1526 0
-1721 -1810 1527 0
-1721 -1811 1528 0
-1721 -1812 1529 0
-1721 -1813 1530 0
-1721 -1814 1531 0
-1721 -1815 1532 0
-1721 -1816 1533 0
-1721 -1817 1534 0
-1721 -1818 1535 0
-1721 -1819 1536 0
-1721 -1820 1537 0
-1721 -1821 1538 0
-1721 -1822 1539 0
-1721 -1823 1540 0
-1721 -1824 1541 0
-1721 -1825 1542 0
-1721 -1826 1543 0
-1721 -1827 1544 0
-1721 -1828 1545 0
-1721 -1829 1546 0
-1721 -1830 1547 0
-1721 -1831 1548 0
-1721 -1832 1549 0
-1721 -1833 1550 0
-1721 -1834 1551 0
-1721 -1835 1552 0
-1721 -1836 1553 0
-1721 -1837 1554 0
-1721 -1838 1555 0
-1721 -1839 1556 0
-1721 -1840 1557 0
-1721 -1841 1558 0
-1721 -1842 1559 0
-1721 -1843 1560 0
-1721 -1844 1561 0
-1721 -1845 1562 0
-1721 -1846 1563 0
-1721 -1847 1564 0
-1721 -1848 1565 0
-1721 -1849 1566 0
-1721 -1850 1567 0
-1721 -1851 1568 0
-1721 -1852 1569 0
-1721 -1853 1570 0
-1721 -1854 1571 0
-1721 -1855 1572 0
-1721 -1856 1573 0
-1721 -1857 1574 0
-1721 -1858 1575 0
-1721 -1859 1576 0
-1721 -1860 1577 0
-1721 -1861 1578 0
-1721 -1862 1579 0
-1721 -1863 1580 0
-1721 -1864 1581 0
-1721 -1865 1582 0
-1721 -1866 1583 0
-1721 -1867 1584 0
-1721 -1868 1585 0
-1721 -1869 1586 0
-1721 -1870 1587 0
-1721 -1871 1588 0
-1721 -1872 1589 0
-1721 -1873 1590 0
-1721 -1874 1591 0
-1721 -1875 1592 0
-1721 -1876 1593 0
-1721 -1877 1594 0
-1721 -1878 1595 0
-1721 -1879 1596 0
-1721 -1880 1597 0
-1721 -1881 1598 0
-1721 -1882 1599 0
-1721 -1883 1600 0
-1721 -1884 1601 0
-1721 -1885 1602 0
-1721 -1886 1603 0
-1721 -1887 1604 0
-1721 -1888 1605 0
-1722 -1773 1491 0
-1722 -1774 1492 0
-1722 -1775 1493 0
-1722 -1776 1494 0
-1722 -1777 1495 0
-1722 -1778 1496 0
-1722 -1779 1497 0
-1722 -1780 1498 0
-1722 -1781 1499 0
-1722 -1782 1500 0
-1722 -1783 1501 0
-1722 -1784 1502 0
-1722 -1785 1503 0
-1722 -1786 1504 0
-1722 -1787 1505 0
-1722 -1788 1506 0
-1722 -1789 1507 0
-1722 -1790 1508 0
-1722 -1791 1509 0
-1722 -1792 1510 0
-1722 -1793 1511 0
-1722 -1794 1512 0
-1722 -1795 1513 0
-1722 -1796 1514 0
-1722 -1797 1515 0
-1722 -1798 1516 0
-1722 -1799 1517 0
-1722 -1800 1518 0
-1722 -1801 1519 0
-1722 -1802 1520 0
-1722 -1803 1521 0
-1722 -1804 1522 0
-1722 -1805 1523 0
-1722 -1806 1524 0
-1722 -1807 1525 0
-1722 -1808 1526 0
-1722 -1809 1527 0
-1722 -1810 1528 0
-1722 -1811 1529 0
-1722 -1812 1530 0
-1722 -1813 1531 0
-1722 -1814 1532 0
-1722 -1815 1533 0
-1722 -1816 1534 0
-1722 -1817 1535 0
-1722 -1818 1536 0
-1722 -1819 1537 0
-1722 -1820 1538 0
-1722 -1821 1539 0
-1722 -1822 1540 0
-1722 -1823 1541 0
-1722 -1824 1542 0
-1722 -1825 1543 0
-1722 -1826 1544 0
-1722 -1827 1545 0
-1722 -1828 1546 0
-1722 -1829 1547 0
-1722 -1830 1548 0
-1722 -1831 1549 0
-1722 -1832 1550 0
-1722 -1833 1551 0
-1722 -1834 1552 0
-1722 -1835 1553 0
-1722 -1836 1554 0
-1722 -1837 1555 0
-1722 -1838 1556 0
-1722 -1839 1557 0
-1722 -1840 1558 0
-1722 -1841 1559 0
-1722 -1842 1560 0
-1722 -1843 1561 0
-1722 -1844 1562 0
-1722 -1845 1563 0
-1722 -1846 1564 0
-1722 -1847 1565 0
-1722 -1848 1566 0
-1722 -1849 1567 0
-1722 -1850 1568 0
-1722 -1851 1569 0
-1722 -1852 1570 0
-1722 -1853 1571 0
-1722 -1854 1572 0
-1722 -1855 1573 0
-1722 -1856 1574 0
-1722 -1857 1575 0
-1722 -1858 1576 0
-1722 -1859 1577 0
-1722 -1860 1578 0
-1722 -1861 1579 0
-1722 -1862 1580 0
-1722 -1863 1581 0
-1722 -1864 1582 0
-1722 -1865 1583 0
-1722 -1866 1584 0
-1722 -1867 1585 0
-1722 -1868 1586 0
-1722 -1869 1587 0
-1722 -1870 1588 0
-1722 -1871 1589 0
-1722 -1872 1590 0
-1722 -1873 1591 0
-1722 -1874 1592 0
-1722 -1875 1593 0
-1722 -1876 1594 0
-1722 -1877 1595 0
-1722 -1878 1596 0
-1722 -1879 1597 0
-1722 -1880 1598 0
-1722 -1881 1599 0
-1722 -1882 1600 0
-1722 -1883 1601 0
-1722 -1884 1602 0
-1722 -1885 1603 0
-1722 -1886 1604 0
-1722 -1887 1605 0
-1722 -1888 1606 0
-1723 -1773 1492 0
-1723 -1774 1493 0
-1723 -1775 1494 0
-1723 -1776 1495 0
-1723 -1777 1496 0
-1723 -1778 1497 0
-1723 -1779 1498 0
-1723 -1780 1499 0
-1723 -1781 1500 0
-1723 -1782 1501 0
-1723 -1783 1502 0
-1723 -1784 1503 0
-1723 -1785 1504 0
-1723 -1786 1505 0
-1723 -1787 1506 0
-1723 -1788 1507 0
-1723 -1789 1508 0
-1723 -1790 1509 0
-1723 -1791 1510 0
-1723 -1792 1511 0
-1723 -1793 1512 0
-1723 -1794 1513 0
-1723 -1795 1514 0
-1723 -1796 1515 0
-1723 -1797 1516 0
-1723 -1798 1517 0
-1723 -1799 1518 0
-1723 -1800 1519 0
-1723 -1801 1520 0
-1723 -1802 1521 0
-1723 -1803 1522 0
-1723 -1804 1523 0
-1723 -1805 1524 0
-1723 -1806 1525 0
-1723 -1807 1526 0
-1723 -1808 1527 0
-1723 -1809 1528 0
-1723 -1810 1529 0
-1723 -1811 1530 0
-1723 -1812 1531 0
-1723 -1813 1532 0
-1723 -1814 1533 0
-1723 -1815 1534 0
-1723 -1816 1535 0
-1723 -1817 1536 0
-1723 -1818 1537 0
-1723 -1819 1538 0
-1723 -1820 1539 0
-1723 -1821 1540 0
-1723 -1822 1541 0
-1723 -1823 1542 0
-1723 -1824 1543 0
-1723 -1825 1544 0
-1723 -1826 1545 0
-1723 -1827 1546 0
-1723 -1828 1547 0
-1723 -1829 1548 0
-1723 -1830 1549 0
-1723 -1831 1550 0
-1723 -1832 1551 0
-1723 -1833 1552 0
-1723 -1834 1553 0
-1723 -1835 1554 0
-1723 -1836 1555 0
-1723 -1837 1556 0
-1723 -1838 1557 0
-1723 -1839 1558 0
-1723 -1840 1559 0
-1723 -1841 1560 0
-1723 -1842 1561 0
-1723 -1843 1562 0
-1723 -1844 1563 0
-1723 -1845 1564 0
-1723 -1846 1565 0
-1723 -1847 1566 0
-1723 -1848 1567 0
-1723 -1849 1568 0
-1723 -1850 1569 0
-1723 -1851 1570 0
-1723 -1852 1571 0
-1723 -1853 1572 0
-1723 -1854 1573 0
-1723 -1855 1574 0
-1723 -1856 1575 0
-1723 -1857 1576 0
-1723 -1858 1577 0
-1723 -1859 1578 0
-1723 -1860 1579 0
-1723 -1861 1580 0
-1723 -1862 1581 0
-1723 -1863 1582 0
-1723 -1864 1583 0
-1723 -1865 1584 0
-1723 -1866 1585 0
-1723 -1867 1586 0
-1723 -1868 1587 0
-1723 -1869 1588 0
-1723 -1870 1589 0
-1723 -1871 1590 0
-1723 -1872 1591 0
-1723 -1873 1592 0
-1723 -1874 1593 0
-1723 -1875 1594 0
-1723 -1876 1595 0
-1723 -1877 1596 0
-1723 -1878 1597 0
-1723 -1879 1598 0
-1723 -1880 1599 0
-1723 -1881 1600 0
-1723 -1882 1601 0
-1723 -1883 1602 0
-1723 -1884 1603 0
-1723 -1885 1604 0
-1723 -1886 1605 0
-1723 -1887 1606 0
-1723 -1888 1607 0
-1724 -1773 1493 0
-1724 -1774 1494 0
-1724 -1775 1495 0
-1724 -1776 1496 0
-1724 -1777 1497 0
-1724 -1778 1498 0
-1724 -1779 1499 0
-1724 -1780 1500 0
-1724 -1781 1501 0
-1724 -1782 1502 0
-1724 -1783 1503 0
-1724 -1784 1504 0
-1724 -1785 1505 0
-1724 -1786 1506 0
-1724 -1787 1507 0
-1724 -1788 1508 0
-1724 -1789 1509 0
-1724 -1790 1510 0
-1724 -1791 1511 0
-1724 -1792 1512 0
-1724 -1793 1513 0
-1724 -1794 1514 0
-1724 -1795 1515 0
-1724 -1796 1516 0
-1724 -1797 1517 0
-1724 -1798 1518 0
-1724 -1799 1519 0
-1724 -1800 1520 0
-1724 -1801 1521 0
-1724 -1802 1522 0
-1724 -1803 1523 0
-1724 -1804 1524 0
-1724 -1805 1525 0
-1724 -1806 1526 0
-1724 -1807 1527 0
-1724 -1808 1528 0
-1724 -1809 1529 0
-1724 -1810 1530 0
-1724 -1811 1531 0
-1724 -1812 1532 0
-1724 -1813 1533 0
-1724 -1814 1534 0
-1724 -1815 1535 0
-1724 -1816 1536 0
-1724 -1817 1537 0
-1724 -1818 1538 0
-1724 -1819 1539 0
-1724 -1820 1540 0
-1724 -1821 1541 0
-1724 -1822 1542 0
-1724 -1823 1543 0
-1724 -1824 1544 0
-1724 -1825 1545 0
-1724 -1826 1546 0
-1724 -1827 1547 0
-1724 -1828 1548 0
-1724 -1829 1549 0
-1724 -1830 1550 0
-1724 -1831 1551 0
-1724 -1832 1552 0
-1724 -1833 1553 0
-1724 -1834 1554 0
-1724 -1835 1555 0
-1724 -1836 1556 0
-1724 -1837 1557 0
-1724 -1838 1558 0
-1724 -1839 1559 0
-1724 -1840 1560 0
-1724 -1841 1561 0
-1724 -1842 1562 0
-1724 -1843 1563 0
-1724 -1844 1564 0
-1724 -1845 1565 0
-1724 -1846 1566 0
-1724 -1847 1567 0
-1724 -1848 1568 0
-1724 -1849 1569 0
-1724 -1850 1570 0
-1724 -1851 1571 0
-1724 -1852 1572 0
-1724 -1853 1573 0
-1724 -1854 1574 0
-1724 -1855 1575 0
-1724 -1856 1576 0
-1724 -1857 1577 0
-1724 -1858 1578 0
-1724 -1859 1579 0
-1724 -1860 1580 0
-1724 -1861 1581 0
-1724 -1862 1582 0
-1724 -1863 1583 0
-1724 -1864 1584 0
-1724 -1865 1585 0
-1724 -1866 1586 0
-1724 -1867 1587 0
-1724 -1868 1588 0
-1724 -1869 1589 0
-1724 -1870 1590 0
-1724 -1871 1591 0
-1724 -1872 1592 0
-1724 -1873 1593 0
-1724 -1874 1594 0
-1724 -1875 1595 0
-1724 -1876 1596 0
-1724 -1877 1597 0
-1724 -1878 1598 0
-1724 -1879 1599 0
-1724 -1880 1600 0
-1724 -1881 1601 0
-1724 -1882 1602 0
-1724 -1883 1603 0
-1724 -1884 1604 0
-1724 -1885 1605 0
-1724 -1886 1606 0
-1724 -1887 1607 0
-1724 -1888 1608 0
-1725 -1773 1494 0
-1725 -1774 1495 0
-1725 -1775 1496 0
-1725 -1776 1497 0
-1725 -1777 1498 0
-1725 -1778 1499 0
-1725 -1779 1500 0
-1725 -1780 1501 0
-1725 -1781 1502 0
-1725 -1782 1503 0
-1725 -1783 1504 0
-1725 -1784 1505 0
-1725 -1785 1506 0
-1725 -1786 1507 0
-1725 -1787 1508 0
-1725 -1788 1509 0
-1725 -1789 1510 0
-1725 -1790 1511 0
-1725 -1791 1512 0
-1725 -1792 1513 0
-1725 -1793 1514 0
-1725 -1794 1515 0
-1725 -1795 1516 0
-1725 -1796 1517 0
-1725 -1797 1518 0
-1725 -1798 1519 0
-1725 -1799 1520 0
-1725 -1800 1521 0
-1725 -1801 1522 0
-1725 -1802 1523 0
-1725 -1803 1524 0
-1725 -1804 1525 0
-1725 -1805 1526 0
-1725 -1806 1527 0
-1725 -1807 1528 0
-1725 -1808 1529 0
-1725 -1809 1530 0
-1725 -1810 1531 0
-1725 -1811 1532 0
-1725 -1812 1533 0
-1725 -1813 1534 0
-1725 -1814 1535 0
-1725 -1815 1536 0
-1725 -1816 1537 0
-1725 -1817 1538 0
-1725 -1818 1539 0
-1725 -1819 1540 0
-1725 -1820 1541 0
-1725 -1821 1542 0
-1725 -1822 1543 0
-1725 -1823 1544 0
-1725 -1824 1545 0
-1725 -1825 1546 0
-1725 -1826 1547 0
-1725 -1827 1548 0
-1725 -1828 1549 0
-1725 -1829 1550 0
-1725 -1830 1551 0
-1725 -1831 1552 0
-1725 -1832 1553 0
-1725 -1833 1554 0
-1725 -1834 1555 0
-1725 -1835 1556 0
-1725 -1836 1557 0
-1725 -1837 1558 0
-1725 -1838 1559 0
-1725 -1839 1560 0
-1725 -1840 1561 0
-1725 -1841 1562 0
-1725 -1842 1563 0
-1725 -1843 1564 0
-1725 -1844 1565 0
-1725 -1845 1566 0
-1725 -1846 1567 0
-1725 -1847 1568 0
-1725 -1848 1569 0
-1725 -1849 1570 0
-1725 -1850 1571 0
-1725 -1851 1572 0
-1725 -1852 1573 0
-1725 -1853 1574 0
-1725 -1854 1575 0
-1725 -1855 1576 0
-1725 -1856 1577 0
-1725 -1857 1578 0
-1725 -1858 1579 0
-1725 -1859 1580 0
-1725 -1860 1581 0
-1725 -1861 1582 0
-1725 -1862 1583 0
-1725 -1863 1584 0
-1725 -1864 1585 0
-1725 -1865 1586 0
-1725 -1866 1587 0
-1725 -1867 1588 0
-1725 -1868 1589 0
-1725 -1869 1590 0
-1725 -1870 1591 0
-1725 -1871 1592 0
-1725 -1872 1593 0
-1725 -1873 1594 0
-1725 -1874 1595 0
-1725 -1875 1596 0
-1725 -1876 1597 0
-1725 -1877 1598 0
-1725 -1878 1599 0
-1725 -1879 1600 0
-1725 -1880 1601 0
-1725 -1881 1602 0
-1725 -1882 1603 0
-1725 -1883 1604 0
-1725 -1884 1605 0
-1725 -1885 1606 0
-1725 -1886 1607 0
-1725 -1887 1608 0
-1725 -1888 1609 0
-1726 -1773 1495 0
-1726 -1774 1496 0
-1726 -1775 1497 0
-1726 -1776 1498 0
-1726 -1777 1499 0
-1726 -1778 1500 0
-1726 -1779 1501 0
-1726 -1780 1502 0
-1726 -1781 1503 0
-1726 -1782 1504 0
-1726 -1783 1505 0
-1726 -1784 1506 0
-1726 -1785 1507 0
-1726 -1786 1508 0
-1726 -1787 1509 0
-1726 -1788 1510 0
-1726 -1789 1511 0
-1726 -1790 1512 0
-1726 -1791 1513 0
-1726 -1792 1514 0
-1726 -1793 1515 0
-1726 -1794 1516 0
-1726 -1795 1517 0
-1726 -1796 1518 0
-1726 -1797 1519 0
-1726 -1798 1520 0
-1726 -1799 1521 0
-1726 -1800 1522 0
-1726 -1801 1523 0
-1726 -1802 1524 0
-1726 -1803 1525 0
-1726 -1804 1526 0
-1726 -1805 1527 0
-1726 -1806 1528 0
-1726 -1807 1529 0
-1726 -1808 1530 0
-1726 -1809 1531 0
-1726 -1810 1532 0
-1726 -1811 1533 0
-1726 -1812 1534 0
-1726 -1813 1535 0
-1726 -1814 1536 0
-1726 -1815 1537 0
-1726 -1816 1538 0
-1726 -1817 1539 0
-1726 -1818 1540 0
-1726 -1819 1541 0
-1726 -1820 1542 0
-1726 -1821 1543 0
-1726 -1822 1544 0
-1726 -1823 1545 0
-1726 -1824 1546 0
-1726 -1825 1547 0
-1726 -1826 1548 0
-1726 -1827 1549 0
-1726 -1828 1550 0
-1726 -1829 1551 0
-1726 -1830 1552 0
-1726 -1831 1553 0
-1726 -1832 1554 0
-1726 -1833 1555 0
-1726 -1834 1556 0
-1726 -1835 1557 0
-1726 -1836 1558 0
-1726 -1837 1559 0
-1726 -1838 1560 0
-1726 -1839 1561 0
-1726 -1840 1562 0
-1726 -1841 1563 0
-1726 -1842 1564 0
-1726 -1843 1565 0
-1726 -1844 1566 0
-1726 -1845 1567 0
-1726 -1846 1568 0
-1726 -1847 1569 0
-1726 -1848 1570 0
-1726 -1849 1571 0
-1726 -1850 1572 0
-1726 -1851 1573 0
-1726 -1852 1574 0
-1726 -1853 1575 0
-1726 -1854 1576 0
-1726 -1855 1577 0
-1726 -1856 1578 0
-1726 -1857 1579 0
-1726 -1858 1580 0
-1726 -1859 1581 0
-1726 -1860 1582 0
-1726 -1861 1583 0
-1726 -1862 1584 0
-1726 -1863 1585 0
-1726 -1864 1586 0
-1726 -1865 1587 0
-1726 -1866 1588 0
-1726 -1867 1589 0
-1726 -1868 1590 0
-1726 -1869 1591 0
-1726 -1870 1592 0
-1726 -1871 1593 0
-1726 -1872 1594 0
-1726 -1873 1595 0
-1726 -1874 1596 0
-1726 -1875 1597 0
-1726 -1876 1598 0
-1726 -1877 1599 0
-1726 -1878 1600 0
-1726 -1879 1601 0
-1726 -1880 1602 0
-1726 -1881 1603 0
-1726 -1882 1604 0
-1726 -1883 1605 0
-1726 -1884 1606 0
-1726 -1885 1607 0
-1726 -1886 1608 0
-1726 -1887 1609 0
-1726 -1888 1610 0
-1727 -1773 1496 0
-1727 -1774 1497 0
-1727 -1775 1498 0
-1727 -1776 1499 0
-1727 -1777 1500 0
-1727 -1778 1501 0
-1727 -1779 1502 0
-1727 -1780 1503 0
-1727 -1781 1504 0
-1727 -1782 1505 0
-1727 -1783 1506 0
-1727 -1784 1507 0
-1727 -1785 1508 0
-1727 -1786 1509 0
-1727 -1787 1510 0
-1727 -1788 1511 0
-1727 -1789 1512 0
-1727 -1790 1513 0
-1727 -1791 1514 0
-1727 -1792 1515 0
-1727 -1793 1516 0
-1727 -1794 1517 0
-1727 -1795 1518 0
-1727 -1796 1519 0
-1727 -1797 1520 0
-1727 -1798 1521 0
-1727 -1799 1522 0
-1727 -1800 1523 0
-1727 -1801 1524 0
-1727 -1802 1525 0
-1727 -1803 1526 0
-1727 -1804 1527 0
-1727 -1805 1528 0
-1727 -1806 1529 0
-1727 -1807 1530 0
-1727 -1808 1531 0
-1727 -1809 1532 0
-1727 -1810 1533 0
-1727 -1811 1534 0
-1727 -1812 1535 0
-1727 -1813 1536 0
-1727 -1814 1537 0
-1727 -1815 1538 0
-1727 -1816 1539 0
-1727 -1817 1540 0
-1727 -1818 1541 0
-1727 -1819 1542 0
-1727 -1820 1543 0
-1727 -1821 1544 0
-1727 -1822 1545 0
-1727 -1823 1546 0
-1727 -1824 1547 0
-1727 -1825 1548 0
-1727 -1826 1549 0
-1727 -1827 1550 0
-1727 -1828 1551 0
-1727 -1829 1552 0
-1727 -1830 1553 0
-1727 -1831 1554 0
-1727 -1832 1555 0
-1727 -1833 1556 0
-1727 -1834 1557 0
-1727 -1835 1558 0
-1727 -1836 1559 0
-1727 -1837 1560 0
-1727 -1838 1561 0
-1727 -1839 1562 0
-1727 -1840 1563 0
-1727 -1841 1564 0
-1727 -1842 1565 0
-1727 -1843 1566 0
-1727 -1844 1567 0
-1727 -1845 1568 0
-1727 -1846 1569 0
-1727 -1847 1570 0
-1727 -1848 1571 0
-1727 -1849 1572 0
-1727 -1850 1573 0
-1727 -1851 1574 0
-1727 -1852 1575 0
-1727 -1853 1576 0
-1727 -1854 1577 0
-1727 -1855 1578 0
-1727 -1856 1579 0
-1727 -1857 1580 0
-1727 -1858 1581 0
-1727 -1859 1582 0
-1727 -1860 1583 0
-1727 -1861 1584 0
-1727 -1862 1585 0
-1727 -1863 1586 0
-1727 -1864 1587 0
-1727 -1865 1588 0
-1727 -1866 1589 0
-1727 -1867 1590 0
-1727 -1868 1591 0
-1727 -1869 1592 0
-1727 -1870 1593 0
-1727 -1871 1594 0
-1727 -1872 1595 0
-1727 -1873 1596 0
-1727 -1874 1597 0
-1727 -1875 1598 0
-1727 -1876 1599 0
-1727 -1877 1600 0
-1727 -1878 1601 0
-1727 -1879 1602 0
-1727 -1880 1603 0
-1727 -1881 1604 0
-1727 -1882 1605 0
-1727 -1883 1606 0
-1727 -1884 1607 0
-1727 -1885 1608 0
-1727 -1886 1609 0
-1727 -1887 1610 0
-1727 -1888 1611 0
-1728 -1773 1497 0
-1728 -1774 1498 0
-1728 -1775 1499 0
-1728 -1776 1500 0
-1728 -1777 1501 0
-1728 -1778 1502 0
-1728 -1779 1503 0
-1728 -1780 1504 0
-1728 -1781 1505 0
-1728 -1782 1506 0
-1728 -1783 1507 0
-1728 -1784 1508 0
-1728 -1785 1509 0
-1728 -1786 1510 0
-1728 -1787 1511 0
-1728 -1788 1512 0
-1728 -1789 1513 0
-1728 -1790 1514 0
-1728 -1791 1515 0
-1728 -1792 1516 0
-1728 -1793 1517 0
-1728 -1794 1518 0
-1728 -1795 1519 0
-1728 -1796 1520 0
-1728 -1797 1521 0
-1728 -1798 1522 0
-1728 -1799 1523 0
-1728 -1800 1524 0
-1728 -1801 1525 0
-1728 -1802 1526 0
-1728 -1803 1527 0
-1728 -1804 1528 0
-1728 -1805 1529 0
-1728 -1806 1530 0
-1728 -1807 1531 0
-1728 -1808 1532 0
-1728 -1809 1533 0
-1728 -1810 1534 0
-1728 -1811 1535 0
-1728 -1812 1536 0
-1728 -1813 1537 0
-1728 -1814 1538 0
-1728 -1815 1539 0
-1728 -1816 1540 0
-1728 -1817 1541 0
-1728 -1818 1542 0
-1728 -1819 1543 0
-1728 -1820 1544 0
-1728 -1821 1545 0
-1728 -1822 1546 0
-1728 -1823 1547 0
-1728 -1824 1548 0
-1728 -1825 1549 0
-1728 -1826 1550 0
-1728 -1827 1551 0
-1728 -1828 1552 0
-1728 -1829 1553 0
-1728 -1830 1554 0
-1728 -1831 1555 0
-1728 -1832 1556 0
-1728 -1833 1557 0
-1728 -1834 1558 0
-1728 -1835 1559 0
-1728 -1836 1560 0
-1728 -1837 1561 0
-1728 -1838 1562 0
-1728 -1839 1563 0
-1728 -1840 1564 0
-1728 -1841 1565 0
-1728 -1842 1566 0
-1728 -1843 1567 0
-1728 -1844 1568 0
-1728 -1845 1569 0
-1728 -1846 1570 0
-1728 -1847 1571 0
-1728 -1848 1572 0
-1728 -1849 1573 0
-1728 -1850 1574 0
-1728 -1851 1575 0
-1728 -1852 1576 0
-1728 -1853 1577 0
-1728 -1854 1578 0
-1728 -1855 1579 0
-1728 -1856 1580 0
-1728 -1857 1581 0
-1728 -1858 1582 0
-1728 -1859 1583 0
-1728 -1860 1584 0
-1728 -1861 1585 0
-1728 -1862 1586 0
-1728 -1863 1587 0
-1728 -1864 1588 0
-1728 -1865 1589 0
-1728 -1866 1590 0
-1728 -1867 1591 0
-1728 -1868 1592 0
-1728 -1869 1593 0
-1728 -1870 1594 0
-1728 -1871 1595 0
-1728 -1872 1596 0
-1728 -1873 1597 0
-1728 -1874 1598 0
-1728 -1875 1599 0
-1728 -1876 1600 0
-1728 -1877 1601 0
-1728 -1878 1602 0
-1728 -1879 1603 0
-1728 -1880 1604 0
-1728 -1881 1605 0
-1728 -1882 1606 0
-1728 -1883 1607 0
-1728 -1884 1608 0
-1728 -1885 1609 0
-1728 -1886 1610 0
-1728 -1887 1611 0
-1728 -1888 1612 0
-1729 -1773 1498 0
-1729 -1774 1499 0
-1729 -1775 1500 0
-1729 -1776 1501 0
-1729 -1777 1502 0
-1729 -1778 1503 0
-1729 -1779 1504 0
-1729 -1780 1505 0
-1729 -1781 1506 0
-1729 -1782 1507 0
-1729 -1783 1508 0
-1729 -1784 1509 0
-1729 -1785 1510 0
-1729 -1786 1511 0
-1729 -1787 1512 0
-1729 -1788 1513 0
-1729 -1789 1514 0
-1729 -1790 1515 0
-1729 -1791 1516 0
-1729 -1792 1517 0
-1729 -1793 1518 0
-1729 -1794 1519 0
-1729 -1795 1520 0
-1729 -1796 1521 0
-1729 -1797 1522 0
-1729 -1798 1523 0
-1729 -1799 1524 0
-1729 -1800 1525 0
-1729 -1801 1526 0
-1729 -1802 1527 0
-1729 -1803 1528 0
-1729 -1804 1529 0
-1729 -1805 1530 0
-1729 -1806 1531 0
-1729 -1807 1532 0
-1729 -1808 1533 0
-1729 -1809 1534 0
-1729 -1810 1535 0
-1729 -1811 1536 0
-1729 -1812 1537 0
-1729 -1813 1538 0
-1729 -1814 1539 0
-1729 -1815 1540 0
-1729 -1816 1541 0
-1729 -1817 1542 0
-1729 -1818 1543 0
-1729 -1819 1544 0
-1729 -1820 1545 0
-1729 -1821 1546 0
-1729 -1822 1547 0
-1729 -1823 1548 0
-1729 -1824 1549 0
-1729 -1825 1550 0
-1729 -1826 1551 0
-1729 -1827 1552 0
-1729 -1828 1553 0
-1729 -1829 1554 0
-1729 -1830 1555 0
-1729 -1831 1556 0
-1729 -1832 1557 0
-1729 -1833 1558 0
-1729 -1834 1559 0
-1729 -1835 1560 0
-1729 -1836 1561 0
-1729 -1837 1562 0
-1729 -1838 1563 0
-1729 -1839 1564 0
-1729 -1840 1565 0
-1729 -1841 1566 0
-1729 -1842 1567 0
-1729 -1843 1568 0
-1729 -1844 1569 0
-1729 -1845 1570 0
-1729 -1846 1571 0
-1729 -1847 1572 0
-1729 -1848 1573 0
-1729 -1849 1574 0
-1729 -1850 1575 0
-1729 -1851 1576 0
-1729 -1852 1577 0
-1729 -1853 1578 0
-1729 -1854 1579 0
-1729 -1855 1580 0
-1729 -1856 1581 0
-1729 -1857 1582 0
-1729 -1858 1583 0
-1729 -1859 1584 0
-1729 -1860 1585 0
-1729 -1861 1586 0
-1729 -1862 1587 0
-1729 -1863 1588 0
-1729 -1864 1589 0
-1729 -1865 1590 0
-1729 -1866 1591 0
-1729 -1867 1592 0
-1729 -1868 1593 0
-1729 -1869 1594 0
-1729 -1870 1595 0
-1729 -1871 1596 0
-1729 -1872 1597 0
-1729 -1873 1598 0
-1729 -1874 1599 0
-1729 -1875 1600 0
-1729 -1876 1601 0
-1729 -1877 1602 0
-1729 -1878 1603 0
-1729 -1879 1604 0
-1729 -1880 1605 0
-1729 -1881 1606 0
-1729 -1882 1607 0
-1729 -1883 1608 0
-1729 -1884 1609 0
-1729 -1885 1610 0
-1729 -1886 1611 0
-1729 -1887 1612 0
-1729 -1888 1613 0
-1730 -1773 1499 0
-1730 -1774 1500 0
-1730 -1775 1501 0
-1730 -1776 1502 0
-1730 -1777 1503 0
-1730 -1778 1504 0
-1730 -1779 1505 0
-1730 -1780 1506 0
-1730 -1781 1507 0
-1730 -1782 1508 0
-1730 -1783 1509 0
-1730 -1784 1510 0
-1730 -1785 1511 0
-1730 -1786 1512 0
-1730 -1787 1513 0
-1730 -1788 1514 0
-1730 -1789 1515 0
-1730 -1790 1516 0
-1730 -1791 1517 0
-1730 -1792 1518 0
-1730 -1793 1519 0
-1730 -1794 1520 0
-1730 -1795 1521 0
-1730 -1796 1522 0
-1730 -1797 1523 0
-1730 -1798 1524 0
-1730 -1799 1525 0
-1730 -1800 1526 0
-1730 -1801 1527 0
-1730 -1802 1528 0
-1730 -1803 1529 0
-1730 -1804 1530 0
-1730 -1805 1531 0
-1730 -1806 1532 0
-1730 -1807 1533 0
-1730 -1808 1534 0
-1730 -1809 1535 0
-1730 -1810 1536 0
-1730 -1811 1537 0
-1730 -1812 1538 0
-1730 -1813 1539 0
-1730 -1814 1540 0
-1730 -1815 1541 0
-1730 -1816 1542 0
-1730 -1817 1543 0
-1730 -1818 1544 0
-1730 -1819 1545 0
-1730 -1820 1546 0
-1730 -1821 1547 0
-1730 -1822 1548 0
-1730 -1823 1549 0
-1730 -1824 1550 0
-1730 -1825 1551 0
-1730 -1826 1552 0
-1730 -1827 1553 0
-1730 -1828 1554 0
-1730 -1829 1555 0
-1730 -1830 1556 0
-1730 -1831 1557 0
-1730 -1832 1558 0
-1730 -1833 1559 0
-1730 -1834 1560 0
-1730 -1835 1561 0
-1730 -1836 1562 0
-1730 -1837 1563 0
-1730 -1838 1564 0
-1730 -1839 1565 0
-1730 -1840 1566 0
-1730 -1841 1567 0
-1730 -1842 1568 0
-1730 -1843 1569 0
-1730 -1844 1570 0
-1730 -1845 1571 0
-1730 -1846 1572 0
-1730 -1847 1573 0
-1730 -1848 1574 0
-1730 -1849 1575 0
-1730 -1850 1576 0
-1730 -1851 1577 0
-1730 -1852 1578 0
-1730 -1853 1579 0
-1730 -1854 1580 0
-1730 -1855 1581 0
-1730 -1856 1582 0
-1730 -1857 1583 0
-1730 -1858 1584 0
-1730 -1859 1585 0
-1730 -1860 1586 0
-1730 -1861 1587 0
-1730 -1862 1588 0
-1730 -1863 1589 0
-1730 -1864 1590 0
-1730 -1865 1591 0
-1730 -1866 1592 0
-1730 -1867 1593 0
-1730 -1868 1594 0
-1730 -1869 1595 0
-1730 -1870 1596 0
-1730 -1871 1597 0
-1730 -1872 1598 0
-1730 -1873 1599 0
-1730 -1874 1600 0
-1730 -1875 1601 0
-1730 -1876 1602 0
-1730 -1877 1603 0
-1730 -1878 1604 0
-1730 -1879 1605 0
-1730 -1880 1606 0
-1730 -1881 1607 0
-1730 -1882 1608 0
-1730 -1883 1609 0
-1730 -1884 1610 0
-1730 -1885 1611 0
-1730 -1886 1612 0
-1730 -1887 1613 0
-1730 -1888 1614 0
-1731 -1773 1500 0
-1731 -1774 1501 0
-1731 -1775 1502 0
-1731 -1776 1503 0
-1731 -1777 1504 0
-1731 -1778 1505 0
-1731 -1779 1506 0
-1731 -1780 1507 0
-1731 -1781 1508 0
-1731 -1782 1509 0
-1731 -1783 1510 0
-1731 -1784 1511 0
-1731 -1785 1512 0
-1731 -1786 1513 0
-1731 -1787 1514 0
-1731 -1788 1515 0
-1731 -1789 1516 0
-1731 -1790 1517 0
-1731 -1791 1518 0
-1731 -1792 1519 0
-1731 -1793 1520 0
-1731 -1794 1521 0
-1731 -1795 1522 0
-1731 -1796 1523 0
-1731 -1797 1524 0
-1731 -1798 1525 0
-1731 -1799 1526 0
-1731 -1800 1527 0
-1731 -1801 1528 0
-1731 -1802 1529 0
-1731 -1803 1530 0
-1731 -1804 1531 0
-1731 -1805 1532 0
-1731 -1806 1533 0
-1731 -1807 1534 0
-1731 -1808 1535 0
-1731 -1809 1536 0
-1731 -1810 1537 0
-1731 -1811 1538 0
-1731 -1812 1539 0
-1731 -1813 1540 0
-1731 -1814 1541 0
-1731 -1815 1542 0
-1731 -1816 1543 0
-1731 -1817 1544 0
-1731 -1818 1545 0
-1731 -1819 1546 0
-1731 -1820 1547 0
-1731 -1821 1548 0
-1731 -1822 1549 0
-1731 -1823 1550 0
-1731 -1824 1551 0
-1731 -1825 1552 0
-1731 -1826 1553 0
-1731 -1827 1554 0
-1731 -1828 1555 0
-1731 -1829 1556 0
-1731 -1830 1557 0
-1731 -1831 1558 0
-1731 -1832 1559 0
-1731 -1833 1560 0
-1731 -1834 1561 0
-1731 -1835 1562 0
-1731 -1836 1563 0
-1731 -1837 1564 0
-1731 -1838 1565 0
-1731 -1839 1566 0
-1731 -1840 1567 0
-1731 -1841 1568 0
-1731 -1842 1569 0
-1731 -1843 1570 0
-1731 -1844 1571 0
-1731 -1845 1572 0
-1731 -1846 1573 0
-1731 -1847 1574 0
-1731 -1848 1575 0
-1731 -1849 1576 0
-1731 -1850 1577 0
-1731 -1851 1578 0
-1731 -1852 1579 0
-1731 -1853 1580 0
-1731 -1854 1581 0
-1731 -1855 1582 0
-1731 -1856 1583 0
-1731 -1857 1584 0
-1731 -1858 1585 0
-1731 -1859 1586 0
-1731 -1860 1587 0
-1731 -1861 1588 0
-1731 -1862 1589 0
-1731 -1863 1590 0
-1731 -1864 1591 0
-1731 -1865 1592 0
-1731 -1866 1593 0
-1731 -1867 1594 0
-1731 -1868 1595 0
-1731 -1869 1596 0
-1731 -1870 1597 0
-1731 -1871 1598 0
-1731 -1872 1599 0
-1731 -1873 1600 0
-1731 -1874 1601 0
-1731 -1875 1602 0
-1731 -1876 1603 0
-1731 -1877 1604 0
-1731 -1878 1605 0
-1731 -1879 1606 0
-1731 -1880 1607 0
-1731 -1881 1608 0
-1731 -1882 1609 0
-1731 -1883 1610 0
-1731 -1884 1611 0
-1731 -1885 1612 0
-1731 -1886 1613 0
-1731 -1887 1614 0
-1731 -1888 1615 0
-1732 -1773 1501 0
-1732 -1774 1502 0
-1732 -1775 1503 0
-1732 -1776 1504 0
-1732 -1777 1505 0
-1732 -1778 1506 0
-1732 -1779 1507 0
-1732 -1780 1508 0
-1732 -1781 1509 0
-1732 -1782 1510 0
-1732 -1783 1511 0
-1732 -1784 1512 0
-1732 -1785 1513 0
-1732 -1786 1514 0
-1732 -1787 1515 0
-1732 -1788 1516 0
-1732 -1789 1517 0
-1732 -1790 1518 0
-1732 -1791 1519 0
-1732 -1792 1520 0
-1732 -1793 1521 0
-1732 -1794 1522 0
-1732 -1795 1523 0
-1732 -1796 1524 0
-1732 -1797 1525 0
-1732 -1798 1526 0
-1732 -1799 1527 0
-1732 -1800 1528 0
-1732 -1801 1529 0
-1732 -1802 1530 0
-1732 -1803 1531 0
-1732 -1804 1532 0
-1732 -1805 1533 0
-1732 -1806 1534 0
-1732 -1807 1535 0
-1732 -1808 1536 0
-1732 -1809 1537 0
-1732 -1810 1538 0
-1732 -1811 1539 0
-1732 -1812 1540 0
-1732 -1813 1541 0
-1732 -1814 1542 0
-1732 -1815 1543 0
-1732 -1816 1544 0
-1732 -1817 1545 0
-1732 -1818 1546 0
-1732 -1819 1547 0
-1732 -1820 1548 0
-1732 -1821 1549 0
-1732 -1822 1550 0
-1732 -1823 1551 0
-1732 -1824 1552 0
-1732 -1825 1553 0
-1732 -1826 1554 0
-1732 -1827 1555 0
-1732 -1828 1556 0
-1732 -1829 1557 0
-1732 -1830 1558 0
-1732 -1831 1559 0
-1732 -1832 1560 0
-1732 -1833 1561 0
-1732 -1834 1562 0
-1732 -1835 1563 0
-1732 -1836 1564 0
-1732 -1837 1565 0
-1732 -1838 1566 0
-1732 -1839 1567 0
-1732 -1840 1568 0
-1732 -1841 1569 0
-1732 -1842 1570 0
-1732 -1843 1571 0
-1732 -1844 1572 0
-1732 -1845 1573 0
-1732 -1846 1574 0
-1732 -1847 1575 0
-1732 -1848 1576 0
-1732 -1849 1577 0
-1732 -1850 1578 0
-1732 -1851 1579 0
-1732 -1852 1580 0
-1732 -1853 1581 0
-1732 -1854 1582 0
-1732 -1855 1583 0
-1732 -1856 1584 0
-1732 -1857 1585 0
-1732 -1858 1586 0
-1732 -1859 1587 0
-1732 -1860 1588 0
-1732 -1861 1589 0
-1732 -1862 1590 0
-1732 -1863 1591 0
-1732 -1864 1592 0
-1732 -1865 1593 0
-1732 -1866 1594 0
-1732 -1867 1595 0
-1732 -1868 1596 0
-1732 -1869 1597 0
-1732 -1870 1598 0
-1732 -1871 1599 0
-1732 -1872 1600 0
-1732 -1873 1601 0
-1732 -1874 1602 0
-1732 -1875 1603 0
-1732 -1876 1604 0
-1732 -1877 1605 0
-1732 -1878 1606 0
-1732 -1879 1607 0
-1732 -1880 1608 0
-1732 -1881 1609 0
-1732 -1882 1610 0
-1732 -1883 1611 0
-1732 -1884 1612 0
-1732 -1885 1613 0
-1732 -1886 1614 0
-1732 -1887 1615 0
-1732 -1888 1616 0
-1733 -1773 1502 0
-1733 -1774 1503 0
-1733 -1775 1504 0
-1733 -1776 1505 0
-1733 -1777 1506 0
-1733 -1778 1507 0
-1733 -1779 1508 0
-1733 -1780 1509 0
-1733 -1781 1510 0
-1733 -1782 1511 0
-1733 -1783 1512 0
-1733 -1784 1513 0
-1733 -1785 1514 0
-1733 -1786 1515 0
-1733 -1787 1516 0
-1733 -1788 1517 0
-1733 -1789 1518 0
-1733 -1790 1519 0
-1733 -1791 1520 0
-1733 -1792 1521 0
-1733 -1793 1522 0
-1733 -1794 1523 0
-1733 -1795 1524 0
-1733 -1796 1525 0
-1733 -1797 1526 0
-1733 -1798 1527 0
-1733 -1799 1528 0
-1733 -1800 1529 0
-1733 -1801 1530 0
-1733 -1802 1531 0
-1733 -1803 1532 0
-1733 -1804 1533 0
-1733 -1805 1534 0
-1733 -1806 1535 0
-1733 -1807 1536 0
-1733 -1808 1537 0
-1733 -1809 1538 0
-1733 -1810 1539 0
-1733 -1811 1540 0
-1733 -1812 1541 0
-1733 -1813 1542 0
-1733 -1814 1543 0
-1733 -1815 1544 0
-1733 -1816 1545 0
-1733 -1817 1546 0
-1733 -1818 1547 0
-1733 -1819 1548 0
-1733 -1820 1549 0
-1733 -1821 1550 0
-1733 -1822 1551 0
-1733 -1823 1552 0
-1733 -1824 1553 0
-1733 -1825 1554 0
-1733 -1826 1555 0
-1733 -1827 1556 0
-1733 -1828 1557 0
-1733 -1829 1558 0
-1733 -1830 1559 0
-1733 -1831 1560 0
-1733 -1832 1561 0
-1733 -1833 1562 0
-1733 -1834 1563 0
-1733 -1835 1564 0
-1733 -1836 1565 0
-1733 -1837 1566 0
-1733 -1838 1567 0
-1733 -1839 1568 0
-1733 -1840 1569 0
-1733 -1841 1570 0
-1733 -1842 1571 0
-1733 -1843 1572 0
-1733 -1844 1573 0
-1733 -1845 1574 0
-1733 -1846 1575 0
-1733 -1847 1576 0
-1733 -1848 1577 0
-1733 -1849 1578 0
-1733 -1850 1579 0
-1733 -1851 1580 0
-1733 -1852 1581 0
-1733 -1853 1582 0
-1733 -1854 1583 0
-1733 -1855 1584 0
-1733 -1856 1585 0
-1733 -1857 1586 0
-1733 -1858 1587 0
-1733 -1859 1588 0
-1733 -1860 1589 0
-1733 -1861 1590 0
-1733 -1862 1591 0
-1733 -1863 1592 0
-1733 -1864 1593 0
-1733 -1865 1594 0
-1733 -1866 1595 0
-1733 -1867 1596 0
-1733 -1868 1597 0
-1733 -1869 1598 0
-1733 -1870 1599 0
-1733 -1871 1600 0
-1733 -1872 1601 0
-1733 -1873 1602 0
-1733 -1874 1603 0
-1733 -1875 1604 0
-1733 -1876 1605 0
-1733 -1877 1606 0
-1733 -1878 1607 0
-1733 -1879 1608 0
-1733 -1880 1609 0
-1733 -1881 1610 0
-1733 -1882 1611 0
-1733 -1883 1612 0
-1733 -1884 1613 0
-1733 -1885 1614 0
-1733 -1886 1615 0
-1733 -1887 1616 0
-1733 -1888 1617 0
-1734 -1773 1503 0
-1734 -1774 1504 0
-1734 -1775 1505 0
-1734 -1776 1506 0
-1734 -1777 1507 0
-1734 -1778 1508 0
-1734 -1779 1509 0
-1734 -1780 1510 0
-1734 -1781 1511 0
-1734 -1782 1512 0
-1734 -1783 1513 0
-1734 -1784 1514 0
-1734 -1785 1515 0
-1734 -1786 1516 0
-1734 -1787 1517 0
-1734 -1788 1518 0
-1734 -1789 1519 0
-1734 -1790 1520 0
-1734 -1791 1521 0
-1734 -1792 1522 0
-1734 -1793 1523 0
-1734 -1794 1524 0
-1734 -1795 1525 0
-1734 -1796 1526 0
-1734 -1797 1527 0
-1734 -1798 1528 0
-1734 -1799 1529 0
-1734 -1800 1530 0
-1734 -1801 1531 0
-1734 -1802 1532 0
-1734 -1803 1533 0
-1734 -1804 1534 0
-1734 -1805 1535 0
-1734 -1806 1536 0
-1734 -1807 1537 0
-1734 -1808 1538 0
-1734 -1809 1539 0
-1734 -1810 1540 0
-1734 -1811 1541 0
-1734 -1812 1542 0
-1734 -1813 1543 0
-1734 -1814 1544 0
-1734 -1815 1545 0
-1734 -1816 1546 0
-1734 -1817 1547 0
-1734 -1818 1548 0
-1734 -1819 1549 0
-1734 -1820 1550 0
-1734 -1821 1551 0
-1734 -1822 1552 0
-1734 -1823 1553 0
-1734 -1824 1554 0
-1734 -1825 1555 0
-1734 -1826 1556 0
-1734 -1827 1557 0
-1734 -1828 1558 0
-1734 -1829 1559 0
-1734 -1830 1560 0
-1734 -1831 1561 0
-1734 -1832 1562 0
-1734 -1833 1563 0
-1734 -1834 1564 0
-1734 -1835 1565 0
-1734 -1836 1566 0
-1734 -1837 1567 0
-1734 -1838 1568 0
-1734 -1839 1569 0
-1734 -1840 1570 0
-1734 -1841 1571 0
-1734 -1842 1572 0
-1734 -1843 1573 0
-1734 -1844 1574 0
-1734 -1845 1575 0
-1734 -1846 1576 0
-1734 -1847 1577 0
-1734 -1848 1578 0
-1734 -1849 1579 0
-1734 -1850 1580 0
-1734 -1851 1581 0
-1734 -1852 1582 0
-1734 -1853 1583 0
-1734 -1854 1584 0
-1734 -1855 1585 0
-1734 -1856 1586 0
-1734 -1857 1587 0
-1734 -1858 1588 0
-1734 -1859 1589 0
-1734 -1860 1590 0
-1734 -1861 1591 0
-1734 -1862 1592 0
-1734 -1863 1593 0
-1734 -1864 1594 0
-1734 -1865 1595 0
-1734 -1866 1596 0
-1734 -1867 1597 0
-1734 -1868 1598 0
-1734 -1869 1599 0
-1734 -1870 1600 0
-1734 -1871 1601 0
-1734 -1872 1602 0
-1734 -1873 1603 0
-1734 -1874 1604 0
-1734 -1875 1605 0
-1734 -1876 1606 0
-1734 -1877 1607 0
-1734 -1878 1608 0
-1734 -1879 1609 0
-1734 -1880 1610 0
-1734 -1881 1611 0
-1734 -1882 1612 0
-1734 -1883 1613 0
-1734 -1884 1614 0
-1734 -1885 1615 0
-1734 -1886 1616 0
-1734 -1887 1617 0
-1734 -1888 1618 0
-1735 -1773 1504 0
-1735 -1774 1505 0
-1735 -1775 1506 0
-1735 -1776 1507 0
-1735 -1777 1508 0
-1735 -1778 1509 0
-1735 -1779 1510 0
-1735 -1780 1511 0
-1735 -1781 1512 0
-1735 -1782 1513 0
-1735 -1783 1514 0
-1735 -1784 1515 0
-1735 -1785 1516 0
-1735 -1786 1517 0
-1735 -1787 1518 0
-1735 -1788 1519 0
-1735 -1789 1520 0
-1735 -1790 1521 0
-1735 -1791 1522 0
-1735 -1792 1523 0
-1735 -1793 1524 0
-1735 -1794 1525 0
-1735 -1795 1526 0
-1735 -1796 1527 0
-1735 -1797 1528 0
-1735 -1798 1529 0
-1735 -1799 1530 0
-1735 -1800 1531 0
-1735 -1801 1532 0
-1735 -1802 1533 0
-1735 -1803 1534 0
-1735 -1804 1535 0
-1735 -1805 1536 0
-1735 -1806 1537 0
-1735 -1807 1538 0
-1735 -1808 1539 0
-1735 -1809 1540 0
-1735 -1810 1541 0
-1735 -1811 1542 0
-1735 -1812 1543 0
-1735 -1813 1544 0
-1735 -1814 1545 0
-1735 -1815 1546 0
-1735 -1816 1547 0
-1735 -1817 1548 0
-1735 -1818 1549 0
-1735 -1819 1550 0
-1735 -1820 1551 0
-1735 -1821 1552 0
-1735 -1822 1553 0
-1735 -1823 1554 0
-1735 -1824 1555 0
-1735 -1825 1556 0
-1735 -1826 1557 0
-1735 -1827 1558 0
-1735 -1828 1559 0
-1735 -1829 1560 0
-1735 -1830 1561 0
-1735 -1831 1562 0
-1735 -1832 1563 0
-1735 -1833 1564 0
-1735 -1834 1565 0
-1735 -1835 1566 0
-1735 -1836 1567 0
-1735 -1837 1568 0
-1735 -1838 1569 0
-1735 -1839 1570 0
-1735 -1840 1571 0
-1735 -1841 1572 0
-1735 -1842 1573 0
-1735 -1843 1574 0
-1735 -1844 1575 0
-1735 -1845 1576 0
-1735 -1846 1577 0
-1735 -1847 1578 0
-1735 -1848 1579 0
-1735 -1849 1580 0
-1735 -1850 1581 0
-1735 -1851 1582 0
-1735 -1852 1583 0
-1735 -1853 1584 0
-1735 -1854 1585 0
-1735 -1855 1586 0
-1735 -1856 1587 0
-1735 -1857 1588 0
-1735 -1858 1589 0
-1735 -1859 1590 0
-1735 -1860 1591 0
-1735 -1861 1592 0
-1735 -1862 1593 0
-1735 -1863 1594 0
-1735 -1864 1595 0
-1735 -1865 1596 0
-1735 -1866 1597 0
-1735 -1867 1598 0
-1735 -1868 1599 0
-1735 -1869 1600 0
-1735 -1870 1601 0
-1735 -1871 1602 0
-1735 -1872 1603 0
-1735 -1873 1604 0
-1735 -1874 1605 0
-1735 -1875 1606 0
-1735 -1876 1607 0
-1735 -1877 1608 0
-1735 -1878 1609 0
-1735 -1879 1610 0
-1735 -1880 1611 0
-1735 -1881 1612 0
-1735 -1882 1613 0
-1735 -1883 1614 0
-1735 -1884 1615 0
-1735 -1885 1616 0
-1735 -1886 1617 0
-1735 -1887 1618 0
-1735 -1888 1619 0
-1736 -1773 1505 0
-1736 -1774 1506 0
-1736 -1775 1507 0
-1736 -1776 1508 0
-1736 -1777 1509 0
-1736 -1778 1510 0
-1736 -1779 1511 0
-1736 -1780 1512 0
-1736 -1781 1513 0
-1736 -1782 1514 0
-1736 -1783 1515 0
-1736 -1784 1516 0
-1736 -1785 1517 0
-1736 -1786 1518 0
-1736 -1787 1519 0
-1736 -1788 1520 0
-1736 -1789 1521 0
-1736 -1790 1522 0
-1736 -1791 1523 0
-1736 -1792 1524 0
-1736 -1793 1525 0
-1736 -1794 1526 0
-1736 -1795 1527 0
-1736 -1796 1528 0
-1736 -1797 1529 0
-1736 -1798 1530 0
-1736 -1799 1531 0
-1736 -1800 1532 0
-1736 -1801 1533 0
-1736 -1802 1534 0
-1736 -1803 1535 0
-1736 -1804 1536 0
-1736 -1805 1537 0
-1736 -1806 1538 0
-1736 -1807 1539 0
-1736 -1808 1540 0
-1736 -1809 1541 0
-1736 -1810 1542 0
-1736 -1811 1543 0
-1736 -1812 1544 0
-1736 -1813 1545 0
-1736 -1814 1546 0
-1736 -1815 1547 0
-1736 -1816 1548 0
-1736 -1817 1549 0
-1736 -1818 1550 0
-1736 -1819 1551 0
-1736 -1820 1552 0
-1736 -1821 1553 0
-1736 -1822 1554 0
-1736 -1823 1555 0
-1736 -1824 1556 0
-1736 -1825 1557 0
-1736 -1826 1558 0
-1736 -1827 1559 0
-1736 -1828 1560 0
-1736 -1829 1561 0
-1736 -1830 1562 0
-1736 -1831 1563 0
-1736 -1832 1564 0
-1736 -1833 1565 0
-1736 -1834 1566 0
-1736 -1835 1567 0
-1736 -1836 1568 0
-1736 -1837 1569 0
-1736 -1838 1570 0
-1736 -1839 1571 0
-1736 -1840 1572 0
-1736 -1841 1573 0
-1736 -1842 1574 0
-1736 -1843 1575 0
-1736 -1844 1576 0
-1736 -1845 1577 0
-1736 -1846 1578 0
-1736 -1847 1579 0
-1736 -1848 1580 0
-1736 -1849 1581 0
-1736 -1850 1582 0
-1736 -1851 1583 0
-1736 -1852 1584 0
-1736 -1853 1585 0
-1736 -1854 1586 0
-1736 -1855 1587 0
-1736 -1856 1588 0
-1736 -1857 1589 0
-1736 -1858 1590 0
-1736 -1859 1591 0
-1736 -1860 1592 0
-1736 -1861 1593 0
-1736 -1862 1594 0
-1736 -1863 1595 0
-1736 -1864 1596 0
-1736 -1865 1597 0
-1736 -1866 1598 0
-1736 -1867 1599 0
-1736 -1868 1600 0
-1736 -1869 1601 0
-1736 -1870 1602 0
-1736 -1871 1603 0
-1736 -1872 1604 0
-1736 -1873 1605 0
-1736 -1874 1606 0
-1736 -1875 1607 0
-1736 -1876 1608 0
-1736 -1877 1609 0
-1736 -1878 1610 0
-1736 -1879 1611 0
-1736 -1880 1612 0
-1736 -1881 1613 0
-1736 -1882 1614 0
-1736 -1883 1615 0
-1736 -1884 1616 0
-1736 -1885 1617 0
-1736 -1886 1618 0
-1736 -1887 1619 0
-1736 -1888 1620 0
-1737 -1773 1506 0
-1737 -1774 1507 0
-1737 -1775 1508 0
-1737 -1776 1509 0
-1737 -1777 1510 0
-1737 -1778 1511 0
-1737 -1779 1512 0
-1737 -1780 1513 0
-1737 -1781 1514 0
-1737 -1782 1515 0
-1737 -1783 1516 0
-1737 -1784 1517 0
-1737 -1785 1518 0
-1737 -1786 1519 0
-1737 -1787 1520 0
-1737 -1788 1521 0
-1737 -1789 1522 0
-1737 -1790 1523 0
-1737 -1791 1524 0
-1737 -1792 1525 0
-1737 -1793 1526 0
-1737 -1794 1527 0
-1737 -1795 1528 0
-1737 -1796 1529 0
-1737 -1797 1530 0
-1737 -1798 1531 0
-1737 -1799 1532 0
-1737 -1800 1533 0
-1737 -1801 1534 0
-1737 -1802 1535 0
-1737 -1803 1536 0
-1737 -1804 1537 0
-1737 -1805 1538 0
-1737 -1806 1539 0
-1737 -1807 1540 0
-1737 -1808 1541 0
-1737 -1809 1542 0
-1737 -1810 1543 0
-1737 -1811 1544 0
-1737 -1812 1545 0
-1737 -1813 1546 0
-1737 -1814 1547 0
-1737 -1815 1548 0
-1737 -1816 1549 0
-1737 -1817 1550 0
-1737 -1818 1551 0
-1737 -1819 1552 0
-1737 -1820 1553 0
-1737 -1821 1554 0
-1737 -1822 1555 0
-1737 -1823 1556 0
-1737 -1824 1557 0
-1737 -1825 1558 0
-1737 -1826 1559 0
-1737 -1827 1560 0
-1737 -1828 1561 0
-1737 -1829 1562 0
-1737 -1830 1563 0
-1737 -1831 1564 0
-1737 -1832 1565 0
-1737 -1833 1566 0
-1737 -1834 1567 0
-1737 -1835 1568 0
-1737 -1836 1569 0
-1737 -1837 1570 0
-1737 -1838 1571 0
-1737 -1839 1572 0
-1737 -1840 1573 0
-1737 -1841 1574 0
-1737 -1842 1575 0
-1737 -1843 1576 0
-1737 -1844 1577 0
-1737 -1845 1578 0
-1737 -1846 1579 0
-1737 -1847 1580 0
-1737 -1848 1581 0
-1737 -1849 1582 0
-1737 -1850 1583 0
-1737 -1851 1584 0
-1737 -1852 1585 0
-1737 -1853 1586 0
-1737 -1854 1587 0
-1737 -1855 1588 0
-1737 -1856 1589 0
-1737 -1857 1590 0
-1737 -1858 1591 0
-1737 -1859 1592 0
-1737 -1860 1593 0
-1737 -1861 1594 0
-1737 -1862 1595 0
-1737 -1863 1596 0
-1737 -1864 1597 0
-1737 -1865 1598 0
-1737 -1866 1599 0
-1737 -1867 1600 0
-1737 -1868 1601 0
-1737 -1869 1602 0
-1737 -1870 1603 0
-1737 -1871 1604 0
-1737 -1872 1605 0
-1737 -1873 1606 0
-1737 -1874 1607 0
-1737 -1875 1608 0
-1737 -1876 1609 0
-1737 -1877 1610 0
-1737 -1878 1611 0
-1737 -1879 1612 0
-1737 -1880 1613 0
-1737 -1881 1614 0
-1737 -1882 1615 0
-1737 -1883 1616 0
-1737 -1884 1617 0
-1737 -1885 1618 0
-1737 -1886 1619 0
-1737 -1887 1620 0
-1737 -1888 1621 0
-1738 -1773 1507 0
-1738 -1774 1508 0
-1738 -1775 1509 0
-1738 -1776 1510 0
-1738 -1777 1511 0
-1738 -1778 1512 0
-1738 -1779 1513 0
-1738 -1780 1514 0
-1738 -1781 1515 0
-1738 -1782 1516 0
-1738 -1783 1517 0
-1738 -1784 1518 0
-1738 -1785 1519 0
-1738 -1786 1520 0
-1738 -1787 1521 0
-1738 -1788 1522 0
-1738 -1789 1523 0
-1738 -1790 1524 0
-1738 -1791 1525 0
-1738 -1792 1526 0
-1738 -1793 1527 0
-1738 -1794 1528 0
-1738 -1795 1529 0
-1738 -1796 1530 0
-1738 -1797 1531 0
-1738 -1798 1532 0
-1738 -1799 1533 0
-1738 -1800 1534 0
-1738 -1801 1535 0
-1738 -1802 1536 0
-1738 -1803 1537 0
-1738 -1804 1538 0
-1738 -1805 1539 0
-1738 -1806 1540 0
-1738 -1807 1541 0
-1738 -1808 1542 0
-1738 -1809 1543 0
-1738 -1810 1544 0
-1738 -1811 1545 0
-1738 -1812 1546 0
-1738 -1813 1547 0
-1738 -1814 1548 0
-1738 -1815 1549 0
-1738 -1816 1550 0
-1738 -1817 1551 0
-1738 -1818 1552 0
-1738 -1819 1553 0
-1738 -1820 1554 0
-1738 -1821 1555 0
-1738 -1822 1556 0
-1738 -1823 1557 0
-1738 -1824 1558 0
-1738 -1825 1559 0
-1738 -1826 1560 0
-1738 -1827 1561 0
-1738 -1828 1562 0
-1738 -1829 1563 0
-1738 -1830 1564 0
-1738 -1831 1565 0
-1738 -1832 1566 0
-1738 -1833 1567 0
-1738 -1834 1568 0
-1738 -1835 1569 0
-1738 -1836 1570 0
-1738 -1837 1571 0
-1738 -1838 1572 0
-1738 -1839 1573 0
-1738 -1840 1574 0
-1738 -1841 1575 0
-1738 -1842 1576 0
-1738 -1843 1577 0
-1738 -1844 1578 0
-1738 -1845 1579 0
-1738 -1846 1580 0
-1738 -1847 1581 0
-1738 -1848 1582 0
-1738 -1849 1583 0
-1738 -1850 1584 0
-1738 -1851 1585 0
-1738 -1852 1586 0
-1738 -1853 1587 0
-1738 -1854 1588 0
-1738 -1855 1589 0
-1738 -1856 1590 0
-1738 -1857 1591 0
-1738 -1858 1592 0
-1738 -1859 1593 0
-1738 -1860 1594 0
-1738 -1861 1595 0
-1738 -1862 1596 0
-1738 -1863 1597 0
-1738 -1864 1598 0
-1738 -1865 1599 0
-1738 -1866 1600 0
-1738 -1867 1601 0
-1738 -1868 1602 0
-1738 -1869 1603 0
-1738 -1870 1604 0
-1738 -1871 1605 0
-1738 -1872 1606 0
-1738 -1873 1607 0
-1738 -1874 1608 0
-1738 -1875 1609 0
-1738 -1876 1610 0
-1738 -1877 1611 0
-1738 -1878 1612 0
-1738 -1879 1613 0
-1738 -1880 1614 0
-1738 -1881 1615 0
-1738 -1882 1616 0
-1738 -1883 1617 0
-1738 -1884 1618 0
-1738 -1885 1619 0
-1738 -1886 1620 0
-1738 -1887 1621 0
-1738 -1888 1622 0
-1739 -1773 1508 0
-1739 -1774 1509 0
-1739 -1775 1510 0
-1739 -1776 1511 0
-1739 -1777 1512 0
-1739 -1778 1513 0
-1739 -1779 1514 0
-1739 -1780 1515 0
-1739 -1781 1516 0
-1739 -1782 1517 0
-1739 -1783 1518 0
-1739 -1784 1519 0
-1739 -1785 1520 0
-1739 -1786 1521 0
-1739 -1787 1522 0
-1739 -1788 1523 0
-1739 -1789 1524 0
-1739 -1790 1525 0
-1739 -1791 1526 0
-1739 -1792 1527 0
-1739 -1793 1528 0
-1739 -1794 1529 0
-1739 -1795 1530 0
-1739 -1796 1531 0
-1739 -1797 1532 0
-1739 -1798 1533 0
-1739 -1799 1534 0
-1739 -1800 1535 0
-1739 -1801 1536 0
-1739 -1802 1537 0
-1739 -1803 1538 0
-1739 -1804 1539 0
-1739 -1805 1540 0
-1739 -1806 1541 0
-1739 -1807 1542 0
-1739 -1808 1543 0
-1739 -1809 1544 0
-1739 -1810 1545 0
-1739 -1811 1546 0
-1739 -1812 1547 0
-1739 -1813 1548 0
-1739 -1814 1549 0
-1739 -1815 1550 0
-1739 -1816 1551 0
-1739 -1817 1552 0
-1739 -1818 1553 0
-1739 -1819 1554 0
-1739 -1820 1555 0
-1739 -1821 1556 0
-1739 -1822 1557 0
-1739 -1823 1558 0
-1739 -1824 1559 0
-1739 -1825 1560 0
-1739 -1826 1561 0
-1739 -1827 1562 0
-1739 -1828 1563 0
-1739 -1829 1564 0
-1739 -1830 1565 0
-1739 -1831 1566 0
-1739 -1832 1567 0
-1739 -1833 1568 0
-1739 -1834 1569 0
-1739 -1835 1570 0
-1739 -1836 1571 0
-1739 -1837 1572 0
-1739 -1838 1573 0
-1739 -1839 1574 0
-1739 -1840 1575 0
-1739 -1841 1576 0
-1739 -1842 1577 0
-1739 -1843 1578 0
-1739 -1844 1579 0
-1739 -1845 1580 0
-1739 -1846 1581 0
-1739 -1847 1582 0
-1739 -1848 1583 0
-1739 -1849 1584 0
-1739 -1850 1585 0
-1739 -1851 1586 0
-1739 -1852 1587 0
-1739 -1853 1588 0
-1739 -1854 1589 0
-1739 -1855 1590 0
-1739 -1856 1591 0
-1739 -1857 1592 0
-1739 -1858 1593 0
-1739 -1859 1594 0
-1739 -1860 1595 0
-1739 -1861 1596 0
-1739 -1862 1597 0
-1739 -1863 1598 0
-1739 -1864 1599 0
-1739 -1865 1600 0
-1739 -1866 1601 0
-1739 -1867 1602 0
-1739 -1868 1603 0
-1739 -1869 1604 0
-1739 -1870 1605 0
-1739 -1871 1606 0
-1739 -1872 1607 0
-1739 -1873 1608 0
-1739 -1874 1609 0
-1739 -1875 1610 0
-1739 -1876 1611 0
-1739 -1877 1612 0
-1739 -1878 1613 0
-1739 -1879 1614 0
-1739 -1880 1615 0
-1739 -1881 1616 0
-1739 -1882 1617 0
-1739 -1883 1618 0
-1739 -1884 1619 0
-1739 -1885 1620 0
-1739 -1886 1621 0
-1739 -1887 1622 0
-1739 -1888 1623 0
-1740 -1773 1509 0
-1740 -1774 1510 0
-1740 -1775 1511 0
-1740 -1776 1512 0
-1740 -1777 1513 0
-1740 -1778 1514 0
-1740 -1779 1515 0
-1740 -1780 1516 0
-1740 -1781 1517 0
-1740 -1782 1518 0
-1740 -1783 1519 0
-1740 -1784 1520 0
-1740 -1785 1521 0
-1740 -1786 1522 0
-1740 -1787 1523 0
-1740 -1788 1524 0
-1740 -1789 1525 0
-1740 -1790 1526 0
-1740 -1791 1527 0
-1740 -1792 1528 0
-1740 -1793 1529 0
-1740 -1794 1530 0
-1740 -1795 1531 0
-1740 -1796 1532 0
-1740 -1797 1533 0
-1740 -1798 1534 0
-1740 -1799 1535 0
-1740 -1800 1536 0
-1740 -1801 1537 0
-1740 -1802 1538 0
-1740 -1803 1539 0
-1740 -1804 1540 0
-1740 -1805 1541 0
-1740 -1806 1542 0
-1740 -1807 1543 0
-1740 -1808 1544 0
-1740 -1809 1545 0
-1740 -1810 1546 0
-1740 -1811 1547 0
-1740 -1812 1548 0
-1740 -1813 1549 0
-1740 -1814 1550 0
-1740 -1815 1551 0
-1740 -1816 1552 0
-1740 -1817 1553 0
-1740 -1818 1554 0
-1740 -1819 1555 0
-1740 -1820 1556 0
-1740 -1821 1557 0
-1740 -1822 1558 0
-1740 -1823 1559 0
-1740 -1824 1560 0
-1740 -1825 1561 0
-1740 -1826 1562 0
-1740 -1827 1563 0
-1740 -1828 1564 0
-1740 -1829 1565 0
-1740 -1830 1566 0
-1740 -1831 1567 0
-1740 -1832 1568 0
-1740 -1833 1569 0
-1740 -1834 1570 0
-1740 -1835 1571 0
-1740 -1836 1572 0
-1740 -1837 1573 0
-1740 -1838 1574 0
-1740 -1839 1575 0
-1740 -1840 1576 0
-1740 -1841 1577 0
-1740 -1842 1578 0
-1740 -1843 1579 0
-1740 -1844 1580 0
-1740 -1845 1581 0
-1740 -1846 1582 0
-1740 -1847 1583 0
-1740 -1848 1584 0
-1740 -1849 1585 0
-1740 -1850 1586 0
-1740 -1851 1587 0
-1740 -1852 1588 0
-1740 -1853 1589 0
-1740 -1854 1590 0
-1740 -1855 1591 0
-1740 -1856 1592 0
-1740 -1857 1593 0
-1740 -1858 1594 0
-1740 -1859 1595 0
-1740 -1860 1596 0
-1740 -1861 1597 0
-1740 -1862 1598 0
-1740 -1863 1599 0
-1740 -1864 1600 0
-1740 -1865 1601 0
-1740 -1866 1602 0
-1740 -1867 1603 0
-1740 -1868 1604 0
-1740 -1869 1605 0
-1740 -1870 1606 0
-1740 -1871 1607 0
-1740 -1872 1608 0
-1740 -1873 1609 0
-1740 -1874 1610 0
-1740 -1875 1611 0
-1740 -1876 1612 0
-1740 -1877 1613 0
-1740 -1878 1614 0
-1740 -1879 1615 0
-1740 -1880 1616 0
-1740 -1881 1617 0
-1740 -1882 1618 0
-1740 -1883 1619 0
-1740 -1884 1620 0
-1740 -1885 1621 0
-1740 -1886 1622 0
-1740 -1887 1623 0
-1740 -1888 1624 0
-1741 -1773 1510 0
-1741 -1774 1511 0
-1741 -1775 1512 0
-1741 -1776 1513 0
-1741 -1777 1514 0
-1741 -1778 1515 0
-1741 -1779 1516 0
-1741 -1780 1517 0
-1741 -1781 1518 0
-1741 -1782 1519 0
-1741 -1783 1520 0
-1741 -1784 1521 0
-1741 -1785 1522 0
-1741 -1786 1523 0
-1741 -1787 1524 0
-1741 -1788 1525 0
-1741 -1789 1526 0
-1741 -1790 1527 0
-1741 -1791 1528 0
-1741 -1792 1529 0
-1741 -1793 1530 0
-1741 -1794 1531 0
-1741 -1795 1532 0
-1741 -1796 1533 0
-1741 -1797 1534 0
-1741 -1798 1535 0
-1741 -1799 1536 0
-1741 -1800 1537 0
-1741 -1801 1538 0
-1741 -1802 1539 0
-1741 -1803 1540 0
-1741 -1804 1541 0
-1741 -1805 1542 0
-1741 -1806 1543 0
-1741 -1807 1544 0
-1741 -1808 1545 0
-1741 -1809 1546 0
-1741 -1810 1547 0
-1741 -1811 1548 0
-1741 -1812 1549 0
-1741 -1813 1550 0
-1741 -1814 1551 0
-1741 -1815 1552 0
-1741 -1816 1553 0
-1741 -1817 1554 0
-1741 -1818 1555 0
-1741 -1819 1556 0
-1741 -1820 1557 0
-1741 -1821 1558 0
-1741 -1822 1559 0
-1741 -1823 1560 0
-1741 -1824 1561 0
-1741 -1825 1562 0
-1741 -1826 1563 0
-1741 -1827 1564 0
-1741 -1828 1565 0
-1741 -1829 1566 0
-1741 -1830 1567 0
-1741 -1831 1568 0
-1741 -1832 1569 0
-1741 -1833 1570 0
-1741 -1834 1571 0
-1741 -1835 1572 0
-1741 -1836 1573 0
-1741 -1837 1574 0
-1741 -1838 1575 0
-1741 -1839 1576 0
-1741 -1840 1577 0
-1741 -1841 1578 0
-1741 -1842 1579 0
-1741 -1843 1580 0
-1741 -1844 1581 0
-1741 -1845 1582 0
-1741 -1846 1583 0
-1741 -1847 1584 0
-1741 -1848 1585 0
-1741 -1849 1586 0
-1741 -1850 1587 0
-1741 -1851 1588 0
-1741 -1852 1589 0
-1741 -1853 1590 0
-1741 -1854 1591 0
-1741 -1855 1592 0
-1741 -1856 1593 0
-1741 -1857 1594 0
-1741 -1858 1595 0
-1741 -1859 1596 0
-1741 -1860 1597 0
-1741 -1861 1598 0
-1741 -1862 1599 0
-1741 -1863 1600 0
-1741 -1864 1601 0
-1741 -1865 1602 0
-1741 -1866 1603 0
-1741 -1867 1604 0
-1741 -1868 1605 0
-1741 -1869 1606 0
-1741 -1870 1607 0
-1741 -1871 1608 0
-1741 -1872 1609 0
-1741 -1873 1610 0
-1741 -1874 1611 0
-1741 -1875 1612 0
-1741 -1876 1613 0
-1741 -1877 1614 0
-1741 -1878 1615 0
-1741 -1879 1616 0
-1741 -1880 1617 0
-1741 -1881 1618 0
-1741 -1882 1619 0
-1741 -1883 1620 0
-1741 -1884 1621 0
-1741 -1885 1622 0
-1741 -1886 1623 0
-1741 -1887 1624 0
-1741 -1888 1625 0
-1742 -1773 1511 0
-1742 -1774 1512 0
-1742 -1775 1513 0
-1742 -1776 1514 0
-1742 -1777 1515 0
-1742 -1778 1516 0
-1742 -1779 1517 0
-1742 -1780 1518 0
-1742 -1781 1519 0
-1742 -1782 1520 0
-1742 -1783 1521 0
-1742 -1784 1522 0
-1742 -1785 1523 0
-1742 -1786 1524 0
-1742 -1787 1525 0
-1742 -1788 1526 0
-1742 -1789 1527 0
-1742 -1790 1528 0
-1742 -1791 1529 0
-1742 -1792 1530 0
-1742 -1793 1531 0
-1742 -1794 1532 0
-1742 -1795 1533 0
-1742 -1796 1534 0
-1742 -1797 1535 0
-1742 -1798 1536 0
-1742 -1799 1537 0
-1742 -1800 1538 0
-1742 -1801 1539 0
-1742 -1802 1540 0
-1742 -1803 1541 0
-1742 -1804 1542 0
-1742 -1805 1543 0
-1742 -1806 1544 0
-1742 -1807 1545 0
-1742 -1808 1546 0
-1742 -1809 1547 0
-1742 -1810 1548 0
-1742 -1811 1549 0
-1742 -1812 1550 0
-1742 -1813 1551 0
-1742 -1814 1552 0
-1742 -1815 1553 0
-1742 -1816 1554 0
-1742 -1817 1555 0
-1742 -1818 1556 0
-1742 -1819 1557 0
-1742 -1820 1558 0
-1742 -1821 1559 0
-1742 -1822 1560 0
-1742 -1823 1561 0
-1742 -1824 1562 0
-1742 -1825 1563 0
-1742 -1826 1564 0
-1742 -1827 1565 0
-1742 -1828 1566 0
-1742 -1829 1567 0
-1742 -1830 1568 0
-1742 -1831 1569 0
-1742 -1832 1570 0
-1742 -1833 1571 0
-1742 -1834 1572 0
-1742 -1835 1573 0
-1742 -1836 1574 0
-1742 -1837 1575 0
-1742 -1838 1576 0
-1742 -1839 1577 0
-1742 -1840 1578 0
-1742 -1841 1579 0
-1742 -1842 1580 0
-1742 -1843 1581 0
-1742 -1844 1582 0
-1742 -1845 1583 0
-1742 -1846 1584 0
-1742 -1847 1585 0
-1742 -1848 1586 0
-1742 -1849 1587 0
-1742 -1850 1588 0
-1742 -1851 1589 0
-1742 -1852 1590 0
-1742 -1853 1591 0
-1742 -1854 1592 0
-1742 -1855 1593 0
-1742 -1856 1594 0
-1742 -1857 1595 0
-1742 -1858 1596 0
-1742 -1859 1597 0
-1742 -1860 1598 0
-1742 -1861 1599 0
-1742 -1862 1600 0
-1742 -1863 1601 0
-1742 -1864 1602 0
-1742 -1865 1603 0
-1742 -1866 1604 0
-1742 -1867 1605 0
-1742 -1868 1606 0
-1742 -1869 1607 0
-1742 -1870 1608 0
-1742 -1871 1609 0
-1742 -1872 1610 0
-1742 -1873 1611 0
-1742 -1874 1612 0
-1742 -1875 1613 0
-1742 -1876 1614 0
-1742 -1877 1615 0
-1742 -1878 1616 0
-1742 -1879 1617 0
-1742 -1880 1618 0
-1742 -1881 1619 0
-1742 -1882 1620 0
-1742 -1883 1621 0
-1742 -1884 1622 0
-1742 -1885 1623 0
-1742 -1886 1624 0
-1742 -1887 1625 0
-1742 -1888 1626 0
-1743 -1773 1512 0
-1743 -1774 1513 0
-1743 -1775 1514 0
-1743 -1776 1515 0
-1743 -1777 1516 0
-1743 -1778 1517 0
-1743 -1779 1518 0
-1743 -1780 1519 0
-1743 -1781 1520 0
-1743 -1782 1521 0
-1743 -1783 1522 0
-1743 -1784 1523 0
-1743 -1785 1524 0
-1743 -1786 1525 0
-1743 -1787 1526 0
-1743 -1788 1527 0
-1743 -1789 1528 0
-1743 -1790 1529 0
-1743 -1791 1530 0
-1743 -1792 1531 0
-1743 -1793 1532 0
-1743 -1794 1533 0
-1743 -1795 1534 0
-1743 -1796 1535 0
-1743 -1797 1536 0
-1743 -1798 1537 0
-1743 -1799 1538 0
-1743 -1800 1539 0
-1743 -1801 1540 0
-1743 -1802 1541 0
-1743 -1803 1542 0
-1743 -1804 1543 0
-1743 -1805 1544 0
-1743 -1806 1545 0
-1743 -1807 1546 0
-1743 -1808 1547 0
-1743 -1809 1548 0
-1743 -1810 1549 0
-1743 -1811 1550 0
-1743 -1812 1551 0
-1743 -1813 1552 0
-1743 -1814 1553 0
-1743 -1815 1554 0
-1743 -1816 1555 0
-1743 -1817 1556 0
-1743 -1818 1557 0
-1743 -1819 1558 0
-1743 -1820 1559 0
-1743 -1821 1560 0
-1743 -1822 1561 0
-1743 -1823 1562 0
-1743 -1824 1563 0
-1743 -1825 1564 0
-1743 -1826 1565 0
-1743 -1827 1566 0
-1743 -1828 1567 0
-1743 -1829 1568 0
-1743 -1830 1569 0
-1743 -1831 1570 0
-1743 -1832 1571 0
-1743 -1833 1572 0
-1743 -1834 1573 0
-1743 -1835 1574 0
-1743 -1836 1575 0
-1743 -1837 1576 0
-1743 -1838 1577 0
-1743 -1839 1578 0
-1743 -1840 1579 0
-1743 -1841 1580 0
-1743 -1842 1581 0
-1743 -1843 1582 0
-1743 -1844 1583 0
-1743 -1845 1584 0
-1743 -1846 1585 0
-1743 -1847 1586 0
-1743 -1848 1587 0
-1743 -1849 1588 0
-1743 -1850 1589 0
-1743 -1851 1590 0
-1743 -1852 1591 0
-1743 -1853 1592 0
-1743 -1854 1593 0
-1743 -1855 1594 0
-1743 -1856 1595 0
-1743 -1857 1596 0
-1743 -1858 1597 0
-1743 -1859 1598 0
-1743 -1860 1599 0
-1743 -1861 1600 0
-1743 -1862 1601 0
-1743 -1863 1602 0
-1743 -1864 1603 0
-1743 -1865 1604 0
-1743 -1866 1605 0
-1743 -1867 1606 0
-1743 -1868 1607 0
-1743 -1869 1608 0
-1743 -1870 1609 0
-1743 -1871 1610 0
-1743 -1872 1611 0
-1743 -1873 1612 0
-1743 -1874 1613 0
-1743 -1875 1614 0
-1743 -1876 1615 0
-1743 -1877 1616 0
-1743 -1878 1617 0
-1743 -1879 1618 0
-1743 -1880 1619 0
-1743 -1881 1620 0
-1743 -1882 1621 0
-1743 -1883 1622 0
-1743 -1884 1623 0
-1743 -1885 1624 0
-1743 -1886 1625 0
-1743 -1887 1626 0
-1743 -1888 1627 0
-1744 -1773 1513 0
-1744 -1774 1514 0
-1744 -1775 1515 0
-1744 -1776 1516 0
-1744 -1777 1517 0
-1744 -1778 1518 0
-1744 -1779 1519 0
-1744 -1780 1520 0
-1744 -1781 1521 0
-1744 -1782 1522 0
-1744 -1783 1523 0
-1744 -1784 1524 0
-1744 -1785 1525 0
-1744 -1786 1526 0
-1744 -1787 1527 0
-1744 -1788 1528 0
-1744 -1789 1529 0
-1744 -1790 1530 0
-1744 -1791 1531 0
-1744 -1792 1532 0
-1744 -1793 1533 0
-1744 -1794 1534 0
-1744 -1795 1535 0
-1744 -1796 1536 0
-1744 -1797 1537 0
-1744 -1798 1538 0
-1744 -1799 1539 0
-1744 -1800 1540 0
-1744 -1801 1541 0
-1744 -1802 1542 0
-1744 -1803 1543 0
-1744 -1804 1544 0
-1744 -1805 1545 0
-1744 -1806 1546 0
-1744 -1807 1547 0
-1744 -1808 1548 0
-1744 -1809 1549 0
-1744 -1810 1550 0
-1744 -1811 1551 0
-1744 -1812 1552 0
-1744 -1813 1553 0
-1744 -1814 1554 0
-1744 -1815 1555 0
-1744 -1816 1556 0
-1744 -1817 1557 0
-1744 -1818 1558 0
-1744 -1819 1559 0
-1744 -1820 1560 0
-1744 -1821 1561 0
-1744 -1822 1562 0
-1744 -1823 1563 0
-1744 -1824 1564 0
-1744 -1825 1565 0
-1744 -1826 1566 0
-1744 -1827 1567 0
-1744 -1828 1568 0
-1744 -1829 1569 0
-1744 -1830 1570 0
-1744 -1831 1571 0
-1744 -1832 1572 0
-1744 -1833 1573 0
-1744 -1834 1574 0
-1744 -1835 1575 0
-1744 -1836 1576 0
-1744 -1837 1577 0
-1744 -1838 1578 0
-1744 -1839 1579 0
-1744 -1840 1580 0
-1744 -1841 1581 0
-1744 -1842 1582 0
-1744 -1843 1583 0
-1744 -1844 1584 0
-1744 -1845 1585 0
-1744 -1846 1586 0
-1744 -1847 1587 0
-1744 -1848 1588 0
-1744 -1849 1589 0
-1744 -1850 1590 0
-1744 -1851 1591 0
-1744 -1852 1592 0
-1744 -1853 1593 0
-1744 -1854 1594 0
-1744 -1855 1595 0
-1744 -1856 1596 0
-1744 -1857 1597 0
-1744 -1858 1598 0
-1744 -1859 1599 0
-1744 -1860 1600 0
-1744 -1861 1601 0
-1744 -1862 1602 0
-1744 -1863 1603 0
-1744 -1864 1604 0
-1744 -1865 1605 0
-1744 -1866 1606 0
-1744 -1867 1607 0
-1744 -1868 1608 0
-1744 -1869 1609 0
-1744 -1870 1610 0
-1744 -1871 1611 0
-1744 -1872 1612 0
-1744 -1873 1613 0
-1744 -1874 1614 0
-1744 -1875 1615 0
-1744 -1876 1616 0
-1744 -1877 1617 0
-1744 -1878 1618 0
-1744 -1879 1619 0
-1744 -1880 1620 0
-1744 -1881 1621 0
-1744 -1882 1622 0
-1744 -1883 1623 0
-1744 -1884 1624 0
-1744 -1885 1625 0
-1744 -1886 1626 0
-1744 -1887 1627 0
-1744 -1888 1628 0
-1745 -1773 1514 0
-1745 -1774 1515 0
-1745 -1775 1516 0
-1745 -1776 1517 0
-1745 -1777 1518 0
-1745 -1778 1519 0
-1745 -1779 1520 0
-1745 -1780 1521 0
-1745 -1781 1522 0
-1745 -1782 1523 0
-1745 -1783 1524 0
-1745 -1784 1525 0
-1745 -1785 1526 0
-1745 -1786 1527 0
-1745 -1787 1528 0
-1745 -1788 1529 0
-1745 -1789 1530 0
-1745 -1790 1531 0
-1745 -1791 1532 0
-1745 -1792 1533 0
-1745 -1793 1534 0
-1745 -1794 1535 0
-1745 -1795 1536 0
-1745 -1796 1537 0
-1745 -1797 1538 0
-1745 -1798 1539 0
-1745 -1799 1540 0
-1745 -1800 1541 0
-1745 -1801 1542 0
-1745 -1802 1543 0
-1745 -1803 1544 0
-1745 -1804 1545 0
-1745 -1805 1546 0
-1745 -1806 1547 0
-1745 -1807 1548 0
-1745 -1808 1549 0
-1745 -1809 1550 0
-1745 -1810 1551 0
-1745 -1811 1552 0
-1745 -1812 1553 0
-1745 -1813 1554 0
-1745 -1814 1555 0
-1745 -1815 1556 0
-1745 -1816 1557 0
-1745 -1817 1558 0
-1745 -1818 1559 0
-1745 -1819 1560 0
-1745 -1820 1561 0
-1745 -1821 1562 0
-1745 -1822 1563 0
-1745 -1823 1564 0
-1745 -1824 1565 0
-1745 -1825 1566 0
-1745 -1826 1567 0
-1745 -1827 1568 0
-1745 -1828 1569 0
-1745 -1829 1570 0
-1745 -1830 1571 0
-1745 -1831 1572 0
-1745 -1832 1573 0
-1745 -1833 1574 0
-1745 -1834 1575 0
-1745 -1835 1576 0
-1745 -1836 1577 0
-1745 -1837 1578 0
-1745 -1838 1579 0
-1745 -1839 1580 0
-1745 -1840 1581 0
-1745 -1841 1582 0
-1745 -1842 1583 0
-1745 -1843 1584 0
-1745 -1844 1585 0
-1745 -1845 1586 0
-1745 -1846 1587 0
-1745 -1847 1588 0
-1745 -1848 1589 0
-1745 -1849 1590 0
-1745 -1850 1591 0
-1745 -1851 1592 0
-1745 -1852 1593 0
-1745 -1853 1594 0
-1745 -1854 1595 0
-1745 -1855 1596 0
-1745 -1856 1597 0
-1745 -1857 1598 0
-1745 -1858 1599 0
-1745 -1859 1600 0
-1745 -1860 1601 0
-1745 -1861 1602 0
-1745 -1862 1603 0
-1745 -1863 1604 0
-1745 -1864 1605 0
-1745 -1865 1606 0
-1745 -1866 1607 0
-1745 -1867 1608 0
-1745 -1868 1609 0
-1745 -1869 1610 0
-1745 -1870 1611 0
-1745 -1871 1612 0
-1745 -1872 1613 0
-1745 -1873 1614 0
-1745 -1874 1615 0
-1745 -1875 1616 0
-1745 -1876 1617 0
-1745 -1877 1618 0
-1745 -1878 1619 0
-1745 -1879 1620 0
-1745 -1880 1621 0
-1745 -1881 1622 0
-1745 -1882 1623 0
-1745 -1883 1624 0
-1745 -1884 1625 0
-1745 -1885 1626 0
-1745 -1886 1627 0
-1745 -1887 1628 0
-1745 -1888 1629 0
-1746 -1773 1515 0
-1746 -1774 1516 0
-1746 -1775 1517 0
-1746 -1776 1518 0
-1746 -1777 1519 0
-1746 -1778 1520 0
-1746 -1779 1521 0
-1746 -1780 1522 0
-1746 -1781 1523 0
-1746 -1782 1524 0
-1746 -1783 1525 0
-1746 -1784 1526 0
-1746 -1785 1527 0
-1746 -1786 1528 0
-1746 -1787 1529 0
-1746 -1788 1530 0
-1746 -1789 1531 0
-1746 -1790 1532 0
-1746 -1791 1533 0
-1746 -1792 1534 0
-1746 -1793 1535 0
-1746 -1794 1536 0
-1746 -1795 1537 0
-1746 -1796 1538 0
-1746 -1797 1539 0
-1746 -1798 1540 0
-1746 -1799 1541 0
-1746 -1800 1542 0
-1746 -1801 1543 0
-1746 -1802 1544 0
-1746 -1803 1545 0
-1746 -1804 1546 0
-1746 -1805 1547 0
-1746 -1806 1548 0
-1746 -1807 1549 0
-1746 -1808 1550 0
-1746 -1809 1551 0
-1746 -1810 1552 0
-1746 -1811 1553 0
-1746 -1812 1554 0
-1746 -1813 1555 0
-1746 -1814 1556 0
-1746 -1815 1557 0
-1746 -1816 1558 0
-1746 -1817 1559 0
-1746 -1818 1560 0
-1746 -1819 1561 0
-1746 -1820 1562 0
-1746 -1821 1563 0
-1746 -1822 1564 0
-1746 -1823 1565 0
-1746 -1824 1566 0
-1746 -1825 1567 0
-1746 -1826 1568 0
-1746 -1827 1569 0
-1746 -1828 1570 0
-1746 -1829 1571 0
-1746 -1830 1572 0
-1746 -1831 1573 0
-1746 -1832 1574 0
-1746 -1833 1575 0
-1746 -1834 1576 0
-1746 -1835 1577 0
-1746 -1836 1578 0
-1746 -1837 1579 0
-1746 -1838 1580 0
-1746 -1839 1581 0
-1746 -1840 1582 0
-1746 -1841 1583 0
-1746 -1842 1584 0
-1746 -1843 1585 0
-1746 -1844 1586 0
-1746 -1845 1587 0
-1746 -1846 1588 0
-1746 -1847 1589 0
-1746 -1848 1590 0
-1746 -1849 1591 0
-1746 -1850 1592 0
-1746 -1851 1593 0
-1746 -1852 1594 0
-1746 -1853 1595 0
-1746 -1854 1596 0
-1746 -1855 1597 0
-1746 -1856 1598 0
-1746 -1857 1599 0
-1746 -1858 1600 0
-1746 -1859 1601 0
-1746 -1860 1602 0
-1746 -1861 1603 0
-1746 -1862 1604 0
-1746 -1863 1605 0
-1746 -1864 1606 0
-1746 -1865 1607 0
-1746 -1866 1608 0
-1746 -1867 1609 0
-1746 -1868 1610 0
-1746 -1869 1611 0
-1746 -1870 1612 0
-1746 -1871 1613 0
-1746 -1872 1614 0
-1746 -1873 1615 0
-1746 -1874 1616 0
-1746 -1875 1617 0
-1746 -1876 1618 0
-1746 -1877 1619 0
-1746 -1878 1620 0
-1746 -1879 1621 0
-1746 -1880 1622 0
-1746 -1881 1623 0
-1746 -1882 1624 0
-1746 -1883 1625 0
-1746 -1884 1626 0
-1746 -1885 1627 0
-1746 -1886 1628 0
-1746 -1887 1629 0
-1746 -1888 1630 0
-1747 -1773 1516 0
-1747 -1774 1517 0
-1747 -1775 1518 0
-1747 -1776 1519 0
-1747 -1777 1520 0
-1747 -1778 1521 0
-1747 -1779 1522 0
-1747 -1780 1523 0
-1747 -1781 1524 0
-1747 -1782 1525 0
-1747 -1783 1526 0
-1747 -1784 1527 0
-1747 -1785 1528 0
-1747 -1786 1529 0
-1747 -1787 1530 0
-1747 -1788 1531 0
-1747 -1789 1532 0
-1747 -1790 1533 0
-1747 -1791 1534 0
-1747 -1792 1535 0
-1747 -1793 1536 0
-1747 -1794 1537 0
-1747 -1795 1538 0
-1747 -1796 1539 0
-1747 -1797 1540 0
-1747 -1798 1541 0
-1747 -1799 1542 0
-1747 -1800 1543 0
-1747 -1801 1544 0
-1747 -1802 1545 0
-1747 -1803 1546 0
-1747 -1804 1547 0
-1747 -1805 1548 0
-1747 -1806 1549 0
-1747 -1807 1550 0
-1747 -1808 1551 0
-1747 -1809 1552 0
-1747 -1810 1553 0
-1747 -1811 1554 0
-1747 -1812 1555 0
-1747 -1813 1556 0
-1747 -1814 1557 0
-1747 -1815 1558 0
-1747 -1816 1559 0
-1747 -1817 1560 0
-1747 -1818 1561 0
-1747 -1819 1562 0
-1747 -1820 1563 0
-1747 -1821 1564 0
-1747 -1822 1565 0
-1747 -1823 1566 0
-1747 -1824 1567 0
-1747 -1825 1568 0
-1747 -1826 1569 0
-1747 -1827 1570 0
-1747 -1828 1571 0
-1747 -1829 1572 0
-1747 -1830 1573 0
-1747 -1831 1574 0
-1747 -1832 1575 0
-1747 -1833 1576 0
-1747 -1834 1577 0
-1747 -1835 1578 0
-1747 -1836 1579 0
-1747 -1837 1580 0
-1747 -1838 1581 0
-1747 -1839 1582 0
-1747 -1840 1583 0
-1747 -1841 1584 0
-1747 -1842 1585 0
-1747 -1843 1586 0
-1747 -1844 1587 0
-1747 -1845 1588 0
-1747 -1846 1589 0
-1747 -1847 1590 0
-1747 -1848 1591 0
-1747 -1849 1592 0
-1747 -1850 1593 0
-1747 -1851 1594 0
-1747 -1852 1595 0
-1747 -1853 1596 0
-1747 -1854 1597 0
-1747 -1855 1598 0
-1747 -1856 1599 0
-1747 -1857 1600 0
-1747 -1858 1601 0
-1747 -1859 1602 0
-1747 -1860 1603 0
-1747 -1861 1604 0
-1747 -1862 1605 0
-1747 -1863 1606 0
-1747 -1864 1607 0
-1747 -1865 1608 0
-1747 -1866 1609 0
-1747 -1867 1610 0
-1747 -1868 1611 0
-1747 -1869 1612 0
-1747 -1870 1613 0
-1747 -1871 1614 0
-1747 -1872 1615 0
-1747 -1873 1616 0
-1747 -1874 1617 0
-1747 -1875 1618 0
-1747 -1876 1619 0
-1747 -1877 1620 0
-1747 -1878 1621 0
-1747 -1879 1622 0
-1747 -1880 1623 0
-1747 -1881 1624 0
-1747 -1882 1625 0
-1747 -1883 1626 0
-1747 -1884 1627 0
-1747 -1885 1628 0
-1747 -1886 1629 0
-1747 -1887 1630 0
-1747 -1888 1631 0
-1748 -1773 1517 0
-1748 -1774 1518 0
-1748 -1775 1519 0
-1748 -1776 1520 0
-1748 -1777 1521 0
-1748 -1778 1522 0
-1748 -1779 1523 0
-1748 -1780 1524 0
-1748 -1781 1525 0
-1748 -1782 1526 0
-1748 -1783 1527 0
-1748 -1784 1528 0
-1748 -1785 1529 0
-1748 -1786 1530 0
-1748 -1787 1531 0
-1748 -1788 1532 0
-1748 -1789 1533 0
-1748 -1790 1534 0
-1748 -1791 1535 0
-1748 -1792 1536 0
-1748 -1793 1537 0
-1748 -1794 1538 0
-1748 -1795 1539 0
-1748 -1796 1540 0
-1748 -1797 1541 0
-1748 -1798 1542 0
-1748 -1799 1543 0
-1748 -1800 1544 0
-1748 -1801 1545 0
-1748 -1802 1546 0
-1748 -1803 1547 0
-1748 -1804 1548 0
-1748 -1805 1549 0
-1748 -1806 1550 0
-1748 -1807 1551 0
-1748 -1808 1552 0
-1748 -1809 1553 0
-1748 -1810 1554 0
-1748 -1811 1555 0
-1748 -1812 1556 0
-1748 -1813 1557 0
-1748 -1814 1558 0
-1748 -1815 1559 0
-1748 -1816 1560 0
-1748 -1817 1561 0
-1748 -1818 1562 0
-1748 -1819 1563 0
-1748 -1820 1564 0
-1748 -1821 1565 0
-1748 -1822 1566 0
-1748 -1823 1567 0
-1748 -1824 1568 0
-1748 -1825 1569 0
-1748 -1826 1570 0
-1748 -1827 1571 0
-1748 -1828 1572 0
-1748 -1829 1573 0
-1748 -1830 1574 0
-1748 -1831 1575 0
-1748 -1832 1576 0
-1748 -1833 1577 0
-1748 -1834 1578 0
-1748 -1835 1579 0
-1748 -1836 1580 0
-1748 -1837 1581 0
-1748 -1838 1582 0
-1748 -1839 1583 0
-1748 -1840 1584 0
-1748 -1841 1585 0
-1748 -1842 1586 0
-1748 -1843 1587 0
-1748 -1844 1588 0
-1748 -1845 1589 0
-1748 -1846 1590 0
-1748 -1847 1591 0
-1748 -1848 1592 0
-1748 -1849 1593 0
-1748 -1850 1594 0
-1748 -1851 1595 0
-1748 -1852 1596 0
-1748 -1853 1597 0
-1748 -1854 1598 0
-1748 -1855 1599 0
-1748 -1856 1600 0
-1748 -1857 1601 0
-1748 -1858 1602 0
-1748 -1859 1603 0
-1748 -1860 1604 0
-1748 -1861 1605 0
-1748 -1862 1606 0
-1748 -1863 1607 0
-1748 -1864 1608 0
-1748 -1865 1609 0
-1748 -1866 1610 0
-1748 -1867 1611 0
-1748 -1868 1612 0
-1748 -1869 1613 0
-1748 -1870 1614 0
-1748 -1871 1615 0
-1748 -1872 1616 0
-1748 -1873 1617 0
-1748 -1874 1618 0
-1748 -1875 1619 0
-1748 -1876 1620 0
-1748 -1877 1621 0
-1748 -1878 1622 0
-1748 -1879 1623 0
-1748 -1880 1624 0
-1748 -1881 1625 0
-1748 -1882 1626 0
-1748 -1883 1627 0
-1748 -1884 1628 0
-1748 -1885 1629 0
-1748 -1886 1630 0
-1748 -1887 1631 0
-1748 -1888 1632 0
-1749 -1773 1518 0
-1749 -1774 1519 0
-1749 -1775 1520 0
-1749 -1776 1521 0
-1749 -1777 1522 0
-1749 -1778 1523 0
-1749 -1779 1524 0
-1749 -1780 1525 0
-1749 -1781 1526 0
-1749 -1782 1527 0
-1749 -1783 1528 0
-1749 -1784 1529 0
-1749 -1785 1530 0
-1749 -1786 1531 0
-1749 -1787 1532 0
-1749 -1788 1533 0
-1749 -1789 1534 0
-1749 -1790 1535 0
-1749 -1791 1536 0
-1749 -1792 1537 0
-1749 -1793 1538 0
-1749 -1794 1539 0
-1749 -1795 1540 0
-1749 -1796 1541 0
-1749 -1797 1542 0
-1749 -1798 1543 0
-1749 -1799 1544 0
-1749 -1800 1545 0
-1749 -1801 1546 0
-1749 -1802 1547 0
-1749 -1803 1548 0
-1749 -1804 1549 0
-1749 -1805 1550 0
-1749 -1806 1551 0
-1749 -1807 1552 0
-1749 -1808 1553 0
-1749 -1809 1554 0
-1749 -1810 1555 0
-1749 -1811 1556 0
-1749 -1812 1557 0
-1749 -1813 1558 0
-1749 -1814 1559 0
-1749 -1815 1560 0
-1749 -1816 1561 0
-1749 -1817 1562 0
-1749 -1818 1563 0
-1749 -1819 1564 0
-1749 -1820 1565 0
-1749 -1821 1566 0
-1749 -1822 1567 0
-1749 -1823 1568 0
-1749 -1824 1569 0
-1749 -1825 1570 0
-1749 -1826 1571 0
-1749 -1827 1572 0
-1749 -1828 1573 0
-1749 -1829 1574 0
-1749 -1830 1575 0
-1749 -1831 1576 0
-1749 -1832 1577 0
-1749 -1833 1578 0
-1749 -1834 1579 0
-1749 -1835 1580 0
-1749 -1836 1581 0
-1749 -1837 1582 0
-1749 -1838 1583 0
-1749 -1839 1584 0
-1749 -1840 1585 0
-1749 -1841 1586 0
-1749 -1842 1587 0
-1749 -1843 1588 0
-1749 -1844 1589 0
-1749 -1845 1590 0
-1749 -1846 1591 0
-1749 -1847 1592 0
-1749 -1848 1593 0
-1749 -1849 1594 0
-1749 -1850 1595 0
-1749 -1851 1596 0
-1749 -1852 1597 0
-1749 -1853 1598 0
-1749 -1854 1599 0
-1749 -1855 1600 0
-1749 -1856 1601 0
-1749 -1857 1602 0
-1749 -1858 1603 0
-1749 -1859 1604 0
-1749 -1860 1605 0
-1749 -1861 1606 0
-1749 -1862 1607 0
-1749 -1863 1608 0
-1749 -1864 1609 0
-1749 -1865 1610 0
-1749 -1866 1611 0
-1749 -1867 1612 0
-1749 -1868 1613 0
-1749 -1869 1614 0
-1749 -1870 1615 0
-1749 -1871 1616 0
-1749 -1872 1617 0
-1749 -1873 1618 0
-1749 -1874 1619 0
-1749 -1875 1620 0
-1749 -1876 1621 0
-1749 -1877 1622 0
-1749 -1878 1623 0
-1749 -1879 1624 0
-1749 -1880 1625 0
-1749 -1881 1626 0
-1749 -1882 1627 0
-1749 -1883 1628 0
-1749 -1884 1629 0
-1749 -1885 1630 0
-1749 -1886 1631 0
-1749 -1887 1632 0
-1749 -1888 1633 0
-1750 -1773 1519 0
-1750 -1774 1520 0
-1750 -1775 1521 0
-1750 -1776 1522 0
-1750 -1777 1523 0
-1750 -1778 1524 0
-1750 -1779 1525 0
-1750 -1780 1526 0
-1750 -1781 1527 0
-1750 -1782 1528 0
-1750 -1783 1529 0
-1750 -1784 1530 0
-1750 -1785 1531 0
-1750 -1786 1532 0
-1750 -1787 1533 0
-1750 -1788 1534 0
-1750 -1789 1535 0
-1750 -1790 1536 0
-1750 -1791 1537 0
-1750 -1792 1538 0
-1750 -1793 1539 0
-1750 -1794 1540 0
-1750 -1795 1541 0
-1750 -1796 1542 0
-1750 -1797 1543 0
-1750 -1798 1544 0
-1750 -1799 1545 0
-1750 -1800 1546 0
-1750 -1801 1547 0
-1750 -1802 1548 0
-1750 -1803 1549 0
-1750 -1804 1550 0
-1750 -1805 1551 0
-1750 -1806 1552 0
-1750 -1807 1553 0
-1750 -1808 1554 0
-1750 -1809 1555 0
-1750 -1810 1556 0
-1750 -1811 1557 0
-1750 -1812 1558 0
-1750 -1813 1559 0
-1750 -1814 1560 0
-1750 -1815 1561 0
-1750 -1816 1562 0
-1750 -1817 1563 0
-1750 -1818 1564 0
-1750 -1819 1565 0
-1750 -1820 1566 0
-1750 -1821 1567 0
-1750 -1822 1568 0
-1750 -1823 1569 0
-1750 -1824 1570 0
-1750 -1825 1571 0
-1750 -1826 1572 0
-1750 -1827 1573 0
-1750 -1828 1574 0
-1750 -1829 1575 0
-1750 -1830 1576 0
-1750 -1831 1577 0
-1750 -1832 1578 0
-1750 -1833 1579 0
-1750 -1834 1580 0
-1750 -1835 1581 0
-1750 -1836 1582 0
-1750 -1837 1583 0
-1750 -1838 1584 0
-1750 -1839 1585 0
-1750 -1840 1586 0
-1750 -1841 1587 0
-1750 -1842 1588 0
-1750 -1843 1589 0
-1750 -1844 1590 0
-1750 -1845 1591 0
-1750 -1846 1592 0
-1750 -1847 1593 0
-1750 -1848 1594 0
-1750 -1849 1595 0
-1750 -1850 1596 0
-1750 -1851 1597 0
-1750 -1852 1598 0
-1750 -1853 1599 0
-1750 -1854 1600 0
-1750 -1855 1601 0
-1750 -1856 1602 0
-1750 -1857 1603 0
-1750 -1858 1604 0
-1750 -1859 1605 0
-1750 -1860 1606 0
-1750 -1861 1607 0
-1750 -1862 1608 0
-1750 -1863 1609 0
-1750 -1864 1610 0
-1750 -1865 1611 0
-1750 -1866 1612 0
-1750 -1867 1613 0
-1750 -1868 1614 0
-1750 -1869 1615 0
-1750 -1870 1616 0
-1750 -1871 1617 0
-1750 -1872 1618 0
-1750 -1873 1619 0
-1750 -1874 1620 0
-1750 -1875 1621 0
-1750 -1876 1622 0
-1750 -1877 1623 0
-1750 -1878 1624 0
-1750 -1879 1625 0
-1750 -1880 1626 0
-1750 -1881 1627 0
-1750 -1882 1628 0
-1750 -1883 1629 0
-1750 -1884 1630 0
-1750 -1885 1631 0
-1750 -1886 1632 0
-1750 -1887 1633 0
-1750 -1888 1634 0
-1751 -1773 1520 0
-1751 -1774 1521 0
-1751 -1775 1522 0
-1751 -1776 1523 0
-1751 -1777 1524 0
-1751 -1778 1525 0
-1751 -1779 1526 0
-1751 -1780 1527 0
-1751 -1781 1528 0
-1751 -1782 1529 0
-1751 -1783 1530 0
-1751 -1784 1531 0
-1751 -1785 1532 0
-1751 -1786 1533 0
-1751 -1787 1534 0
-1751 -1788 1535 0
-1751 -1789 1536 0
-1751 -1790 1537 0
-1751 -1791 1538 0
-1751 -1792 1539 0
-1751 -1793 1540 0
-1751 -1794 1541 0
-1751 -1795 1542 0
-1751 -1796 1543 0
-1751 -1797 1544 0
-1751 -1798 1545 0
-1751 -1799 1546 0
-1751 -1800 1547 0
-1751 -1801 1548 0
-1751 -1802 1549 0
-1751 -1803 1550 0
-1751 -1804 1551 0
-1751 -1805 1552 0
-1751 -1806 1553 0
-1751 -1807 1554 0
-1751 -1808 1555 0
-1751 -1809 1556 0
-1751 -1810 1557 0
-1751 -1811 1558 0
-1751 -1812 1559 0
-1751 -1813 1560 0
-1751 -1814 1561 0
-1751 -1815 1562 0
-1751 -1816 1563 0
-1751 -1817 1564 0
-1751 -1818 1565 0
-1751 -1819 1566 0
-1751 -1820 1567 0
-1751 -1821 1568 0
-1751 -1822 1569 0
-1751 -1823 1570 0
-1751 -1824 1571 0
-1751 -1825 1572 0
-1751 -1826 1573 0
-1751 -1827 1574 0
-1751 -1828 1575 0
-1751 -1829 1576 0
-1751 -1830 1577 0
-1751 -1831 1578 0
-1751 -1832 1579 0
-1751 -1833 1580 0
-1751 -1834 1581 0
-1751 -1835 1582 0
-1751 -1836 1583 0
-1751 -1837 1584 0
-1751 -1838 1585 0
-1751 -1839 1586 0
-1751 -1840 1587 0
-1751 -1841 1588 0
-1751 -1842 1589 0
-1751 -1843 1590 0
-1751 -1844 1591 0
-1751 -1845 1592 0
-1751 -1846 1593 0
-1751 -1847 1594 0
-1751 -1848 1595 0
-1751 -1849 1596 0
-1751 -1850 1597 0
-1751 -1851 1598 0
-1751 -1852 1599 0
-1751 -1853 1600 0
-1751 -1854 1601 0
-1751 -1855 1602 0
-1751 -1856 1603 0
-1751 -1857 1604 0
-1751 -1858 1605 0
-1751 -1859 1606 0
-1751 -1860 1607 0
-1751 -1861 1608 0
-1751 -1862 1609 0
-1751 -1863 1610 0
-1751 -1864 1611 0
-1751 -1865 1612 0
-1751 -1866 1613 0
-1751 -1867 1614 0
-1751 -1868 1615 0
-1751 -1869 1616 0
-1751 -1870 1617 0
-1751 -1871 1618 0
-1751 -1872 1619 0
-1751 -1873 1620 0
-1751 -1874 1621 0
-1751 -1875 1622 0
-1751 -1876 1623 0
-1751 -1877 1624 0
-1751 -1878 1625 0
-1751 -1879 1626 0
-1751 -1880 1627 0
-1751 -1881 1628 0
-1751 -1882 1629 0
-1751 -1883 1630 0
-1751 -1884 1631 0
-1751 -1885 1632 0
-1751 -1886 1633 0
-1751 -1887 1634 0
-1751 -1888 1635 0
-1752 -1773 1521 0
-1752 -1774 1522 0
-1752 -1775 1523 0
-1752 -1776 1524 0
-1752 -1777 1525 0
-1752 -1778 1526 0
-1752 -1779 1527 0
-1752 -1780 1528 0
-1752 -1781 1529 0
-1752 -1782 1530 0
-1752 -1783 1531 0
-1752 -1784 1532 0
-1752 -1785 1533 0
-1752 -1786 1534 0
-1752 -1787 1535 0
-1752 -1788 1536 0
-1752 -1789 1537 0
-1752 -1790 1538 0
-1752 -1791 1539 0
-1752 -1792 1540 0
-1752 -1793 1541 0
-1752 -1794 1542 0
-1752 -1795 1543 0
-1752 -1796 1544 0
-1752 -1797 1545 0
-1752 -1798 1546 0
-1752 -1799 1547 0
-1752 -1800 1548 0
-1752 -1801 1549 0
-1752 -1802 1550 0
-1752 -1803 1551 0
-1752 -1804 1552 0
-1752 -1805 1553 0
-1752 -1806 1554 0
-1752 -1807 1555 0
-1752 -1808 1556 0
-1752 -1809 1557 0
-1752 -1810 1558 0
-1752 -1811 1559 0
-1752 -1812 1560 0
-1752 -1813 1561 0
-1752 -1814 1562 0
-1752 -1815 1563 0
-1752 -1816 1564 0
-1752 -1817 1565 0
-1752 -1818 1566 0
-1752 -1819 1567 0
-1752 -1820 1568 0
-1752 -1821 1569 0
-1752 -1822 1570 0
-1752 -1823 1571 0
-1752 -1824 1572 0
-1752 -1825 1573 0
-1752 -1826 1574 0
-1752 -1827 1575 0
-1752 -1828 1576 0
-1752 -1829 1577 0
-1752 -1830 1578 0
-1752 -1831 1579 0
-1752 -1832 1580 0
-1752 -1833 1581 0
-1752 -1834 1582 0
-1752 -1835 1583 0
-1752 -1836 1584 0
-1752 -1837 1585 0
-1752 -1838 1586 0
-1752 -1839 1587 0
-1752 -1840 1588 0
-1752 -1841 1589 0
-1752 -1842 1590 0
-1752 -1843 1591 0
-1752 -1844 1592 0
-1752 -1845 1593 0
-1752 -1846 1594 0
-1752 -1847 1595 0
-1752 -1848 1596 0
-1752 -1849 1597 0
-1752 -1850 1598 0
-1752 -1851 1599 0
-1752 -1852 1600 0
-1752 -1853 1601 0
-1752 -1854 1602 0
-1752 -1855 1603 0
-1752 -1856 1604 0
-1752 -1857 1605 0
-1752 -1858 1606 0
-1752 -1859 1607 0
-1752 -1860 1608 0
-1752 -1861 1609 0
-1752 -1862 1610 0
-1752 -1863 1611 0
-1752 -1864 1612 0
-1752 -1865 1613 0
-1752 -1866 1614 0
-1752 -1867 1615 0
-1752 -1868 1616 0
-1752 -1869 1617 0
-1752 -1870 1618 0
-1752 -1871 1619 0
-1752 -1872 1620 0
-1752 -1873 1621 0
-1752 -1874 1622 0
-1752 -1875 1623 0
-1752 -1876 1624 0
-1752 -1877 1625 0
-1752 -1878 1626 0
-1752 -1879 1627 0
-1752 -1880 1628 0
-1752 -1881 1629 0
-1752 -1882 1630 0
-1752 -1883 1631 0
-1752 -1884 1632 0
-1752 -1885 1633 0
-1752 -1886 1634 0
-1752 -1887 1635 0
-1752 -1888 1636 0
-1753 -1773 1522 0
-1753 -1774 1523 0
-1753 -1775 1524 0
-1753 -1776 1525 0
-1753 -1777 1526 0
-1753 -1778 1527 0
-1753 -1779 1528 0
-1753 -1780 1529 0
-1753 -1781 1530 0
-1753 -1782 1531 0
-1753 -1783 1532 0
-1753 -1784 1533 0
-1753 -1785 1534 0
-1753 -1786 1535 0
-1753 -1787 1536 0
-1753 -1788 1537 0
-1753 -1789 1538 0
-1753 -1790 1539 0
-1753 -1791 1540 0
-1753 -1792 1541 0
-1753 -1793 1542 0
-1753 -1794 1543 0
-1753 -1795 1544 0
-1753 -1796 1545 0
-1753 -1797 1546 0
-1753 -1798 1547 0
-1753 -1799 1548 0
-1753 -1800 1549 0
-1753 -1801 1550 0
-1753 -1802 1551 0
-1753 -1803 1552 0
-1753 -1804 1553 0
-1753 -1805 1554 0
-1753 -1806 1555 0
-1753 -1807 1556 0
-1753 -1808 1557 0
-1753 -1809 1558 0
-1753 -1810 1559 0
-1753 -1811 1560 0
-1753 -1812 1561 0
-1753 -1813 1562 0
-1753 -1814 1563 0
-1753 -1815 1564 0
-1753 -1816 1565 0
-1753 -1817 1566 0
-1753 -1818 1567 0
-1753 -1819 1568 0
-1753 -1820 1569 0
-1753 -1821 1570 0
-1753 -1822 1571 0
-1753 -1823 1572 0
-1753 -1824 1573 0
-1753 -1825 1574 0
-1753 -1826 1575 0
-1753 -1827 1576 0
-1753 -1828 1577 0
-1753 -1829 1578 0
-1753 -1830 1579 0
-1753 -1831 1580 0
-1753 -1832 1581 0
-1753 -1833 1582 0
-1753 -1834 1583 0
-1753 -1835 1584 0
-1753 -1836 1585 0
-1753 -1837 1586 0
-1753 -1838 1587 0
-1753 -1839 1588 0
-1753 -1840 1589 0
-1753 -1841 1590 0
-1753 -1842 1591 0
-1753 -1843 1592 0
-1753 -1844 1593 0
-1753 -1845 1594 0
-1753 -1846 1595 0
-1753 -1847 1596 0
-1753 -1848 1597 0
-1753 -1849 1598 0
-1753 -1850 1599 0
-1753 -1851 1600 0
-1753 -1852 1601 0
-1753 -1853 1602 0
-1753 -1854 1603 0
-1753 -1855 1604 0
-1753 -1856 1605 0
-1753 -1857 1606 0
-1753 -1858 1607 0
-1753 -1859 1608 0
-1753 -1860 1609 0
-1753 -1861 1610 0
-1753 -1862 1611 0
-1753 -1863 1612 0
-1753 -1864 1613 0
-1753 -1865 1614 0
-1753 -1866 1615 0
-1753 -1867 1616 0
-1753 -1868 1617 0
-1753 -1869 1618 0
-1753 -1870 1619 0
-1753 -1871 1620 0
-1753 -1872 1621 0
-1753 -1873 1622 0
-1753 -1874 1623 0
-1753 -1875 1624 0
-1753 -1876 1625 0
-1753 -1877 1626 0
-1753 -1878 1627 0
-1753 -1879 1628 0
-1753 -1880 1629 0
-1753 -1881 1630 0
-1753 -1882 1631 0
-1753 -1883 1632 0
-1753 -1884 1633 0
-1753 -1885 1634 0
-1753 -1886 1635 0
-1753 -1887 1636 0
-1753 -1888 1637 0
-1754 -1773 1523 0
-1754 -1774 1524 0
-1754 -1775 1525 0
-1754 -1776 1526 0
-1754 -1777 1527 0
-1754 -1778 1528 0
-1754 -1779 1529 0
-1754 -1780 1530 0
-1754 -1781 1531 0
-1754 -1782 1532 0
-1754 -1783 1533 0
-1754 -1784 1534 0
-1754 -1785 1535 0
-1754 -1786 1536 0
-1754 -1787 1537 0
-1754 -1788 1538 0
-1754 -1789 1539 0
-1754 -1790 1540 0
-1754 -1791 1541 0
-1754 -1792 1542 0
-1754 -1793 1543 0
-1754 -1794 1544 0
-1754 -1795 1545 0
-1754 -1796 1546 0
-1754 -1797 1547 0
-1754 -1798 1548 0
-1754 -1799 1549 0
-1754 -1800 1550 0
-1754 -1801 1551 0
-1754 -1802 1552 0
-1754 -1803 1553 0
-1754 -1804 1554 0
-1754 -1805 1555 0
-1754 -1806 1556 0
-1754 -1807 1557 0
-1754 -1808 1558 0
-1754 -1809 1559 0
-1754 -1810 1560 0
-1754 -1811 1561 0
-1754 -1812 1562 0
-1754 -1813 1563 0
-1754 -1814 1564 0
-1754 -1815 1565 0
-1754 -1816 1566 0
-1754 -1817 1567 0
-1754 -1818 1568 0
-1754 -1819 1569 0
-1754 -1820 1570 0
-1754 -1821 1571 0
-1754 -1822 1572 0
-1754 -1823 1573 0
-1754 -1824 1574 0
-1754 -1825 1575 0
-1754 -1826 1576 0
-1754 -1827 1577 0
-1754 -1828 1578 0
-1754 -1829 1579 0
-1754 -1830 1580 0
-1754 -1831 1581 0
-1754 -1832 1582 0
-1754 -1833 1583 0
-1754 -1834 1584 0
-1754 -1835 1585 0
-1754 -1836 1586 0
-1754 -1837 1587 0
-1754 -1838 1588 0
-1754 -1839 1589 0
-1754 -1840 1590 0
-1754 -1841 1591 0
-1754 -1842 1592 0
-1754 -1843 1593 0
-1754 -1844 1594 0
-1754 -1845 1595 0
-1754 -1846 1596 0
-1754 -1847 1597 0
-1754 -1848 1598 0
-1754 -1849 1599 0
-1754 -1850 1600 0
-1754 -1851 1601 0
-1754 -1852 1602 0
-1754 -1853 1603 0
-1754 -1854 1604 0
-1754 -1855 1605 0
-1754 -1856 1606 0
-1754 -1857 1607 0
-1754 -1858 1608 0
-1754 -1859 1609 0
-1754 -1860 1610 0
-1754 -1861 1611 0
-1754 -1862 1612 0
-1754 -1863 1613 0
-1754 -1864 1614 0
-1754 -1865 1615 0
-1754 -1866 1616 0
-1754 -1867 1617 0
-1754 -1868 1618 0
-1754 -1869 1619 0
-1754 -1870 1620 0
-1754 -1871 1621 0
-1754 -1872 1622 0
-1754 -1873 1623 0
-1754 -1874 1624 0
-1754 -1875 1625 0
-1754 -1876 1626 0
-1754 -1877 1627 0
-1754 -1878 1628 0
-1754 -1879 1629 0
-1754 -1880 1630 0
-1754 -1881 1631 0
-1754 -1882 1632 0
-1754 -1883 1633 0
-1754 -1884 1634 0
-1754 -1885 1635 0
-1754 -1886 1636 0
-1754 -1887 1637 0
-1754 -1888 1638 0
-1755 -1773 1524 0
-1755 -1774 1525 0
-1755 -1775 1526 0
-1755 -1776 1527 0
-1755 -1777 1528 0
-1755 -1778 1529 0
-1755 -1779 1530 0
-1755 -1780 1531 0
-1755 -1781 1532 0
-1755 -1782 1533 0
-1755 -1783 1534 0
-1755 -1784 1535 0
-1755 -1785 1536 0
-1755 -1786 1537 0
-1755 -1787 1538 0
-1755 -1788 1539 0
-1755 -1789 1540 0
-1755 -1790 1541 0
-1755 -1791 1542 0
-1755 -1792 1543 0
-1755 -1793 1544 0
-1755 -1794 1545 0
-1755 -1795 1546 0
-1755 -1796 1547 0
-1755 -1797 1548 0
-1755 -1798 1549 0
-1755 -1799 1550 0
-1755 -1800 1551 0
-1755 -1801 1552 0
-1755 -1802 1553 0
-1755 -1803 1554 0
-1755 -1804 1555 0
-1755 -1805 1556 0
-1755 -1806 1557 0
-1755 -1807 1558 0
-1755 -1808 1559 0
-1755 -1809 1560 0
-1755 -1810 1561 0
-1755 -1811 1562 0
-1755 -1812 1563 0
-1755 -1813 1564 0
-1755 -1814 1565 0
-1755 -1815 1566 0
-1755 -1816 1567 0
-1755 -1817 1568 0
-1755 -1818 1569 0
-1755 -1819 1570 0
-1755 -1820 1571 0
-1755 -1821 1572 0
-1755 -1822 1573 0
-1755 -1823 1574 0
-1755 -1824 1575 0
-1755 -1825 1576 0
-1755 -1826 1577 0
-1755 -1827 1578 0
-1755 -1828 1579 0
-1755 -1829 1580 0
-1755 -1830 1581 0
-1755 -1831 1582 0
-1755 -1832 1583 0
-1755 -1833 1584 0
-1755 -1834 1585 0
-1755 -1835 1586 0
-1755 -1836 1587 0
-1755 -1837 1588 0
-1755 -1838 1589 0
-1755 -1839 1590 0
-1755 -1840 1591 0
-1755 -1841 1592 0
-1755 -1842 1593 0
-1755 -1843 1594 0
-1755 -1844 1595 0
-1755 -1845 1596 0
-1755 -1846 1597 0
-1755 -1847 1598 0
-1755 -1848 1599 0
-1755 -1849 1600 0
-1755 -1850 1601 0
-1755 -1851 1602 0
-1755 -1852 1603 0
-1755 -1853 1604 0
-1755 -1854 1605 0
-1755 -1855 1606 0
-1755 -1856 1607 0
-1755 -1857 1608 0
-1755 -1858 1609 0
-1755 -1859 1610 0
-1755 -1860 1611 0
-1755 -1861 1612 0
-1755 -1862 1613 0
-1755 -1863 1614 0
-1755 -1864 1615 0
-1755 -1865 1616 0
-1755 -1866 1617 0
-1755 -1867 1618 0
-1755 -1868 1619 0
-1755 -1869 1620 0
-1755 -1870 1621 0
-1755 -1871 1622 0
-1755 -1872 1623 0
-1755 -1873 1624 0
-1755 -1874 1625 0
-1755 -1875 1626 0
-1755 -1876 1627 0
-1755 -1877 1628 0
-1755 -1878 1629 0
-1755 -1879 1630 0
-1755 -1880 1631 0
-1755 -1881 1632 0
-1755 -1882 1633 0
-1755 -1883 1634 0
-1755 -1884 1635 0
-1755 -1885 1636 0
-1755 -1886 1637 0
-1755 -1887 1638 0
-1755 -1888 1639 0
-1756 -1773 1525 0
-1756 -1774 1526 0
-1756 -1775 1527 0
-1756 -1776 1528 0
-1756 -1777 1529 0
-1756 -1778 1530 0
-1756 -1779 1531 0
-1756 -1780 1532 0
-1756 -1781 1533 0
-1756 -1782 1534 0
-1756 -1783 1535 0
-1756 -1784 1536 0
-1756 -1785 1537 0
-1756 -1786 1538 0
-1756 -1787 1539 0
-1756 -1788 1540 0
-1756 -1789 1541 0
-1756 -1790 1542 0
-1756 -1791 1543 0
-1756 -1792 1544 0
-1756 -1793 1545 0
-1756 -1794 1546 0
-1756 -1795 1547 0
-1756 -1796 1548 0
-1756 -1797 1549 0
-1756 -1798 1550 0
-1756 -1799 1551 0
-1756 -1800 1552 0
-1756 -1801 1553 0
-1756 -1802 1554 0
-1756 -1803 1555 0
-1756 -1804 1556 0
-1756 -1805 1557 0
-1756 -1806 1558 0
-1756 -1807 1559 0
-1756 -1808 1560 0
-1756 -1809 1561 0
-1756 -1810 1562 0
-1756 -1811 1563 0
-1756 -1812 1564 0
-1756 -1813 1565 0
-1756 -1814 1566 0
-1756 -1815 1567 0
-1756 -1816 1568 0
-1756 -1817 1569 0
-1756 -1818 1570 0
-1756 -1819 1571 0
-1756 -1820 1572 0
-1756 -1821 1573 0
-1756 -1822 1574 0
-1756 -1823 1575 0
-1756 -1824 1576 0
-1756 -1825 1577 0
-1756 -1826 1578 0
-1756 -1827 1579 0
-1756 -1828 1580 0
-1756 -1829 1581 0
-1756 -1830 1582 0
-1756 -1831 1583 0
-1756 -1832 1584 0
-1756 -1833 1585 0
-1756 -1834 1586 0
-1756 -1835 1587 0
-1756 -1836 1588 0
-1756 -1837 1589 0
-1756 -1838 1590 0
-1756 -1839 1591 0
-1756 -1840 1592 0
-1756 -1841 1593 0
-1756 -1842 1594 0
-1756 -1843 1595 0
-1756 -1844 1596 0
-1756 -1845 1597 0
-1756 -1846 1598 0
-1756 -1847 1599 0
-1756 -1848 1600 0
-1756 -1849 1601 0
-1756 -1850 1602 0
-1756 -1851 1603 0
-1756 -1852 1604 0
-1756 -1853 1605 0
-1756 -1854 1606 0
-1756 -1855 1607 0
-1756 -1856 1608 0
-1756 -1857 1609 0
-1756 -1858 1610 0
-1756 -1859 1611 0
-1756 -1860 1612 0
-1756 -1861 1613 0
-1756 -1862 1614 0
-1756 -1863 1615 0
-1756 -1864 1616 0
-1756 -1865 1617 0
-1756 -1866 1618 0
-1756 -1867 1619 0
-1756 -1868 1620 0
-1756 -1869 1621 0
-1756 -1870 1622 0
-1756 -1871 1623 0
-1756 -1872 1624 0
-1756 -1873 1625 0
-1756 -1874 1626 0
-1756 -1875 1627 0
-1756 -1876 1628 0
-1756 -1877 1629 0
-1756 -1878 1630 0
-1756 -1879 1631 0
-1756 -1880 1632 0
-1756 -1881 1633 0
-1756 -1882 1634 0
-1756 -1883 1635 0
-1756 -1884 1636 0
-1756 -1885 1637 0
-1756 -1886 1638 0
-1756 -1887 1639 0
-1756 -1888 1640 0
-1757 -1773 1526 0
-1757 -1774 1527 0
-1757 -1775 1528 0
-1757 -1776 1529 0
-1757 -1777 1530 0
-1757 -1778 1531 0
-1757 -1779 1532 0
-1757 -1780 1533 0
-1757 -1781 1534 0
-1757 -1782 1535 0
-1757 -1783 1536 0
-1757 -1784 1537 0
-1757 -1785 1538 0
-1757 -1786 1539 0
-1757 -1787 1540 0
-1757 -1788 1541 0
-1757 -1789 1542 0
-1757 -1790 1543 0
-1757 -1791 1544 0
-1757 -1792 1545 0
-1757 -1793 1546 0
-1757 -1794 1547 0
-1757 -1795 1548 0
-1757 -1796 1549 0
-1757 -1797 1550 0
-1757 -1798 1551 0
-1757 -1799 1552 0
-1757 -1800 1553 0
-1757 -1801 1554 0
-1757 -1802 1555 0
-1757 -1803 1556 0
-1757 -1804 1557 0
-1757 -1805 1558 0
-1757 -1806 1559 0
-1757 -1807 1560 0
-1757 -1808 1561 0
-1757 -1809 1562 0
-1757 -1810 1563 0
-1757 -1811 1564 0
-1757 -1812 1565 0
-1757 -1813 1566 0
-1757 -1814 1567 0
-1757 -1815 1568 0
-1757 -1816 1569 0
-1757 -1817 1570 0
-1757 -1818 1571 0
-1757 -1819 1572 0
-1757 -1820 1573 0
-1757 -1821 1574 0
-1757 -1822 1575 0
-1757 -1823 1576 0
-1757 -1824 1577 0
-1757 -1825 1578 0
-1757 -1826 1579 0
-1757 -1827 1580 0
-1757 -1828 1581 0
-1757 -1829 1582 0
-1757 -1830 1583 0
-1757 -1831 1584 0
-1757 -1832 1585 0
-1757 -1833 1586 0
-1757 -1834 1587 0
-1757 -1835 1588 0
-1757 -1836 1589 0
-1757 -1837 1590 0
-1757 -1838 1591 0
-1757 -1839 1592 0
-1757 -1840 1593 0
-1757 -1841 1594 0
-1757 -1842 1595 0
-1757 -1843 1596 0
-1757 -1844 1597 0
-1757 -1845 1598 0
-1757 -1846 1599 0
-1757 -1847 1600 0
-1757 -1848 1601 0
-1757 -1849 1602 0
-1757 -1850 1603 0
-1757 -1851 1604 0
-1757 -1852 1605 0
-1757 -1853 1606 0
-1757 -1854 1607 0
-1757 -1855 1608 0
-1757 -1856 1609 0
-1757 -1857 1610 0
-1757 -1858 1611 0
-1757 -1859 1612 0
-1757 -1860 1613 0
-1757 -1861 1614 0
-1757 -1862 1615 0
-1757 -1863 1616 0
-1757 -1864 1617 0
-1757 -1865 1618 0
-1757 -1866 1619 0
-1757 -1867 1620 0
-1757 -1868 1621 0
-1757 -1869 1622 0
-1757 -1870 1623 0
-1757 -1871 1624 0
-1757 -1872 1625 0
-1757 -1873 1626 0
-1757 -1874 1627 0
-1757 -1875 1628 0
-1757 -1876 1629 0
-1757 -1877 1630 0
-1757 -1878 1631 0
-1757 -1879 1632 0
-1757 -1880 1633 0
-1757 -1881 1634 0
-1757 -1882 1635 0
-1757 -1883 1636 0
-1757 -1884 1637 0
-1757 -1885 1638 0
-1757 -1886 1639 0
-1757 -1887 1640 0
-1757 -1888 1641 0
-1758 -1773 1527 0
-1758 -1774 1528 0
-1758 -1775 1529 0
-1758 -1776 1530 0
-1758 -1777 1531 0
-1758 -1778 1532 0
-1758 -1779 1533 0
-1758 -1780 1534 0
-1758 -1781 1535 0
-1758 -1782 1536 0
-1758 -1783 1537 0
-1758 -1784 1538 0
-1758 -1785 1539 0
-1758 -1786 1540 0
-1758 -1787 1541 0
-1758 -1788 1542 0
-1758 -1789 1543 0
-1758 -1790 1544 0
-1758 -1791 1545 0
-1758 -1792 1546 0
-1758 -1793 1547 0
-1758 -1794 1548 0
-1758 -1795 1549 0
-1758 -1796 1550 0
-1758 -1797 1551 0
-1758 -1798 1552 0
-1758 -1799 1553 0
-1758 -1800 1554 0
-1758 -1801 1555 0
-1758 -1802 1556 0
-1758 -1803 1557 0
-1758 -1804 1558 0
-1758 -1805 1559 0
-1758 -1806 1560 0
-1758 -1807 1561 0
-1758 -1808 1562 0
-1758 -1809 1563 0
-1758 -1810 1564 0
-1758 -1811 1565 0
-1758 -1812 1566 0
-1758 -1813 1567 0
-1758 -1814 1568 0
-1758 -1815 1569 0
-1758 -1816 1570 0
-1758 -1817 1571 0
-1758 -1818 1572 0
-1758 -1819 1573 0
-1758 -1820 1574 0
-1758 -1821 1575 0
-1758 -1822 1576 0
-1758 -1823 1577 0
-1758 -1824 1578 0
-1758 -1825 1579 0
-1758 -1826 1580 0
-1758 -1827 1581 0
-1758 -1828 1582 0
-1758 -1829 1583 0
-1758 -1830 1584 0
-1758 -1831 1585 0
-1758 -1832 1586 0
-1758 -1833 1587 0
-1758 -1834 1588 0
-1758 -1835 1589 0
-1758 -1836 1590 0
-1758 -1837 1591 0
-1758 -1838 1592 0
-1758 -1839 1593 0
-1758 -1840 1594 0
-1758 -1841 1595 0
-1758 -1842 1596 0
-1758 -1843 1597 0
-1758 -1844 1598 0
-1758 -1845 1599 0
-1758 -1846 1600 0
-1758 -1847 1601 0
-1758 -1848 1602 0
-1758 -1849 1603 0
-1758 -1850 1604 0
-1758 -1851 1605 0
-1758 -1852 1606 0
-1758 -1853 1607 0
-1758 -1854 1608 0
-1758 -1855 1609 0
-1758 -1856 1610 0
-1758 -1857 1611 0
-1758 -1858 1612 0
-1758 -1859 1613 0
-1758 -1860 1614 0
-1758 -1861 1615 0
-1758 -1862 1616 0
-1758 -1863 1617 0
-1758 -1864 1618 0
-1758 -1865 1619 0
-1758 -1866 1620 0
-1758 -1867 1621 0
-1758 -1868 1622 0
-1758 -1869 1623 0
-1758 -1870 1624 0
-1758 -1871 1625 0
-1758 -1872 1626 0
-1758 -1873 1627 0
-1758 -1874 1628 0
-1758 -1875 1629 0
-1758 -1876 1630 0
-1758 -1877 1631 0
-1758 -1878 1632 0
-1758 -1879 1633 0
-1758 -1880 1634 0
-1758 -1881 1635 0
-1758 -1882 1636 0
-1758 -1883 1637 0
-1758 -1884 1638 0
-1758 -1885 1639 0
-1758 -1886 1640 0
-1758 -1887 1641 0
-1758 -1888 1642 0
-1759 -1773 1528 0
-1759 -1774 1529 0
-1759 -1775 1530 0
-1759 -1776 1531 0
-1759 -1777 1532 0
-1759 -1778 1533 0
-1759 -1779 1534 0
-1759 -1780 1535 0
-1759 -1781 1536 0
-1759 -1782 1537 0
-1759 -1783 1538 0
-1759 -1784 1539 0
-1759 -1785 1540 0
-1759 -1786 1541 0
-1759 -1787 1542 0
-1759 -1788 1543 0
-1759 -1789 1544 0
-1759 -1790 1545 0
-1759 -1791 1546 0
-1759 -1792 1547 0
-1759 -1793 1548 0
-1759 -1794 1549 0
-1759 -1795 1550 0
-1759 -1796 1551 0
-1759 -1797 1552 0
-1759 -1798 1553 0
-1759 -1799 1554 0
-1759 -1800 1555 0
-1759 -1801 1556 0
-1759 -1802 1557 0
-1759 -1803 1558 0
-1759 -1804 1559 0
-1759 -1805 1560 0
-1759 -1806 1561 0
-1759 -1807 1562 0
-1759 -1808 1563 0
-1759 -1809 1564 0
-1759 -1810 1565 0
-1759 -1811 1566 0
-1759 -1812 1567 0
-1759 -1813 1568 0
-1759 -1814 1569 0
-1759 -1815 1570 0
-1759 -1816 1571 0
-1759 -1817 1572 0
-1759 -1818 1573 0
-1759 -1819 1574 0
-1759 -1820 1575 0
-1759 -1821 1576 0
-1759 -1822 1577 0
-1759 -1823 1578 0
-1759 -1824 1579 0
-1759 -1825 1580 0
-1759 -1826 1581 0
-1759 -1827 1582 0
-1759 -1828 1583 0
-1759 -1829 1584 0
-1759 -1830 1585 0
-1759 -1831 1586 0
-1759 -1832 1587 0
-1759 -1833 1588 0
-1759 -1834 1589 0
-1759 -1835 1590 0
-1759 -1836 1591 0
-1759 -1837 1592 0
-1759 -1838 1593 0
-1759 -1839 1594 0
-1759 -1840 1595 0
-1759 -1841 1596 0
-1759 -1842 1597 0
-1759 -1843 1598 0
-1759 -1844 1599 0
-1759 -1845 1600 0
-1759 -1846 1601 0
-1759 -1847 1602 0
-1759 -1848 1603 0
-1759 -1849 1604 0
-1759 -1850 1605 0
-1759 -1851 1606 0
-1759 -1852 1607 0
-1759 -1853 1608 0
-1759 -1854 1609 0
-1759 -1855 1610 0
-1759 -1856 1611 0
-1759 -1857 1612 0
-1759 -1858 1613 0
-1759 -1859 1614 0
-1759 -1860 1615 0
-1759 -1861 1616 0
-1759 -1862 1617 0
-1759 -1863 1618 0
-1759 -1864 1619 0
-1759 -1865 1620 0
-1759 -1866 1621 0
-1759 -1867 1622 0
-1759 -1868 1623 0
-1759 -1869 1624 0
-1759 -1870 1625 0
-1759 -1871 1626 0
-1759 -1872 1627 0
-1759 -1873 1628 0
-1759 -1874 1629 0
-1759 -1875 1630 0
-1759 -1876 1631 0
-1759 -1877 1632 0
-1759 -1878 1633 0
-1759 -1879 1634 0
-1759 -1880 1635 0
-1759 -1881 1636 0
-1759 -1882 1637 0
-1759 -1883 1638 0
-1759 -1884 1639 0
-1759 -1885 1640 0
-1759 -1886 1641 0
-1759 -1887 1642 0
-1759 -1888 1643 0
-1760 -1773 1529 0
-1760 -1774 1530 0
-1760 -1775 1531 0
-1760 -1776 1532 0
-1760 -1777 1533 0
-1760 -1778 1534 0
-1760 -1779 1535 0
-1760 -1780 1536 0
-1760 -1781 1537 0
-1760 -1782 1538 0
-1760 -1783 1539 0
-1760 -1784 1540 0
-1760 -1785 1541 0
-1760 -1786 1542 0
-1760 -1787 1543 0
-1760 -1788 1544 0
-1760 -1789 1545 0
-1760 -1790 1546 0
-1760 -1791 1547 0
-1760 -1792 1548 0
-1760 -1793 1549 0
-1760 -1794 1550 0
-1760 -1795 1551 0
-1760 -1796 1552 0
-1760 -1797 1553 0
-1760 -1798 1554 0
-1760 -1799 1555 0
-1760 -1800 1556 0
-1760 -1801 1557 0
-1760 -1802 1558 0
-1760 -1803 1559 0
-1760 -1804 1560 0
-1760 -1805 1561 0
-1760 -1806 1562 0
-1760 -1807 1563 0
-1760 -1808 1564 0
-1760 -1809 1565 0
-1760 -1810 1566 0
-1760 -1811 1567 0
-1760 -1812 1568 0
-1760 -1813 1569 0
-1760 -1814 1570 0
-1760 -1815 1571 0
-1760 -1816 1572 0
-1760 -1817 1573 0
-1760 -1818 1574 0
-1760 -1819 1575 0
-1760 -1820 1576 0
-1760 -1821 1577 0
-1760 -1822 1578 0
-1760 -1823 1579 0
-1760 -1824 1580 0
-1760 -1825 1581 0
-1760 -1826 1582 0
-1760 -1827 1583 0
-1760 -1828 1584 0
-1760 -1829 1585 0
-1760 -1830 1586 0
-1760 -1831 1587 0
-1760 -1832 1588 0
-1760 -1833 1589 0
-1760 -1834 1590 0
-1760 -1835 1591 0
-1760 -1836 1592 0
-1760 -1837 1593 0
-1760 -1838 1594 0
-1760 -1839 1595 0
-1760 -1840 1596 0
-1760 -1841 1597 0
-1760 -1842 1598 0
-1760 -1843 1599 0
-1760 -1844 1600 0
-1760 -1845 1601 0
-1760 -1846 1602 0
-1760 -1847 1603 0
-1760 -1848 1604 0
-1760 -1849 1605 0
-1760 -1850 1606 0
-1760 -1851 1607 0
-1760 -1852 1608 0
-1760 -1853 1609 0
-1760 -1854 1610 0
-1760 -1855 1611 0
-1760 -1856 1612 0
-1760 -1857 1613 0
-1760 -1858 1614 0
-1760 -1859 1615 0
-1760 -1860 1616 0
-1760 -1861 1617 0
-1760 -1862 1618 0
-1760 -1863 1619 0
-1760 -1864 1620 0
-1760 -1865 1621 0
-1760 -1866 1622 0
-1760 -1867 1623 0
-1760 -1868 1624 0
-1760 -1869 1625 0
-1760 -1870 1626 0
-1760 -1871 1627 0
-1760 -1872 1628 0
-1760 -1873 1629 0
-1760 -1874 1630 0
-1760 -1875 1631 0
-1760 -1876 1632 0
-1760 -1877 1633 0
-1760 -1878 1634 0
-1760 -1879 1635 0
-1760 -1880 1636 0
-1760 -1881 1637 0
-1760 -1882 1638 0
-1760 -1883 1639 0
-1760 -1884 1640 0
-1760 -1885 1641 0
-1760 -1886 1642 0
-1760 -1887 1643 0
-1760 -1888 1644 0
-1761 -1773 1530 0
-1761 -1774 1531 0
-1761 -1775 1532 0
-1761 -1776 1533 0
-1761 -1777 1534 0
-1761 -1778 1535 0
-1761 -1779 1536 0
-1761 -1780 1537 0
-1761 -1781 1538 0
-1761 -1782 1539 0
-1761 -1783 1540 0
-1761 -1784 1541 0
-1761 -1785 1542 0
-1761 -1786 1543 0
-1761 -1787 1544 0
-1761 -1788 1545 0
-1761 -1789 1546 0
-1761 -1790 1547 0
-1761 -1791 1548 0
-1761 -1792 1549 0
-1761 -1793 1550 0
-1761 -1794 1551 0
-1761 -1795 1552 0
-1761 -1796 1553 0
-1761 -1797 1554 0
-1761 -1798 1555 0
-1761 -1799 1556 0
-1761 -1800 1557 0
-1761 -1801 1558 0
-1761 -1802 1559 0
-1761 -1803 1560 0
-1761 -1804 1561 0
-1761 -1805 1562 0
-1761 -1806 1563 0
-1761 -1807 1564 0
-1761 -1808 1565 0
-1761 -1809 1566 0
-1761 -1810 1567 0
-1761 -1811 1568 0
-1761 -1812 1569 0
-1761 -1813 1570 0
-1761 -1814 1571 0
-1761 -1815 1572 0
-1761 -1816 1573 0
-1761 -1817 1574 0
-1761 -1818 1575 0
-1761 -1819 1576 0
-1761 -1820 1577 0
-1761 -1821 1578 0
-1761 -1822 1579 0
-1761 -1823 1580 0
-1761 -1824 1581 0
-1761 -1825 1582 0
-1761 -1826 1583 0
-1761 -1827 1584 0
-1761 -1828 1585 0
-1761 -1829 1586 0
-1761 -1830 1587 0
-1761 -1831 1588 0
-1761 -1832 1589 0
-1761 -1833 1590 0
-1761 -1834 1591 0
-1761 -1835 1592 0
-1761 -1836 1593 0
-1761 -1837 1594 0
-1761 -1838 1595 0
-1761 -1839 1596 0
-1761 -1840 1597 0
-1761 -1841 1598 0
-1761 -1842 1599 0
-1761 -1843 1600 0
-1761 -1844 1601 0
-1761 -1845 1602 0
-1761 -1846 1603 0
-1761 -1847 1604 0
-1761 -1848 1605 0
-1761 -1849 1606 0
-1761 -1850 1607 0
-1761 -1851 1608 0
-1761 -1852 1609 0
-1761 -1853 1610 0
-1761 -1854 1611 0
-1761 -1855 1612 0
-1761 -1856 1613 0
-1761 -1857 1614 0
-1761 -1858 1615 0
-1761 -1859 1616 0
-1761 -1860 1617 0
-1761 -1861 1618 0
-1761 -1862 1619 0
-1761 -1863 1620 0
-1761 -1864 1621 0
-1761 -1865 1622 0
-1761 -1866 1623 0
-1761 -1867 1624 0
-1761 -1868 1625 0
-1761 -1869 1626 0
-1761 -1870 1627 0
-1761 -1871 1628 0
-1761 -1872 1629 0
-1761 -1873 1630 0
-1761 -1874 1631 0
-1761 -1875 1632 0
-1761 -1876 1633 0
-1761 -1877 1634 0
-1761 -1878 1635 0
-1761 -1879 1636 0
-1761 -1880 1637 0
-1761 -1881 1638 0
-1761 -1882 1639 0
-1761 -1883 1640 0
-1761 -1884 1641 0
-1761 -1885 1642 0
-1761 -1886 1643 0
-1761 -1887 1644 0
-1761 -1888 1645 0
-1762 -1773 1531 0
-1762 -1774 1532 0
-1762 -1775 1533 0
-1762 -1776 1534 0
-1762 -1777 1535 0
-1762 -1778 1536 0
-1762 -1779 1537 0
-1762 -1780 1538 0
-1762 -1781 1539 0
-1762 -1782 1540 0
-1762 -1783 1541 0
-1762 -1784 1542 0
-1762 -1785 1543 0
-1762 -1786 1544 0
-1762 -1787 1545 0
-1762 -1788 1546 0
-1762 -1789 1547 0
-1762 -1790 1548 0
-1762 -1791 1549 0
-1762 -1792 1550 0
-1762 -1793 1551 0
-1762 -1794 1552 0
-1762 -1795 1553 0
-1762 -1796 1554 0
-1762 -1797 1555 0
-1762 -1798 1556 0
-1762 -1799 1557 0
-1762 -1800 1558 0
-1762 -1801 1559 0
-1762 -1802 1560 0
-1762 -1803 1561 0
-1762 -1804 1562 0
-1762 -1805 1563 0
-1762 -1806 1564 0
-1762 -1807 1565 0
-1762 -1808 1566 0
-1762 -1809 1567 0
-1762 -1810 1568 0
-1762 -1811 1569 0
-1762 -1812 1570 0
-1762 -1813 1571 0
-1762 -1814 1572 0
-1762 -1815 1573 0
-1762 -1816 1574 0
-1762 -1817 1575 0
-1762 -1818 1576 0
-1762 -1819 1577 0
-1762 -1820 1578 0
-1762 -1821 1579 0
-1762 -1822 1580 0
-1762 -1823 1581 0
-1762 -1824 1582 0
-1762 -1825 1583 0
-1762 -1826 1584 0
-1762 -1827 1585 0
-1762 -1828 1586 0
-1762 -1829 1587 0
-1762 -1830 1588 0
-1762 -1831 1589 0
-1762 -1832 1590 0
-1762 -1833 1591 0
-1762 -1834 1592 0
-1762 -1835 1593 0
-1762 -1836 1594 0
-1762 -1837 1595 0
-1762 -1838 1596 0
-1762 -1839 1597 0
-1762 -1840 1598 0
-1762 -1841 1599 0
-1762 -1842 1600 0
-1762 -1843 1601 0
-1762 -1844 1602 0
-1762 -1845 1603 0
-1762 -1846 1604 0
-1762 -1847 1605 0
-1762 -1848 1606 0
-1762 -1849 1607 0
-1762 -1850 1608 0
-1762 -1851 1609 0
-1762 -1852 1610 0
-1762 -1853 1611 0
-1762 -1854 1612 0
-1762 -1855 1613 0
-1762 -1856 1614 0
-1762 -1857 1615 0
-1762 -1858 1616 0
-1762 -1859 1617 0
-1762 -1860 1618 0
-1762 -1861 1619 0
-1762 -1862 1620 0
-1762 -1863 1621 0
-1762 -1864 1622 0
-1762 -1865 1623 0
-1762 -1866 1624 0
-1762 -1867 1625 0
-1762 -1868 1626 0
-1762 -1869 1627 0
-1762 -1870 1628 0
-1762 -1871 1629 0
-1762 -1872 1630 0
-1762 -1873 1631 0
-1762 -1874 1632 0
-1762 -1875 1633 0
-1762 -1876 1634 0
-1762 -1877 1635 0
-1762 -1878 1636 0
-1762 -1879 1637 0
-1762 -1880 1638 0
-1762 -1881 1639 0
-1762 -1882 1640 0
-1762 -1883 1641 0
-1762 -1884 1642 0
-1762 -1885 1643 0
-1762 -1886 1644 0
-1762 -1887 1645 0
-1762 -1888 1646 0
-1763 -1773 1532 0
-1763 -1774 1533 0
-1763 -1775 1534 0
-1763 -1776 1535 0
-1763 -1777 1536 0
-1763 -1778 1537 0
-1763 -1779 1538 0
-1763 -1780 1539 0
-1763 -1781 1540 0
-1763 -1782 1541 0
-1763 -1783 1542 0
-1763 -1784 1543 0
-1763 -1785 1544 0
-1763 -1786 1545 0
-1763 -1787 1546 0
-1763 -1788 1547 0
-1763 -1789 1548 0
-1763 -1790 1549 0
-1763 -1791 1550 0
-1763 -1792 1551 0
-1763 -1793 1552 0
-1763 -1794 1553 0
-1763 -1795 1554 0
-1763 -1796 1555 0
-1763 -1797 1556 0
-1763 -1798 1557 0
-1763 -1799 1558 0
-1763 -1800 1559 0
-1763 -1801 1560 0
-1763 -1802 1561 0
-1763 -1803 1562 0
-1763 -1804 1563 0
-1763 -1805 1564 0
-1763 -1806 1565 0
-1763 -1807 1566 0
-1763 -1808 1567 0
-1763 -1809 1568 0
-1763 -1810 1569 0
-1763 -1811 1570 0
-1763 -1812 1571 0
-1763 -1813 1572 0
-1763 -1814 1573 0
-1763 -1815 1574 0
-1763 -1816 1575 0
-1763 -1817 1576 0
-1763 -1818 1577 0
-1763 -1819 1578 0
-1763 -1820 1579 0
-1763 -1821 1580 0
-1763 -1822 1581 0
-1763 -1823 1582 0
-1763 -1824 1583 0
-1763 -1825 1584 0
-1763 -1826 1585 0
-1763 -1827 1586 0
-1763 -1828 1587 0
-1763 -1829 1588 0
-1763 -1830 1589 0
-1763 -1831 1590 0
-1763 -1832 1591 0
-1763 -1833 1592 0
-1763 -1834 1593 0
-1763 -1835 1594 0
-1763 -1836 1595 0
-1763 -1837 1596 0
-1763 -1838 1597 0
-1763 -1839 1598 0
-1763 -1840 1599 0
-1763 -1841 1600 0
-1763 -1842 1601 0
-1763 -1843 1602 0
-1763 -1844 1603 0
-1763 -1845 1604 0
-1763 -1846 1605 0
-1763 -1847 1606 0
-1763 -1848 1607 0
-1763 -1849 1608 0
-1763 -1850 1609 0
-1763 -1851 1610 0
-1763 -1852 1611 0
-1763 -1853 1612 0
-1763 -1854 1613 0
-1763 -1855 1614 0
-1763 -1856 1615 0
-1763 -1857 1616 0
-1763 -1858 1617 0
-1763 -1859 1618 0
-1763 -1860 1619 0
-1763 -1861 1620 0
-1763 -1862 1621 0
-1763 -1863 1622 0
-1763 -1864 1623 0
-1763 -1865 1624 0
-1763 -1866 1625 0
-1763 -1867 1626 0
-1763 -1868 1627 0
-1763 -1869 1628 0
-1763 -1870 1629 0
-1763 -1871 1630 0
-1763 -1872 1631 0
-1763 -1873 1632 0
-1763 -1874 1633 0
-1763 -1875 1634 0
-1763 -1876 1635 0
-1763 -1877 1636 0
-1763 -1878 1637 0
-1763 -1879 1638 0
-1763 -1880 1639 0
-1763 -1881 1640 0
-1763 -1882 1641 0
-1763 -1883 1642 0
-1763 -1884 1643 0
-1763 -1885 1644 0
-1763 -1886 1645 0
-1763 -1887 1646 0
-1763 -1888 1647 0
-1764 -1773 1533 0
-1764 -1774 1534 0
-1764 -1775 1535 0
-1764 -1776 1536 0
-1764 -1777 1537 0
-1764 -1778 1538 0
-1764 -1779 1539 0
-1764 -1780 1540 0
-1764 -1781 1541 0
-1764 -1782 1542 0
-1764 -1783 1543 0
-1764 -1784 1544 0
-1764 -1785 1545 0
-1764 -1786 1546 0
-1764 -1787 1547 0
-1764 -1788 1548 0
-1764 -1789 1549 0
-1764 -1790 1550 0
-1764 -1791 1551 0
-1764 -1792 1552 0
-1764 -1793 1553 0
-1764 -1794 1554 0
-1764 -1795 1555 0
-1764 -1796 1556 0
-1764 -1797 1557 0
-1764 -1798 1558 0
-1764 -1799 1559 0
-1764 -1800 1560 0
-1764 -1801 1561 0
-1764 -1802 1562 0
-1764 -1803 1563 0
-1764 -1804 1564 0
-1764 -1805 1565 0
-1764 -1806 1566 0
-1764 -1807 1567 0
-1764 -1808 1568 0
-1764 -1809 1569 0
-1764 -1810 1570 0
-1764 -1811 1571 0
-1764 -1812 1572 0
-1764 -1813 1573 0
-1764 -1814 1574 0
-1764 -1815 1575 0
-1764 -1816 1576 0
-1764 -1817 1577 0
-1764 -1818 1578 0
-1764 -1819 1579 0
-1764 -1820 1580 0
-1764 -1821 1581 0
-1764 -1822 1582 0
-1764 -1823 1583 0
-1764 -1824 1584 0
-1764 -1825 1585 0
-1764 -1826 1586 0
-1764 -1827 1587 0
-1764 -1828 1588 0
-1764 -1829 1589 0
-1764 -1830 1590 0
-1764 -1831 1591 0
-1764 -1832 1592 0
-1764 -1833 1593 0
-1764 -1834 1594 0
-1764 -1835 1595 0
-1764 -1836 1596 0
-1764 -1837 1597 0
-1764 -1838 1598 0
-1764 -1839 1599 0
-1764 -1840 1600 0
-1764 -1841 1601 0
-1764 -1842 1602 0
-1764 -1843 1603 0
-1764 -1844 1604 0
-1764 -1845 1605 0
-1764 -1846 1606 0
-1764 -1847 1607 0
-1764 -1848 1608 0
-1764 -1849 1609 0
-1764 -1850 1610 0
-1764 -1851 1611 0
-1764 -1852 1612 0
-1764 -1853 1613 0
-1764 -1854 1614 0
-1764 -1855 1615 0
-1764 -1856 1616 0
-1764 -1857 1617 0
-1764 -1858 1618 0
-1764 -1859 1619 0
-1764 -1860 1620 0
-1764 -1861 1621 0
-1764 -1862 1622 0
-1764 -1863 1623 0
-1764 -1864 1624 0
-1764 -1865 1625 0
-1764 -1866 1626 0
-1764 -1867 1627 0
-1764 -1868 1628 0
-1764 -1869 1629 0
-1764 -1870 1630 0
-1764 -1871 1631 0
-1764 -1872 1632 0
-1764 -1873 1633 0
-1764 -1874 1634 0
-1764 -1875 1635 0
-1764 -1876 1636 0
-1764 -1877 1637 0
-1764 -1878 1638 0
-1764 -1879 1639 0
-1764 -1880 1640 0
-1764 -1881 1641 0
-1764 -1882 1642 0
-1764 -1883 1643 0
-1764 -1884 1644 0
-1764 -1885 1645 0
-1764 -1886 1646 0
-1764 -1887 1647 0
-1764 -1888 1648 0
-1765 -1773 1534 0
-1765 -1774 1535 0
-1765 -1775 1536 0
-1765 -1776 1537 0
-1765 -1777 1538 0
-1765 -1778 1539 0
-1765 -1779 1540 0
-1765 -1780 1541 0
-1765 -1781 1542 0
-1765 -1782 1543 0
-1765 -1783 1544 0
-1765 -1784 1545 0
-1765 -1785 1546 0
-1765 -1786 1547 0
-1765 -1787 1548 0
-1765 -1788 1549 0
-1765 -1789 1550 0
-1765 -1790 1551 0
-1765 -1791 1552 0
-1765 -1792 1553 0
-1765 -1793 1554 0
-1765 -1794 1555 0
-1765 -1795 1556 0
-1765 -1796 1557 0
-1765 -1797 1558 0
-1765 -1798 1559 0
-1765 -1799 1560 0
-1765 -1800 1561 0
-1765 -1801 1562 0
-1765 -1802 1563 0
-1765 -1803 1564 0
-1765 -1804 1565 0
-1765 -1805 1566 0
-1765 -1806 1567 0
-1765 -1807 1568 0
-1765 -1808 1569 0
-1765 -1809 1570 0
-1765 -1810 1571 0
-1765 -1811 1572 0
-1765 -1812 1573 0
-1765 -1813 1574 0
-1765 -1814 1575 0
-1765 -1815 1576 0
-1765 -1816 1577 0
-1765 -1817 1578 0
-1765 -1818 1579 0
-1765 -1819 1580 0
-1765 -1820 1581 0
-1765 -1821 1582 0
-1765 -1822 1583 0
-1765 -1823 1584 0
-1765 -1824 1585 0
-1765 -1825 1586 0
-1765 -1826 1587 0
-1765 -1827 1588 0
-1765 -1828 1589 0
-1765 -1829 1590 0
-1765 -1830 1591 0
-1765 -1831 1592 0
-1765 -1832 1593 0
-1765 -1833 1594 0
-1765 -1834 1595 0
-1765 -1835 1596 0
-1765 -1836 1597 0
-1765 -1837 1598 0
-1765 -1838 1599 0
-1765 -1839 1600 0
-1765 -1840 1601 0
-1765 -1841 1602 0
-1765 -1842 1603 0
-1765 -1843 1604 0
-1765 -1844 1605 0
-1765 -1845 1606 0
-1765 -1846 1607 0
-1765 -1847 1608 0
-1765 -1848 1609 0
-1765 -1849 1610 0
-1765 -1850 1611 0
-1765 -1851 1612 0
-1765 -1852 1613 0
-1765 -1853 1614 0
-1765 -1854 1615 0
-1765 -1855 1616 0
-1765 -1856 1617 0
-1765 -1857 1618 0
-1765 -1858 1619 0
-1765 -1859 1620 0
-1765 -1860 1621 0
-1765 -1861 1622 0
-1765 -1862 1623 0
-1765 -1863 1624 0
-1765 -1864 1625 0
-1765 -1865 1626 0
-1765 -1866 1627 0
-1765 -1867 1628 0
-1765 -1868 1629 0
-1765 -1869 1630 0
-1765 -1870 1631 0
-1765 -1871 1632 0
-1765 -1872 1633 0
-1765 -1873 1634 0
-1765 -1874 1635 0
-1765 -1875 1636 0
-1765 -1876 1637 0
-1765 -1877 1638 0
-1765 -1878 1639 0
-1765 -1879 1640 0
-1765 -1880 1641 0
-1765 -1881 1642 0
-1765 -1882 1643 0
-1765 -1883 1644 0
-1765 -1884 1645 0
-1765 -1885 1646 0
-1765 -1886 1647 0
-1765 -1887 1648 0
-1765 -1888 1649 0
-1766 -1773 1535 0
-1766 -1774 1536 0
-1766 -1775 1537 0
-1766 -1776 1538 0
-1766 -1777 1539 0
-1766 -1778 1540 0
-1766 -1779 1541 0
-1766 -1780 1542 0
-1766 -1781 1543 0
-1766 -1782 1544 0
-1766 -1783 1545 0
-1766 -1784 1546 0
-1766 -1785 1547 0
-1766 -1786 1548 0
-1766 -1787 1549 0
-1766 -1788 1550 0
-1766 -1789 1551 0
-1766 -1790 1552 0
-1766 -1791 1553 0
-1766 -1792 1554 0
-1766 -1793 1555 0
-1766 -1794 1556 0
-1766 -1795 1557 0
-1766 -1796 1558 0
-1766 -1797 1559 0
-1766 -1798 1560 0
-1766 -1799 1561 0
-1766 -1800 1562 0
-1766 -1801 1563 0
-1766 -1802 1564 0
-1766 -1803 1565 0
-1766 -1804 1566 0
-1766 -1805 1567 0
-1766 -1806 1568 0
-1766 -1807 1569 0
-1766 -1808 1570 0
-1766 -1809 1571 0
-1766 -1810 1572 0
-1766 -1811 1573 0
-1766 -1812 1574 0
-1766 -1813 1575 0
-1766 -1814 1576 0
-1766 -1815 1577 0
-1766 -1816 1578 0
-1766 -1817 1579 0
-1766 -1818 1580 0
-1766 -1819 1581 0
-1766 -1820 1582 0
-1766 -1821 1583 0
-1766 -1822 1584 0
-1766 -1823 1585 0
-1766 -1824 1586 0
-1766 -1825 1587 0
-1766 -1826 1588 0
-1766 -1827 1589 0
-1766 -1828 1590 0
-1766 -1829 1591 0
-1766 -1830 1592 0
-1766 -1831 1593 0
-1766 -1832 1594 0
-1766 -1833 1595 0
-1766 -1834 1596 0
-1766 -1835 1597 0
-1766 -1836 1598 0
-1766 -1837 1599 0
-1766 -1838 1600 0
-1766 -1839 1601 0
-1766 -1840 1602 0
-1766 -1841 1603 0
-1766 -1842 1604 0
-1766 -1843 1605 0
-1766 -1844 1606 0
-1766 -1845 1607 0
-1766 -1846 1608 0
-1766 -1847 1609 0
-1766 -1848 1610 0
-1766 -1849 1611 0
-1766 -1850 1612 0
-1766 -1851 1613 0
-1766 -1852 1614 0
-1766 -1853 1615 0
-1766 -1854 1616 0
-1766 -1855 1617 0
-1766 -1856 1618 0
-1766 -1857 1619 0
-1766 -1858 1620 0
-1766 -1859 1621 0
-1766 -1860 1622 0
-1766 -1861 1623 0
-1766 -1862 1624 0
-1766 -1863 1625 0
-1766 -1864 1626 0
-1766 -1865 1627 0
-1766 -1866 1628 0
-1766 -1867 1629 0
-1766 -1868 1630 0
-1766 -1869 1631 0
-1766 -1870 1632 0
-1766 -1871 1633 0
-1766 -1872 1634 0
-1766 -1873 1635 0
-1766 -1874 1636 0
-1766 -1875 1637 0
-1766 -1876 1638 0
-1766 -1877 1639 0
-1766 -1878 1640 0
-1766 -1879 1641 0
-1766 -1880 1642 0
-1766 -1881 1643 0
-1766 -1882 1644 0
-1766 -1883 1645 0
-1766 -1884 1646 0
-1766 -1885 1647 0
-1766 -1886 1648 0
-1766 -1887 1649 0
-1766 -1888 1650 0
-1767 -1773 1536 0
-1767 -1774 1537 0
-1767 -1775 1538 0
-1767 -1776 1539 0
-1767 -1777 1540 0
-1767 -1778 1541 0
-1767 -1779 1542 0
-1767 -1780 1543 0
-1767 -1781 1544 0
-1767 -1782 1545 0
-1767 -1783 1546 0
-1767 -1784 1547 0
-1767 -1785 1548 0
-1767 -1786 1549 0
-1767 -1787 1550 0
-1767 -1788 1551 0
-1767 -1789 1552 0
-1767 -1790 1553 0
-1767 -1791 1554 0
-1767 -1792 1555 0
-1767 -1793 1556 0
-1767 -1794 1557 0
-1767 -1795 1558 0
-1767 -1796 1559 0
-1767 -1797 1560 0
-1767 -1798 1561 0
-1767 -1799 1562 0
-1767 -1800 1563 0
-1767 -1801 1564 0
-1767 -1802 1565 0
-1767 -1803 1566 0
-1767 -1804 1567 0
-1767 -1805 1568 0
-1767 -1806 1569 0
-1767 -1807 1570 0
-1767 -1808 1571 0
-1767 -1809 1572 0
-1767 -1810 1573 0
-1767 -1811 1574 0
-1767 -1812 1575 0
-1767 -1813 1576 0
-1767 -1814 1577 0
-1767 -1815 1578 0
-1767 -1816 1579 0
-1767 -1817 1580 0
-1767 -1818 1581 0
-1767 -1819 1582 0
-1767 -1820 1583 0
-1767 -1821 1584 0
-1767 -1822 1585 0
-1767 -1823 1586 0
-1767 -1824 1587 0
-1767 -1825 1588 0
-1767 -1826 1589 0
-1767 -1827 1590 0
-1767 -1828 1591 0
-1767 -1829 1592 0
-1767 -1830 1593 0
-1767 -1831 1594 0
-1767 -1832 1595 0
-1767 -1833 1596 0
-1767 -1834 1597 0
-1767 -1835 1598 0
-1767 -1836 1599 0
-1767 -1837 1600 0
-1767 -1838 1601 0
-1767 -1839 1602 0
-1767 -1840 1603 0
-1767 -1841 1604 0
-1767 -1842 1605 0
-1767 -1843 1606 0
-1767 -1844 1607 0
-1767 -1845 1608 0
-1767 -1846 1609 0
-1767 -1847 1610 0
-1767 -1848 1611 0
-1767 -1849 1612 0
-1767 -1850 1613 0
-1767 -1851 1614 0
-1767 -1852 1615 0
-1767 -1853 1616 0
-1767 -1854 1617 0
-1767 -1855 1618 0
-1767 -1856 1619 0
-1767 -1857 1620 0
-1767 -1858 1621 0
-1767 -1859 1622 0
-1767 -1860 1623 0
-1767 -1861 1624 0
-1767 -1862 1625 0
-1767 -1863 1626 0
-1767 -1864 1627 0
-1767 -1865 1628 0
-1767 -1866 1629 0
-1767 -1867 1630 0
-1767 -1868 1631 0
-1767 -1869 1632 0
-1767 -1870 1633 0
-1767 -1871 1634 0
-1767 -1872 1635 0
-1767 -1873 1636 0
-1767 -1874 1637 0
-1767 -1875 1638 0
-1767 -1876 1639 0
-1767 -1877 1640 0
-1767 -1878 1641 0
-1767 -1879 1642 0
-1767 -1880 1643 0
-1767 -1881 1644 0
-1767 -1882 1645 0
-1767 -1883 1646 0
-1767 -1884 1647 0
-1767 -1885 1648 0
-1767 -1886 1649 0
-1767 -1887 1650 0
-1767 -1888 1651 0
-1768 -1773 1537 0
-1768 -1774 1538 0
-1768 -1775 1539 0
-1768 -1776 1540 0
-1768 -1777 1541 0
-1768 -1778 1542 0
-1768 -1779 1543 0
-1768 -1780 1544 0
-1768 -1781 1545 0
-1768 -1782 1546 0
-1768 -1783 1547 0
-1768 -1784 1548 0
-1768 -1785 1549 0
-1768 -1786 1550 0
-1768 -1787 1551 0
-1768 -1788 1552 0
-1768 -1789 1553 0
-1768 -1790 1554 0
-1768 -1791 1555 0
-1768 -1792 1556 0
-1768 -1793 1557 0
-1768 -1794 1558 0
-1768 -1795 1559 0
-1768 -1796 1560 0
-1768 -1797 1561 0
-1768 -1798 1562 0
-1768 -1799 1563 0
-1768 -1800 1564 0
-1768 -1801 1565 0
-1768 -1802 1566 0
-1768 -1803 1567 0
-1768 -1804 1568 0
-1768 -1805 1569 0
-1768 -1806 1570 0
-1768 -1807 1571 0
-1768 -1808 1572 0
-1768 -1809 1573 0
-1768 -1810 1574 0
-1768 -1811 1575 0
-1768 -1812 1576 0
-1768 -1813 1577 0
-1768 -1814 1578 0
-1768 -1815 1579 0
-1768 -1816 1580 0
-1768 -1817 1581 0
-1768 -1818 1582 0
-1768 -1819 1583 0
-1768 -1820 1584 0
-1768 -1821 1585 0
-1768 -1822 1586 0
-1768 -1823 1587 0
-1768 -1824 1588 0
-1768 -1825 1589 0
-1768 -1826 1590 0
-1768 -1827 1591 0
-1768 -1828 1592 0
-1768 -1829 1593 0
-1768 -1830 1594 0
-1768 -1831 1595 0
-1768 -1832 1596 0
-1768 -1833 1597 0
-1768 -1834 1598 0
-1768 -1835 1599 0
-1768 -1836 1600 0
-1768 -1837 1601 0
-1768 -1838 1602 0
-1768 -1839 1603 0
-1768 -1840 1604 0
-1768 -1841 1605 0
-1768 -1842 1606 0
-1768 -1843 1607 0
-1768 -1844 1608 0
-1768 -1845 1609 0
-1768 -1846 1610 0
-1768 -1847 1611 0
-1768 -1848 1612 0
-1768 -1849 1613 0
-1768 -1850 1614 0
-1768 -1851 1615 0
-1768 -1852 1616 0
-1768 -1853 1617 0
-1768 -1854 1618 0
-1768 -1855 1619 0
-1768 -1856 1620 0
-1768 -1857 1621 0
-1768 -1858 1622 0
-1768 -1859 1623 0
-1768 -1860 1624 0
-1768 -1861 1625 0
-1768 -1862 1626 0
-1768 -1863 1627 0
-1768 -1864 1628 0
-1768 -1865 1629 0
-1768 -1866 1630 0
-1768 -1867 1631 0
-1768 -1868 1632 0
-1768 -1869 1633 0
-1768 -1870 1634 0
-1768 -1871 1635 0
-1768 -1872 1636 0
-1768 -1873 1637 0
-1768 -1874 1638 0
-1768 -1875 1639 0
-1768 -1876 1640 0
-1768 -1877 1641 0
-1768 -1878 1642 0
-1768 -1879 1643 0
-1768 -1880 1644 0
-1768 -1881 1645 0
-1768 -1882 1646 0
-1768 -1883 1647 0
-1768 -1884 1648 0
-1768 -1885 1649 0
-1768 -1886 1650 0
-1768 -1887 1651 0
-1768 -1888 1652 0
-1769 -1773 1538 0
-1769 -1774 1539 0
-1769 -1775 1540 0
-1769 -1776 1541 0
-1769 -1777 1542 0
-1769 -1778 1543 0
-1769 -1779 1544 0
-1769 -1780 1545 0
-1769 -1781 1546 0
-1769 -1782 1547 0
-1769 -1783 1548 0
-1769 -1784 1549 0
-1769 -1785 1550 0
-1769 -1786 1551 0
-1769 -1787 1552 0
-1769 -1788 1553 0
-1769 -1789 1554 0
-1769 -1790 1555 0
-1769 -1791 1556 0
-1769 -1792 1557 0
-1769 -1793 1558 0
-1769 -1794 1559 0
-1769 -1795 1560 0
-1769 -1796 1561 0
-1769 -1797 1562 0
-1769 -1798 1563 0
-1769 -1799 1564 0
-1769 -1800 1565 0
-1769 -1801 1566 0
-1769 -1802 1567 0
-1769 -1803 1568 0
-1769 -1804 1569 0
-1769 -1805 1570 0
-1769 -1806 1571 0
-1769 -1807 1572 0
-1769 -1808 1573 0
-1769 -1809 1574 0
-1769 -1810 1575 0
-1769 -1811 1576 0
-1769 -1812 1577 0
-1769 -1813 1578 0
-1769 -1814 1579 0
-1769 -1815 1580 0
-1769 -1816 1581 0
-1769 -1817 1582 0
-1769 -1818 1583 0
-1769 -1819 1584 0
-1769 -1820 1585 0
-1769 -1821 1586 0
-1769 -1822 1587 0
-1769 -1823 1588 0
-1769 -1824 1589 0
-1769 -1825 1590 0
-1769 -1826 1591 0
-1769 -1827 1592 0
-1769 -1828 1593 0
-1769 -1829 1594 0
-1769 -1830 1595 0
-1769 -1831 1596 0
-1769 -1832 1597 0
-1769 -1833 1598 0
-1769 -1834 1599 0
-1769 -1835 1600 0
-1769 -1836 1601 0
-1769 -1837 1602 0
-1769 -1838 1603 0
-1769 -1839 1604 0
-1769 -1840 1605 0
-1769 -1841 1606 0
-1769 -1842 1607 0
-1769 -1843 1608 0
-1769 -1844 1609 0
-1769 -1845 1610 0
-1769 -1846 1611 0
-1769 -1847 1612 0
-1769 -1848 1613 0
-1769 -1849 1614 0
-1769 -1850 1615 0
-1769 -1851 1616 0
-1769 -1852 1617 0
-1769 -1853 1618 0
-1769 -1854 1619 0
-1769 -1855 1620 0
-1769 -1856 1621 0
-1769 -1857 1622 0
-1769 -1858 1623 0
-1769 -1859 1624 0
-1769 -1860 1625 0
-1769 -1861 1626 0
-1769 -1862 1627 0
-1769 -1863 1628 0
-1769 -1864 1629 0
-1769 -1865 1630 0
-1769 -1866 1631 0
-1769 -1867 1632 0
-1769 -1868 1633 0
-1769 -1869 1634 0
-1769 -1870 1635 0
-1769 -1871 1636 0
-1769 -1872 1637 0
-1769 -1873 1638 0
-1769 -1874 1639 0
-1769 -1875 1640 0
-1769 -1876 1641 0
-1769 -1877 1642 0
-1769 -1878 1643 0
-1769 -1879 1644 0
-1769 -1880 1645 0
-1769 -1881 1646 0
-1769 -1882 1647 0
-1769 -1883 1648 0
-1769 -1884 1649 0
-1769 -1885 1650 0
-1769 -1886 1651 0
-1769 -1887 1652 0
-1769 -1888 1653 0
-1770 -1773 1539 0
-1770 -1774 1540 0
-1770 -1775 1541 0
-1770 -1776 1542 0
-1770 -1777 1543 0
-1770 -1778 1544 0
-1770 -1779 1545 0
-1770 -1780 1546 0
-1770 -1781 1547 0
-1770 -1782 1548 0
-1770 -1783 1549 0
-1770 -1784 1550 0
-1770 -1785 1551 0
-1770 -1786 1552 0
-1770 -1787 1553 0
-1770 -1788 1554 0
-1770 -1789 1555 0
-1770 -1790 1556 0
-1770 -1791 1557 0
-1770 -1792 1558 0
-1770 -1793 1559 0
-1770 -1794 1560 0
-1770 -1795 1561 0
-1770 -1796 1562 0
-1770 -1797 1563 0
-1770 -1798 1564 0
-1770 -1799 1565 0
-1770 -1800 1566 0
-1770 -1801 1567 0
-1770 -1802 1568 0
-1770 -1803 1569 0
-1770 -1804 1570 0
-1770 -1805 1571 0
-1770 -1806 1572 0
-1770 -1807 1573 0
-1770 -1808 1574 0
-1770 -1809 1575 0
-1770 -1810 1576 0
-1770 -1811 1577 0
-1770 -1812 1578 0
-1770 -1813 1579 0
-1770 -1814 1580 0
-1770 -1815 1581 0
-1770 -1816 1582 0
-1770 -1817 1583 0
-1770 -1818 1584 0
-1770 -1819 1585 0
-1770 -1820 1586 0
-1770 -1821 1587 0
-1770 -1822 1588 0
-1770 -1823 1589 0
-1770 -1824 1590 0
-1770 -1825 1591 0
-1770 -1826 1592 0
-1770 -1827 1593 0
-1770 -1828 1594 0
-1770 -1829 1595 0
-1770 -1830 1596 0
-1770 -1831 1597 0
-1770 -1832 1598 0
-1770 -1833 1599 0
-1770 -1834 1600 0
-1770 -1835 1601 0
-1770 -1836 1602 0
-1770 -1837 1603 0
-1770 -1838 1604 0
-1770 -1839 1605 0
-1770 -1840 1606 0
-1770 -1841 1607 0
-1770 -1842 1608 0
-1770 -1843 1609 0
-1770 -1844 1610 0
-1770 -1845 1611 0
-1770 -1846 1612 0
-1770 -1847 1613 0
-1770 -1848 1614 0
-1770 -1849 1615 0
-1770 -1850 1616 0
-1770 -1851 1617 0
-1770 -1852 1618 0
-1770 -1853 1619 0
-1770 -1854 1620 0
-1770 -1855 1621 0
-1770 -1856 1622 0
-1770 -1857 1623 0
-1770 -1858 1624 0
-1770 -1859 1625 0
-1770 -1860 1626 0
-1770 -1861 1627 0
-1770 -1862 1628 0
-1770 -1863 1629 0
-1770 -1864 1630 0
-1770 -1865 1631 0
-1770 -1866 1632 0
-1770 -1867 1633 0
-1770 -1868 1634 0
-1770 -1869 1635 0
-1770 -1870 1636 0
-1770 -1871 1637 0
-1770 -1872 1638 0
-1770 -1873 1639 0
-1770 -1874 1640 0
-1770 -1875 1641 0
-1770 -1876 1642 0
-1770 -1877 1643 0
-1770 -1878 1644 0
-1770 -1879 1645 0
-1770 -1880 1646 0
-1770 -1881 1647 0
-1770 -1882 1648 0
-1770 -1883 1649 0
-1770 -1884 1650 0
-1770 -1885 1651 0
-1770 -1886 1652 0
-1770 -1887 1653 0
-1770 -1888 1654 0
-1771 -1773 1540 0
-1771 -1774 1541 0
-1771 -1775 1542 0
-1771 -1776 1543 0
-1771 -1777 1544 0
-1771 -1778 1545 0
-1771 -1779 1546 0
-1771 -1780 1547 0
-1771 -1781 1548 0
-1771 -1782 1549 0
-1771 -1783 1550 0
-1771 -1784 1551 0
-1771 -1785 1552 0
-1771 -1786 1553 0
-1771 -1787 1554 0
-1771 -1788 1555 0
-1771 -1789 1556 0
-1771 -1790 1557 0
-1771 -1791 1558 0
-1771 -1792 1559 0
-1771 -1793 1560 0
-1771 -1794 1561 0
-1771 -1795 1562 0
-1771 -1796 1563 0
-1771 -1797 1564 0
-1771 -1798 1565 0
-1771 -1799 1566 0
-1771 -1800 1567 0
-1771 -1801 1568 0
-1771 -1802 1569 0
-1771 -1803 1570 0
-1771 -1804 1571 0
-1771 -1805 1572 0
-1771 -1806 1573 0
-1771 -1807 1574 0
-1771 -1808 1575 0
-1771 -1809 1576 0
-1771 -1810 1577 0
-1771 -1811 1578 0
-1771 -1812 1579 0
-1771 -1813 1580 0
-1771 -1814 1581 0
-1771 -1815 1582 0
-1771 -1816 1583 0
-1771 -1817 1584 0
-1771 -1818 1585 0
-1771 -1819 1586 0
-1771 -1820 1587 0
-1771 -1821 1588 0
-1771 -1822 1589 0
-1771 -1823 1590 0
-1771 -1824 1591 0
-1771 -1825 1592 0
-1771 -1826 1593 0
-1771 -1827 1594 0
-1771 -1828 1595 0
-1771 -1829 1596 0
-1771 -1830 1597 0
-1771 -1831 1598 0
-1771 -1832 1599 0
-1771 -1833 1600 0
-1771 -1834 1601 0
-1771 -1835 1602 0
-1771 -1836 1603 0
-1771 -1837 1604 0
-1771 -1838 1605 0
-1771 -1839 1606 0
-1771 -1840 1607 0
-1771 -1841 1608 0
-1771 -1842 1609 0
-1771 -1843 1610 0
-1771 -1844 1611 0
-1771 -1845 1612 0
-1771 -1846 1613 0
-1771 -1847 1614 0
-1771 -1848 1615 0
-1771 -1849 1616 0
-1771 -1850 1617 0
-1771 -1851 1618 0
-1771 -1852 1619 0
-1771 -1853 1620 0
-1771 -1854 1621 0
-1771 -1855 1622 0
-1771 -1856 1623 0
-1771 -1857 1624 0
-1771 -1858 1625 0
-1771 -1859 1626 0
-1771 -1860 1627 0
-1771 -1861 1628 0
-1771 -1862 1629 0
-1771 -1863 1630 0
-1771 -1864 1631 0
-1771 -1865 1632 0
-1771 -1866 1633 0
-1771 -1867 1634 0
-1771 -1868 1635 0
-1771 -1869 1636 0
-1771 -1870 1637 0
-1771 -1871 1638 0
-1771 -1872 1639 0
-1771 -1873 1640 0
-1771 -1874 1641 0
-1771 -1875 1642 0
-1771 -1876 1643 0
-1771 -1877 1644 0
-1771 -1878 1645 0
-1771 -1879 1646 0
-1771 -1880 1647 0
-1771 -1881 1648 0
-1771 -1882 1649 0
-1771 -1883 1650 0
-1771 -1884 1651 0
-1771 -1885 1652 0
-1771 -1886 1653 0
-1771 -1887 1654 0
-1771 -1888 1655 0
-1772 -1773 1541 0
-1772 -1774 1542 0
-1772 -1775 1543 0
-1772 -1776 1544 0
-1772 -1777 1545 0
-1772 -1778 1546 0
-1772 -1779 1547 0
-1772 -1780 1548 0
-1772 -1781 1549 0
-1772 -1782 1550 0
-1772 -1783 1551 0
-1772 -1784 1552 0
-1772 -1785 1553 0
-1772 -1786 1554 0
-1772 -1787 1555 0
-1772 -1788 1556 0
-1772 -1789 1557 0
-1772 -1790 1558 0
-1772 -1791 1559 0
-1772 -1792 1560 0
-1772 -1793 1561 0
-1772 -1794 1562 0
-1772 -1795 1563 0
-1772 -1796 1564 0
-1772 -1797 1565 0
-1772 -1798 1566 0
-1772 -1799 1567 0
-1772 -1800 1568 0
-1772 -1801 1569 0
-1772 -1802 1570 0
-1772 -1803 1571 0
-1772 -1804 1572 0
-1772 -1805 1573 0
-1772 -1806 1574 0
-1772 -1807 1575 0
-1772 -1808 1576 0
-1772 -1809 1577 0
-1772 -1810 1578 0
-1772 -1811 1579 0
-1772 -1812 1580 0
-1772 -1813 1581 0
-1772 -1814 1582 0
-1772 -1815 1583 0
-1772 -1816 1584 0
-1772 -1817 1585 0
-1772 -1818 1586 0
-1772 -1819 1587 0
-1772 -1820 1588 0
-1772 -1821 1589 0
-1772 -1822 1590 0
-1772 -1823 1591 0
-1772 -1824 1592 0
-1772 -1825 1593 0
-1772 -1826 1594 0
-1772 -1827 1595 0
-1772 -1828 1596 0
-1772 -1829 1597 0
-1772 -1830 1598 0
-1772 -1831 1599 0
-1772 -1832 1600 0
-1772 -1833 1601 0
-1772 -1834 1602 0
-1772 -1835 1603 0
-1772 -1836 1604 0
-1772 -1837 1605 0
-1772 -1838 1606 0
-1772 -1839 1607 0
-1772 -1840 1608 0
-1772 -1841 1609 0
-1772 -1842 1610 0
-1772 -1843 1611 0
-1772 -1844 1612 0
-1772 -1845 1613 0
-1772 -1846 1614 0
-1772 -1847 1615 0
-1772 -1848 1616 0
-1772 -1849 1617 0
-1772 -1850 1618 0
-1772 -1851 1619 0
-1772 -1852 1620 0
-1772 -1853 1621 0
-1772 -1854 1622 0
-1772 -1855 1623 0
-1772 -1856 1624 0
-1772 -1857 1625 0
-1772 -1858 1626 0
-1772 -1859 1627 0
-1772 -1860 1628 0
-1772 -1861 1629 0
-1772 -1862 1630 0
-1772 -1863 1631 0
-1772 -1864 1632 0
-1772 -1865 1633 0
-1772 -1866 1634 0
-1772 -1867 1635 0
-1772 -1868 1636 0
-1772 -1869 1637 0
-1772 -1870 1638 0
-1772 -1871 1639 0
-1772 -1872 1640 0
-1772 -1873 1641 0
-1772 -1874 1642 0
-1772 -1875 1643 0
-1772 -1876 1644 0
-1772 -1877 1645 0
-1772 -1878 1646 0
-1772 -1879 1647 0
-1772 -1880 1648 0
-1772 -1881 1649 0
-1772 -1882 1650 0
-1772 -1883 1651 0
-1772 -1884 1652 0
-1772 -1885 1653 0
-1772 -1886 1654 0
-1772 -1887 1655 0
-1772 -1888 1656 0
-1947 1773 0
-1948 1774 0
-1949 1775 0
-1950 1776 0
-1951 1777 0
-1952 1778 0
-1953 1779 0
-1954 1780 0
-1955 1781 0
-1956 1782 0
-1957 1783 0
-1958 1784 0
-1959 1785 0
-1960 1786 0
-1961 1787 0
-1962 1788 0
-1963 1789 0
-1964 1790 0
-1965 1791 0
-1966 1792 0
-1967 1793 0
-1968 1794 0
-1969 1795 0
-1970 1796 0
-1971 1797 0
-1972 1798 0
-1973 1799 0
-1974 1800 0
-1975 1801 0
-1976 1802 0
-1977 1803 0
-1978 1804 0
-1979 1805 0
-1980 1806 0
-1981 1807 0
-1982 1808 0
-1983 1809 0
-1984 1810 0
-1985 1811 0
-1986 1812 0
-1987 1813 0
-1988 1814 0
-1989 1815 0
-1990 1816 0
-1991 1817 0
-1992 1818 0
-1993 1819 0
-1994 1820 0
-1995 1821 0
-1996 1822 0
-1997 1823 0
-1998 1824 0
-1999 1825 0
-2000 1826 0
-2001 1827 0
-2002 1828 0
-2003 1829 0
-2004 1830 0
-1889 1773 0
-1890 1774 0
-1891 1775 0
-1892 1776 0
-1893 1777 0
-1894 1778 0
-1895 1779 0
-1896 1780 0
-1897 1781 0
-1898 1782 0
-1899 1783 0
-1900 1784 0
-1901 1785 0
-1902 1786 0
-1903 1787 0
-1904 1788 0
-1905 1789 0
-1906 1790 0
-1907 1791 0
-1908 1792 0
-1909 1793 0
-1910 1794 0
-1911 1795 0
-1912 1796 0
-1913 1797 0
-1914 1798 0
-1915 1799 0
-1916 1800 0
-1917 1801 0
-1918 1802 0
-1919 1803 0
-1920 1804 0
-1921 1805 0
-1922 1806 0
-1923 1807 0
-1924 1808 0
-1925 1809 0
-1926 1810 0
-1927 1811 0
-1928 1812 0
-1929 1813 0
-1930 1814 0
-1931 1815 0
-1932 1816 0
-1933 1817 0
-1934 1818 0
-1935 1819 0
-1936 1820 0
-1937 1821 0
-1938 1822 0
-1939 1823 0
-1940 1824 0
-1941 1825 0
-1942 1826 0
-1943 1827 0
-1944 1828 0
-1945 1829 0
-1946 1830 0
-1889 -1947 1774 0
-1889 -1948 1775 0
-1889 -1949 1776 0
-1889 -1950 1777 0
-1889 -1951 1778 0
-1889 -1952 1779 0
-1889 -1953 1780 0
-1889 -1954 1781 0
-1889 -1955 1782 0
-1889 -1956 1783 0
-1889 -1957 1784 0
-1889 -1958 1785 0
-1889 -1959 1786 0
-1889 -1960 1787 0
-1889 -1961 1788 0
-1889 -1962 1789 0
-1889 -1963 1790 0
-1889 -1964 1791 0
-1889 -1965 1792 0
-1889 -1966 1793 0
-1889 -1967 1794 0
-1889 -1968 1795 0
-1889 -1969 1796 0
-1889 -1970 1797 0
-1889 -1971 1798 0
-1889 -1972 1799 0
-1889 -1973 1800 0
-1889 -1974 1801 0
-1889 -1975 1802 0
-1889 -1976 1803 0
-1889 -1977 1804 0
-1889 -1978 1805 0
-1889 -1979 1806 0
-1889 -1980 1807 0
-1889 -1981 1808 0
-1889 -1982 1809 0
-1889 -1983 1810 0
-1889 -1984 1811 0
-1889 -1985 1812 0
-1889 -1986 1813 0
-1889 -1987 1814 0
-1889 -1988 1815 0
-1889 -1989 1816 0
-1889 -1990 1817 0
-1889 -1991 1818 0
-1889 -1992 1819 0
-1889 -1993 1820 0
-1889 -1994 1821 0
-1889 -1995 1822 0
-1889 -1996 1823 0
-1889 -1997 1824 0
-1889 -1998 1825 0
-1889 -1999 1826 0
-1889 -2000 1827 0
-1889 -2001 1828 0
-1889 -2002 1829 0
-1889 -2003 1830 0
-1889 -2004 1831 0
-1890 -1947 1775 0
-1890 -1948 1776 0
-1890 -1949 1777 0
-1890 -1950 1778 0
-1890 -1951 1779 0
-1890 -1952 1780 0
-1890 -1953 1781 0
-1890 -1954 1782 0
-1890 -1955 1783 0
-1890 -1956 1784 0
-1890 -1957 1785 0
-1890 -1958 1786 0
-1890 -1959 1787 0
-1890 -1960 1788 0
-1890 -1961 1789 0
-1890 -1962 1790 0
-1890 -1963 1791 0
-1890 -1964 1792 0
-1890 -1965 1793 0
-1890 -1966 1794 0
-1890 -1967 1795 0
-1890 -1968 1796 0
-1890 -1969 1797 0
-1890 -1970 1798 0
-1890 -1971 1799 0
-1890 -1972 1800 0
-1890 -1973 1801 0
-1890 -1974 1802 0
-1890 -1975 1803 0
-1890 -1976 1804 0
-1890 -1977 1805 0
-1890 -1978 1806 0
-1890 -1979 1807 0
-1890 -1980 1808 0
-1890 -1981 1809 0
-1890 -1982 1810 0
-1890 -1983 1811 0
-1890 -1984 1812 0
-1890 -1985 1813 0
-1890 -1986 1814 0
-1890 -1987 1815 0
-1890 -1988 1816 0
-1890 -1989 1817 0
-1890 -1990 1818 0
-1890 -1991 1819 0
-1890 -1992 1820 0
-1890 -1993 1821 0
-1890 -1994 1822 0
-1890 -1995 1823 0
-1890 -1996 1824 0
-1890 -1997 1825 0
-1890 -1998 1826 0
-1890 -1999 1827 0
-1890 -2000 1828 0
-1890 -2001 1829 0
-1890 -2002 1830 0
-1890 -2003 1831 0
-1890 -2004 1832 0
-1891 -1947 1776 0
-1891 -1948 1777 0
-1891 -1949 1778 0
-1891 -1950 1779 0
-1891 -1951 1780 0
-1891 -1952 1781 0
-1891 -1953 1782 0
-1891 -1954 1783 0
-1891 -1955 1784 0
-1891 -1956 1785 0
-1891 -1957 1786 0
-1891 -1958 1787 0
-1891 -1959 1788 0
-1891 -1960 1789 0
-1891 -1961 1790 0
-1891 -1962 1791 0
-1891 -1963 1792 0
-1891 -1964 1793 0
-1891 -1965 1794 0
-1891 -1966 1795 0
-1891 -1967 1796 0
-1891 -1968 1797 0
-1891 -1969 1798 0
-1891 -1970 1799 0
-1891 -1971 1800 0
-1891 -1972 1801 0
-1891 -1973 1802 0
-1891 -1974 1803 0
-1891 -1975 1804 0
-1891 -1976 1805 0
-1891 -1977 1806 0
-1891 -1978 1807 0
-1891 -1979 1808 0
-1891 -1980 1809 0
-1891 -1981 1810 0
-1891 -1982 1811 0
-1891 -1983 1812 0
-1891 -1984 1813 0
-1891 -1985 1814 0
-1891 -1986 1815 0
-1891 -1987 1816 0
-1891 -1988 1817 0
-1891 -1989 1818 0
-1891 -1990 1819 0
-1891 -1991 1820 0
-1891 -1992 1821 0
-1891 -1993 1822 0
-1891 -1994 1823 0
-1891 -1995 1824 0
-1891 -1996 1825 0
-1891 -1997 1826 0
-1891 -1998 1827 0
-1891 -1999 1828 0
-1891 -2000 1829 0
-1891 -2001 1830 0
-1891 -2002 1831 0
-1891 -2003 1832 0
-1891 -2004 1833 0
-1892 -1947 1777 0
-1892 -1948 1778 0
-1892 -1949 1779 0
-1892 -1950 1780 0
-1892 -1951 1781 0
-1892 -1952 1782 0
-1892 -1953 1783 0
-1892 -1954 1784 0
-1892 -1955 1785 0
-1892 -1956 1786 0
-1892 -1957 1787 0
-1892 -1958 1788 0
-1892 -1959 1789 0
-1892 -1960 1790 0
-1892 -1961 1791 0
-1892 -1962 1792 0
-1892 -1963 1793 0
-1892 -1964 1794 0
-1892 -1965 1795 0
-1892 -1966 1796 0
-1892 -1967 1797 0
-1892 -1968 1798 0
-1892 -1969 1799 0
-1892 -1970 1800 0
-1892 -1971 1801 0
-1892 -1972 1802 0
-1892 -1973 1803 0
-1892 -1974 1804 0
-1892 -1975 1805 0
-1892 -1976 1806 0
-1892 -1977 1807 0
-1892 -1978 1808 0
-1892 -1979 1809 0
-1892 -1980 1810 0
-1892 -1981 1811 0
-1892 -1982 1812 0
-1892 -1983 1813 0
-1892 -1984 1814 0
-1892 -1985 1815 0
-1892 -1986 1816 0
-1892 -1987 1817 0
-1892 -1988 1818 0
-1892 -1989 1819 0
-1892 -1990 1820 0
-1892 -1991 1821 0
-1892 -1992 1822 0
-1892 -1993 1823 0
-1892 -1994 1824 0
-1892 -1995 1825 0
-1892 -1996 1826 0
-1892 -1997 1827 0
-1892 -1998 1828 0
-1892 -1999 1829 0
-1892 -2000 1830 0
-1892 -2001 1831 0
-1892 -2002 1832 0
-1892 -2003 1833 0
-1892 -2004 1834 0
-1893 -1947 1778 0
-1893 -1948 1779 0
-1893 -1949 1780 0
-1893 -1950 1781 0
-1893 -1951 1782 0
-1893 -1952 1783 0
-1893 -1953 1784 0
-1893 -1954 1785 0
-1893 -1955 1786 0
-1893 -1956 1787 0
-1893 -1957 1788 0
-1893 -1958 1789 0
-1893 -1959 1790 0
-1893 -1960 1791 0
-1893 -1961 1792 0
-1893 -1962 1793 0
-1893 -1963 1794 0
-1893 -1964 1795 0
-1893 -1965 1796 0
-1893 -1966 1797 0
-1893 -1967 1798 0
-1893 -1968 1799 0
-1893 -1969 1800 0
-1893 -1970 1801 0
-1893 -1971 1802 0
-1893 -1972 1803 0
-1893 -1973 1804 0
-1893 -1974 1805 0
-1893 -1975 1806 0
-1893 -1976 1807 0
-1893 -1977 1808 0
-1893 -1978 1809 0
-1893 -1979 1810 0
-1893 -1980 1811 0
-1893 -1981 1812 0
-1893 -1982 1813 0
-1893 -1983 1814 0
-1893 -1984 1815 0
-1893 -1985 1816 0
-1893 -1986 1817 0
-1893 -1987 1818 0
-1893 -1988 1819 0
-1893 -1989 1820 0
-1893 -1990 1821 0
-1893 -1991 1822 0
-1893 -1992 1823 0
-1893 -1993 1824 0
-1893 -1994 1825 0
-1893 -1995 1826 0
-1893 -1996 1827 0
-1893 -1997 1828 0
-1893 -1998 1829 0
-1893 -1999 1830 0
-1893 -2000 1831 0
-1893 -2001 1832 0
-1893 -2002 1833 0
-1893 -2003 1834 0
-1893 -2004 1835 0
-1894 -1947 1779 0
-1894 -1948 1780 0
-1894 -1949 1781 0
-1894 -1950 1782 0
-1894 -1951 1783 0
-1894 -1952 1784 0
-1894 -1953 1785 0
-1894 -1954 1786 0
-1894 -1955 1787 0
-1894 -1956 1788 0
-1894 -1957 1789 0
-1894 -1958 1790 0
-1894 -1959 1791 0
-1894 -1960 1792 0
-1894 -1961 1793 0
-1894 -1962 1794 0
-1894 -1963 1795 0
-1894 -1964 1796 0
-1894 -1965 1797 0
-1894 -1966 1798 0
-1894 -1967 1799 0
-1894 -1968 1800 0
-1894 -1969 1801 0
-1894 -1970 1802 0
-1894 -1971 1803 0
-1894 -1972 1804 0
-1894 -1973 1805 0
-1894 -1974 1806 0
-1894 -1975 1807 0
-1894 -1976 1808 0
-1894 -1977 1809 0
-1894 -1978 1810 0
-1894 -1979 1811 0
-1894 -1980 1812 0
-1894 -1981 1813 0
-1894 -1982 1814 0
-1894 -1983 1815 0
-1894 -1984 1816 0
-1894 -1985 1817 0
-1894 -1986 1818 0
-1894 -1987 1819 0
-1894 -1988 1820 0
-1894 -1989 1821 0
-1894 -1990 1822 0
-1894 -1991 1823 0
-1894 -1992 1824 0
-1894 -1993 1825 0
-1894 -1994 1826 0
-1894 -1995 1827 0
-1894 -1996 1828 0
-1894 -1997 1829 0
-1894 -1998 1830 0
-1894 -1999 1831 0
-1894 -2000 1832 0
-1894 -2001 1833 0
-1894 -2002 1834 0
-1894 -2003 1835 0
-1894 -2004 1836 0
-1895 -1947 1780 0
-1895 -1948 1781 0
-1895 -1949 1782 0
-1895 -1950 1783 0
-1895 -1951 1784 0
-1895 -1952 1785 0
-1895 -1953 1786 0
-1895 -1954 1787 0
-1895 -1955 1788 0
-1895 -1956 1789 0
-1895 -1957 1790 0
-1895 -1958 1791 0
-1895 -1959 1792 0
-1895 -1960 1793 0
-1895 -1961 1794 0
-1895 -1962 1795 0
-1895 -1963 1796 0
-1895 -1964 1797 0
-1895 -1965 1798 0
-1895 -1966 1799 0
-1895 -1967 1800 0
-1895 -1968 1801 0
-1895 -1969 1802 0
-1895 -1970 1803 0
-1895 -1971 1804 0
-1895 -1972 1805 0
-1895 -1973 1806 0
-1895 -1974 1807 0
-1895 -1975 1808 0
-1895 -1976 1809 0
-1895 -1977 1810 0
-1895 -1978 1811 0
-1895 -1979 1812 0
-1895 -1980 1813 0
-1895 -1981 1814 0
-1895 -1982 1815 0
-1895 -1983 1816 0
-1895 -1984 1817 0
-1895 -1985 1818 0
-1895 -1986 1819 0
-1895 -1987 1820 0
-1895 -1988 1821 0
-1895 -1989 1822 0
-1895 -1990 1823 0
-1895 -1991 1824 0
-1895 -1992 1825 0
-1895 -1993 1826 0
-1895 -1994 1827 0
-1895 -1995 1828 0
-1895 -1996 1829 0
-1895 -1997 1830 0
-1895 -1998 1831 0
-1895 -1999 1832 0
-1895 -2000 1833 0
-1895 -2001 1834 0
-1895 -2002 1835 0
-1895 -2003 1836 0
-1895 -2004 1837 0
-1896 -1947 1781 0
-1896 -1948 1782 0
-1896 -1949 1783 0
-1896 -1950 1784 0
-1896 -1951 1785 0
-1896 -1952 1786 0
-1896 -1953 1787 0
-1896 -1954 1788 0
-1896 -1955 1789 0
-1896 -1956 1790 0
-1896 -1957 1791 0
-1896 -1958 1792 0
-1896 -1959 1793 0
-1896 -1960 1794 0
-1896 -1961 1795 0
-1896 -1962 1796 0
-1896 -1963 1797 0
-1896 -1964 1798 0
-1896 -1965 1799 0
-1896 -1966 1800 0
-1896 -1967 1801 0
-1896 -1968 1802 0
-1896 -1969 1803 0
-1896 -1970 1804 0
-1896 -1971 1805 0
-1896 -1972 1806 0
-1896 -1973 1807 0
-1896 -1974 1808 0
-1896 -1975 1809 0
-1896 -1976 1810 0
-1896 -1977 1811 0
-1896 -1978 1812 0
-1896 -1979 1813 0
-1896 -1980 1814 0
-1896 -1981 1815 0
-1896 -1982 1816 0
-1896 -1983 1817 0
-1896 -1984 1818 0
-1896 -1985 1819 0
-1896 -1986 1820 0
-1896 -1987 1821 0
-1896 -1988 1822 0
-1896 -1989 1823 0
-1896 -1990 1824 0
-1896 -1991 1825 0
-1896 -1992 1826 0
-1896 -1993 1827 0
-1896 -1994 1828 0
-1896 -1995 1829 0
-1896 -1996 1830 0
-1896 -1997 1831 0
-1896 -1998 1832 0
-1896 -1999 1833 0
-1896 -2000 1834 0
-1896 -2001 1835 0
-1896 -2002 1836 0
-1896 -2003 1837 0
-1896 -2004 1838 0
-1897 -1947 1782 0
-1897 -1948 1783 0
-1897 -1949 1784 0
-1897 -1950 1785 0
-1897 -1951 1786 0
-1897 -1952 1787 0
-1897 -1953 1788 0
-1897 -1954 1789 0
-1897 -1955 1790 0
-1897 -1956 1791 0
-1897 -1957 1792 0
-1897 -1958 1793 0
-1897 -1959 1794 0
-1897 -1960 1795 0
-1897 -1961 1796 0
-1897 -1962 1797 0
-1897 -1963 1798 0
-1897 -1964 1799 0
-1897 -1965 1800 0
-1897 -1966 1801 0
-1897 -1967 1802 0
-1897 -1968 1803 0
-1897 -1969 1804 0
-1897 -1970 1805 0
-1897 -1971 1806 0
-1897 -1972 1807 0
-1897 -1973 1808 0
-1897 -1974 1809 0
-1897 -1975 1810 0
-1897 -1976 1811 0
-1897 -1977 1812 0
-1897 -1978 1813 0
-1897 -1979 1814 0
-1897 -1980 1815 0
-1897 -1981 1816 0
-1897 -1982 1817 0
-1897 -1983 1818 0
-1897 -1984 1819 0
-1897 -1985 1820 0
-1897 -1986 1821 0
-1897 -1987 1822 0
-1897 -1988 1823 0
-1897 -1989 1824 0
-1897 -1990 1825 0
-1897 -1991 1826 0
-1897 -1992 1827 0
-1897 -1993 1828 0
-1897 -1994 1829 0
-1897 -1995 1830 0
-1897 -1996 1831 0
-1897 -1997 1832 0
-1897 -1998 1833 0
-1897 -1999 1834 0
-1897 -2000 1835 0
-1897 -2001 1836 0
-1897 -2002 1837 0
-1897 -2003 1838 0
-1897 -2004 1839 0
-1898 -1947 1783 0
-1898 -1948 1784 0
-1898 -1949 1785 0
-1898 -1950 1786 0
-1898 -1951 1787 0
-1898 -1952 1788 0
-1898 -1953 1789 0
-1898 -1954 1790 0
-1898 -1955 1791 0
-1898 -1956 1792 0
-1898 -1957 1793 0
-1898 -1958 1794 0
-1898 -1959 1795 0
-1898 -1960 1796 0
-1898 -1961 1797 0
-1898 -1962 1798 0
-1898 -1963 1799 0
-1898 -1964 1800 0
-1898 -1965 1801 0
-1898 -1966 1802 0
-1898 -1967 1803 0
-1898 -1968 1804 0
-1898 -1969 1805 0
-1898 -1970 1806 0
-1898 -1971 1807 0
-1898 -1972 1808 0
-1898 -1973 1809 0
-1898 -1974 1810 0
-1898 -1975 1811 0
-1898 -1976 1812 0
-1898 -1977 1813 0
-1898 -1978 1814 0
-1898 -1979 1815 0
-1898 -1980 1816 0
-1898 -1981 1817 0
-1898 -1982 1818 0
-1898 -1983 1819 0
-1898 -1984 1820 0
-1898 -1985 1821 0
-1898 -1986 1822 0
-1898 -1987 1823 0
-1898 -1988 1824 0
-1898 -1989 1825 0
-1898 -1990 1826 0
-1898 -1991 1827 0
-1898 -1992 1828 0
-1898 -1993 1829 0
-1898 -1994 1830 0
-1898 -1995 1831 0
-1898 -1996 1832 0
-1898 -1997 1833 0
-1898 -1998 1834 0
-1898 -1999 1835 0
-1898 -2000 1836 0
-1898 -2001 1837 0
-1898 -2002 1838 0
-1898 -2003 1839 0
-1898 -2004 1840 0
-1899 -1947 1784 0
-1899 -1948 1785 0
-1899 -1949 1786 0
-1899 -1950 1787 0
-1899 -1951 1788 0
-1899 -1952 1789 0
-1899 -1953 1790 0
-1899 -1954 1791 0
-1899 -1955 1792 0
-1899 -1956 1793 0
-1899 -1957 1794 0
-1899 -1958 1795 0
-1899 -1959 1796 0
-1899 -1960 1797 0
-1899 -1961 1798 0
-1899 -1962 1799 0
-1899 -1963 1800 0
-1899 -1964 1801 0
-1899 -1965 1802 0
-1899 -1966 1803 0
-1899 -1967 1804 0
-1899 -1968 1805 0
-1899 -1969 1806 0
-1899 -1970 1807 0
-1899 -1971 1808 0
-1899 -1972 1809 0
-1899 -1973 1810 0
-1899 -1974 1811 0
-1899 -1975 1812 0
-1899 -1976 1813 0
-1899 -1977 1814 0
-1899 -1978 1815 0
-1899 -1979 1816 0
-1899 -1980 1817 0
-1899 -1981 1818 0
-1899 -1982 1819 0
-1899 -1983 1820 0
-1899 -1984 1821 0
-1899 -1985 1822 0
-1899 -1986 1823 0
-1899 -1987 1824 0
-1899 -1988 1825 0
-1899 -1989 1826 0
-1899 -1990 1827 0
-1899 -1991 1828 0
-1899 -1992 1829 0
-1899 -1993 1830 0
-1899 -1994 1831 0
-1899 -1995 1832 0
-1899 -1996 1833 0
-1899 -1997 1834 0
-1899 -1998 1835 0
-1899 -1999 1836 0
-1899 -2000 1837 0
-1899 -2001 1838 0
-1899 -2002 1839 0
-1899 -2003 1840 0
-1899 -2004 1841 0
-1900 -1947 1785 0
-1900 -1948 1786 0
-1900 -1949 1787 0
-1900 -1950 1788 0
-1900 -1951 1789 0
-1900 -1952 1790 0
-1900 -1953 1791 0
-1900 -1954 1792 0
-1900 -1955 1793 0
-1900 -1956 1794 0
-1900 -1957 1795 0
-1900 -1958 1796 0
-1900 -1959 1797 0
-1900 -1960 1798 0
-1900 -1961 1799 0
-1900 -1962 1800 0
-1900 -1963 1801 0
-1900 -1964 1802 0
-1900 -1965 1803 0
-1900 -1966 1804 0
-1900 -1967 1805 0
-1900 -1968 1806 0
-1900 -1969 1807 0
-1900 -1970 1808 0
-1900 -1971 1809 0
-1900 -1972 1810 0
-1900 -1973 1811 0
-1900 -1974 1812 0
-1900 -1975 1813 0
-1900 -1976 1814 0
-1900 -1977 1815 0
-1900 -1978 1816 0
-1900 -1979 1817 0
-1900 -1980 1818 0
-1900 -1981 1819 0
-1900 -1982 1820 0
-1900 -1983 1821 0
-1900 -1984 1822 0
-1900 -1985 1823 0
-1900 -1986 1824 0
-1900 -1987 1825 0
-1900 -1988 1826 0
-1900 -1989 1827 0
-1900 -1990 1828 0
-1900 -1991 1829 0
-1900 -1992 1830 0
-1900 -1993 1831 0
-1900 -1994 1832 0
-1900 -1995 1833 0
-1900 -1996 1834 0
-1900 -1997 1835 0
-1900 -1998 1836 0
-1900 -1999 1837 0
-1900 -2000 1838 0
-1900 -2001 1839 0
-1900 -2002 1840 0
-1900 -2003 1841 0
-1900 -2004 1842 0
-1901 -1947 1786 0
-1901 -1948 1787 0
-1901 -1949 1788 0
-1901 -1950 1789 0
-1901 -1951 1790 0
-1901 -1952 1791 0
-1901 -1953 1792 0
-1901 -1954 1793 0
-1901 -1955 1794 0
-1901 -1956 1795 0
-1901 -1957 1796 0
-1901 -1958 1797 0
-1901 -1959 1798 0
-1901 -1960 1799 0
-1901 -1961 1800 0
-1901 -1962 1801 0
-1901 -1963 1802 0
-1901 -1964 1803 0
-1901 -1965 1804 0
-1901 -1966 1805 0
-1901 -1967 1806 0
-1901 -1968 1807 0
-1901 -1969 1808 0
-1901 -1970 1809 0
-1901 -1971 1810 0
-1901 -1972 1811 0
-1901 -1973 1812 0
-1901 -1974 1813 0
-1901 -1975 1814 0
-1901 -1976 1815 0
-1901 -1977 1816 0
-1901 -1978 1817 0
-1901 -1979 1818 0
-1901 -1980 1819 0
-1901 -1981 1820 0
-1901 -1982 1821 0
-1901 -1983 1822 0
-1901 -1984 1823 0
-1901 -1985 1824 0
-1901 -1986 1825 0
-1901 -1987 1826 0
-1901 -1988 1827 0
-1901 -1989 1828 0
-1901 -1990 1829 0
-1901 -1991 1830 0
-1901 -1992 1831 0
-1901 -1993 1832 0
-1901 -1994 1833 0
-1901 -1995 1834 0
-1901 -1996 1835 0
-1901 -1997 1836 0
-1901 -1998 1837 0
-1901 -1999 1838 0
-1901 -2000 1839 0
-1901 -2001 1840 0
-1901 -2002 1841 0
-1901 -2003 1842 0
-1901 -2004 1843 0
-1902 -1947 1787 0
-1902 -1948 1788 0
-1902 -1949 1789 0
-1902 -1950 1790 0
-1902 -1951 1791 0
-1902 -1952 1792 0
-1902 -1953 1793 0
-1902 -1954 1794 0
-1902 -1955 1795 0
-1902 -1956 1796 0
-1902 -1957 1797 0
-1902 -1958 1798 0
-1902 -1959 1799 0
-1902 -1960 1800 0
-1902 -1961 1801 0
-1902 -1962 1802 0
-1902 -1963 1803 0
-1902 -1964 1804 0
-1902 -1965 1805 0
-1902 -1966 1806 0
-1902 -1967 1807 0
-1902 -1968 1808 0
-1902 -1969 1809 0
-1902 -1970 1810 0
-1902 -1971 1811 0
-1902 -1972 1812 0
-1902 -1973 1813 0
-1902 -1974 1814 0
-1902 -1975 1815 0
-1902 -1976 1816 0
-1902 -1977 1817 0
-1902 -1978 1818 0
-1902 -1979 1819 0
-1902 -1980 1820 0
-1902 -1981 1821 0
-1902 -1982 1822 0
-1902 -1983 1823 0
-1902 -1984 1824 0
-1902 -1985 1825 0
-1902 -1986 1826 0
-1902 -1987 1827 0
-1902 -1988 1828 0
-1902 -1989 1829 0
-1902 -1990 1830 0
-1902 -1991 1831 0
-1902 -1992 1832 0
-1902 -1993 1833 0
-1902 -1994 1834 0
-1902 -1995 1835 0
-1902 -1996 1836 0
-1902 -1997 1837 0
-1902 -1998 1838 0
-1902 -1999 1839 0
-1902 -2000 1840 0
-1902 -2001 1841 0
-1902 -2002 1842 0
-1902 -2003 1843 0
-1902 -2004 1844 0
-1903 -1947 1788 0
-1903 -1948 1789 0
-1903 -1949 1790 0
-1903 -1950 1791 0
-1903 -1951 1792 0
-1903 -1952 1793 0
-1903 -1953 1794 0
-1903 -1954 1795 0
-1903 -1955 1796 0
-1903 -1956 1797 0
-1903 -1957 1798 0
-1903 -1958 1799 0
-1903 -1959 1800 0
-1903 -1960 1801 0
-1903 -1961 1802 0
-1903 -1962 1803 0
-1903 -1963 1804 0
-1903 -1964 1805 0
-1903 -1965 1806 0
-1903 -1966 1807 0
-1903 -1967 1808 0
-1903 -1968 1809 0
-1903 -1969 1810 0
-1903 -1970 1811 0
-1903 -1971 1812 0
-1903 -1972 1813 0
-1903 -1973 1814 0
-1903 -1974 1815 0
-1903 -1975 1816 0
-1903 -1976 1817 0
-1903 -1977 1818 0
-1903 -1978 1819 0
-1903 -1979 1820 0
-1903 -1980 1821 0
-1903 -1981 1822 0
-1903 -1982 1823 0
-1903 -1983 1824 0
-1903 -1984 1825 0
-1903 -1985 1826 0
-1903 -1986 1827 0
-1903 -1987 1828 0
-1903 -1988 1829 0
-1903 -1989 1830 0
-1903 -1990 1831 0
-1903 -1991 1832 0
-1903 -1992 1833 0
-1903 -1993 1834 0
-1903 -1994 1835 0
-1903 -1995 1836 0
-1903 -1996 1837 0
-1903 -1997 1838 0
-1903 -1998 1839 0
-1903 -1999 1840 0
-1903 -2000 1841 0
-1903 -2001 1842 0
-1903 -2002 1843 0
-1903 -2003 1844 0
-1903 -2004 1845 0
-1904 -1947 1789 0
-1904 -1948 1790 0
-1904 -1949 1791 0
-1904 -1950 1792 0
-1904 -1951 1793 0
-1904 -1952 1794 0
-1904 -1953 1795 0
-1904 -1954 1796 0
-1904 -1955 1797 0
-1904 -1956 1798 0
-1904 -1957 1799 0
-1904 -1958 1800 0
-1904 -1959 1801 0
-1904 -1960 1802 0
-1904 -1961 1803 0
-1904 -1962 1804 0
-1904 -1963 1805 0
-1904 -1964 1806 0
-1904 -1965 1807 0
-1904 -1966 1808 0
-1904 -1967 1809 0
-1904 -1968 1810 0
-1904 -1969 1811 0
-1904 -1970 1812 0
-1904 -1971 1813 0
-1904 -1972 1814 0
-1904 -1973 1815 0
-1904 -1974 1816 0
-1904 -1975 1817 0
-1904 -1976 1818 0
-1904 -1977 1819 0
-1904 -1978 1820 0
-1904 -1979 1821 0
-1904 -1980 1822 0
-1904 -1981 1823 0
-1904 -1982 1824 0
-1904 -1983 1825 0
-1904 -1984 1826 0
-1904 -1985 1827 0
-1904 -1986 1828 0
-1904 -1987 1829 0
-1904 -1988 1830 0
-1904 -1989 1831 0
-1904 -1990 1832 0
-1904 -1991 1833 0
-1904 -1992 1834 0
-1904 -1993 1835 0
-1904 -1994 1836 0
-1904 -1995 1837 0
-1904 -1996 1838 0
-1904 -1997 1839 0
-1904 -1998 1840 0
-1904 -1999 1841 0
-1904 -2000 1842 0
-1904 -2001 1843 0
-1904 -2002 1844 0
-1904 -2003 1845 0
-1904 -2004 1846 0
-1905 -1947 1790 0
-1905 -1948 1791 0
-1905 -1949 1792 0
-1905 -1950 1793 0
-1905 -1951 1794 0
-1905 -1952 1795 0
-1905 -1953 1796 0
-1905 -1954 1797 0
-1905 -1955 1798 0
-1905 -1956 1799 0
-1905 -1957 1800 0
-1905 -1958 1801 0
-1905 -1959 1802 0
-1905 -1960 1803 0
-1905 -1961 1804 0
-1905 -1962 1805 0
-1905 -1963 1806 0
-1905 -1964 1807 0
-1905 -1965 1808 0
-1905 -1966 1809 0
-1905 -1967 1810 0
-1905 -1968 1811 0
-1905 -1969 1812 0
-1905 -1970 1813 0
-1905 -1971 1814 0
-1905 -1972 1815 0
-1905 -1973 1816 0
-1905 -1974 1817 0
-1905 -1975 1818 0
-1905 -1976 1819 0
-1905 -1977 1820 0
-1905 -1978 1821 0
-1905 -1979 1822 0
-1905 -1980 1823 0
-1905 -1981 1824 0
-1905 -1982 1825 0
-1905 -1983 1826 0
-1905 -1984 1827 0
-1905 -1985 1828 0
-1905 -1986 1829 0
-1905 -1987 1830 0
-1905 -1988 1831 0
-1905 -1989 1832 0
-1905 -1990 1833 0
-1905 -1991 1834 0
-1905 -1992 1835 0
-1905 -1993 1836 0
-1905 -1994 1837 0
-1905 -1995 1838 0
-1905 -1996 1839 0
-1905 -1997 1840 0
-1905 -1998 1841 0
-1905 -1999 1842 0
-1905 -2000 1843 0
-1905 -2001 1844 0
-1905 -2002 1845 0
-1905 -2003 1846 0
-1905 -2004 1847 0
-1906 -1947 1791 0
-1906 -1948 1792 0
-1906 -1949 1793 0
-1906 -1950 1794 0
-1906 -1951 1795 0
-1906 -1952 1796 0
-1906 -1953 1797 0
-1906 -1954 1798 0
-1906 -1955 1799 0
-1906 -1956 1800 0
-1906 -1957 1801 0
-1906 -1958 1802 0
-1906 -1959 1803 0
-1906 -1960 1804 0
-1906 -1961 1805 0
-1906 -1962 1806 0
-1906 -1963 1807 0
-1906 -1964 1808 0
-1906 -1965 1809 0
-1906 -1966 1810 0
-1906 -1967 1811 0
-1906 -1968 1812 0
-1906 -1969 1813 0
-1906 -1970 1814 0
-1906 -1971 1815 0
-1906 -1972 1816 0
-1906 -1973 1817 0
-1906 -1974 1818 0
-1906 -1975 1819 0
-1906 -1976 1820 0
-1906 -1977 1821 0
-1906 -1978 1822 0
-1906 -1979 1823 0
-1906 -1980 1824 0
-1906 -1981 1825 0
-1906 -1982 1826 0
-1906 -1983 1827 0
-1906 -1984 1828 0
-1906 -1985 1829 0
-1906 -1986 1830 0
-1906 -1987 1831 0
-1906 -1988 1832 0
-1906 -1989 1833 0
-1906 -1990 1834 0
-1906 -1991 1835 0
-1906 -1992 1836 0
-1906 -1993 1837 0
-1906 -1994 1838 0
-1906 -1995 1839 0
-1906 -1996 1840 0
-1906 -1997 1841 0
-1906 -1998 1842 0
-1906 -1999 1843 0
-1906 -2000 1844 0
-1906 -2001 1845 0
-1906 -2002 1846 0
-1906 -2003 1847 0
-1906 -2004 1848 0
-1907 -1947 1792 0
-1907 -1948 1793 0
-1907 -1949 1794 0
-1907 -1950 1795 0
-1907 -1951 1796 0
-1907 -1952 1797 0
-1907 -1953 1798 0
-1907 -1954 1799 0
-1907 -1955 1800 0
-1907 -1956 1801 0
-1907 -1957 1802 0
-1907 -1958 1803 0
-1907 -1959 1804 0
-1907 -1960 1805 0
-1907 -1961 1806 0
-1907 -1962 1807 0
-1907 -1963 1808 0
-1907 -1964 1809 0
-1907 -1965 1810 0
-1907 -1966 1811 0
-1907 -1967 1812 0
-1907 -1968 1813 0
-1907 -1969 1814 0
-1907 -1970 1815 0
-1907 -1971 1816 0
-1907 -1972 1817 0
-1907 -1973 1818 0
-1907 -1974 1819 0
-1907 -1975 1820 0
-1907 -1976 1821 0
-1907 -1977 1822 0
-1907 -1978 1823 0
-1907 -1979 1824 0
-1907 -1980 1825 0
-1907 -1981 1826 0
-1907 -1982 1827 0
-1907 -1983 1828 0
-1907 -1984 1829 0
-1907 -1985 1830 0
-1907 -1986 1831 0
-1907 -1987 1832 0
-1907 -1988 1833 0
-1907 -1989 1834 0
-1907 -1990 1835 0
-1907 -1991 1836 0
-1907 -1992 1837 0
-1907 -1993 1838 0
-1907 -1994 1839 0
-1907 -1995 1840 0
-1907 -1996 1841 0
-1907 -1997 1842 0
-1907 -1998 1843 0
-1907 -1999 1844 0
-1907 -2000 1845 0
-1907 -2001 1846 0
-1907 -2002 1847 0
-1907 -2003 1848 0
-1907 -2004 1849 0
-1908 -1947 1793 0
-1908 -1948 1794 0
-1908 -1949 1795 0
-1908 -1950 1796 0
-1908 -1951 1797 0
-1908 -1952 1798 0
-1908 -1953 1799 0
-1908 -1954 1800 0
-1908 -1955 1801 0
-1908 -1956 1802 0
-1908 -1957 1803 0
-1908 -1958 1804 0
-1908 -1959 1805 0
-1908 -1960 1806 0
-1908 -1961 1807 0
-1908 -1962 1808 0
-1908 -1963 1809 0
-1908 -1964 1810 0
-1908 -1965 1811 0
-1908 -1966 1812 0
-1908 -1967 1813 0
-1908 -1968 1814 0
-1908 -1969 1815 0
-1908 -1970 1816 0
-1908 -1971 1817 0
-1908 -1972 1818 0
-1908 -1973 1819 0
-1908 -1974 1820 0
-1908 -1975 1821 0
-1908 -1976 1822 0
-1908 -1977 1823 0
-1908 -1978 1824 0
-1908 -1979 1825 0
-1908 -1980 1826 0
-1908 -1981 1827 0
-1908 -1982 1828 0
-1908 -1983 1829 0
-1908 -1984 1830 0
-1908 -1985 1831 0
-1908 -1986 1832 0
-1908 -1987 1833 0
-1908 -1988 1834 0
-1908 -1989 1835 0
-1908 -1990 1836 0
-1908 -1991 1837 0
-1908 -1992 1838 0
-1908 -1993 1839 0
-1908 -1994 1840 0
-1908 -1995 1841 0
-1908 -1996 1842 0
-1908 -1997 1843 0
-1908 -1998 1844 0
-1908 -1999 1845 0
-1908 -2000 1846 0
-1908 -2001 1847 0
-1908 -2002 1848 0
-1908 -2003 1849 0
-1908 -2004 1850 0
-1909 -1947 1794 0
-1909 -1948 1795 0
-1909 -1949 1796 0
-1909 -1950 1797 0
-1909 -1951 1798 0
-1909 -1952 1799 0
-1909 -1953 1800 0
-1909 -1954 1801 0
-1909 -1955 1802 0
-1909 -1956 1803 0
-1909 -1957 1804 0
-1909 -1958 1805 0
-1909 -1959 1806 0
-1909 -1960 1807 0
-1909 -1961 1808 0
-1909 -1962 1809 0
-1909 -1963 1810 0
-1909 -1964 1811 0
-1909 -1965 1812 0
-1909 -1966 1813 0
-1909 -1967 1814 0
-1909 -1968 1815 0
-1909 -1969 1816 0
-1909 -1970 1817 0
-1909 -1971 1818 0
-1909 -1972 1819 0
-1909 -1973 1820 0
-1909 -1974 1821 0
-1909 -1975 1822 0
-1909 -1976 1823 0
-1909 -1977 1824 0
-1909 -1978 1825 0
-1909 -1979 1826 0
-1909 -1980 1827 0
-1909 -1981 1828 0
-1909 -1982 1829 0
-1909 -1983 1830 0
-1909 -1984 1831 0
-1909 -1985 1832 0
-1909 -1986 1833 0
-1909 -1987 1834 0
-1909 -1988 1835 0
-1909 -1989 1836 0
-1909 -1990 1837 0
-1909 -1991 1838 0
-1909 -1992 1839 0
-1909 -1993 1840 0
-1909 -1994 1841 0
-1909 -1995 1842 0
-1909 -1996 1843 0
-1909 -1997 1844 0
-1909 -1998 1845 0
-1909 -1999 1846 0
-1909 -2000 1847 0
-1909 -2001 1848 0
-1909 -2002 1849 0
-1909 -2003 1850 0
-1909 -2004 1851 0
-1910 -1947 1795 0
-1910 -1948 1796 0
-1910 -1949 1797 0
-1910 -1950 1798 0
-1910 -1951 1799 0
-1910 -1952 1800 0
-1910 -1953 1801 0
-1910 -1954 1802 0
-1910 -1955 1803 0
-1910 -1956 1804 0
-1910 -1957 1805 0
-1910 -1958 1806 0
-1910 -1959 1807 0
-1910 -1960 1808 0
-1910 -1961 1809 0
-1910 -1962 1810 0
-1910 -1963 1811 0
-1910 -1964 1812 0
-1910 -1965 1813 0
-1910 -1966 1814 0
-1910 -1967 1815 0
-1910 -1968 1816 0
-1910 -1969 1817 0
-1910 -1970 1818 0
-1910 -1971 1819 0
-1910 -1972 1820 0
-1910 -1973 1821 0
-1910 -1974 1822 0
-1910 -1975 1823 0
-1910 -1976 1824 0
-1910 -1977 1825 0
-1910 -1978 1826 0
-1910 -1979 1827 0
-1910 -1980 1828 0
-1910 -1981 1829 0
-1910 -1982 1830 0
-1910 -1983 1831 0
-1910 -1984 1832 0
-1910 -1985 1833 0
-1910 -1986 1834 0
-1910 -1987 1835 0
-1910 -1988 1836 0
-1910 -1989 1837 0
-1910 -1990 1838 0
-1910 -1991 1839 0
-1910 -1992 1840 0
-1910 -1993 1841 0
-1910 -1994 1842 0
-1910 -1995 1843 0
-1910 -1996 1844 0
-1910 -1997 1845 0
-1910 -1998 1846 0
-1910 -1999 1847 0
-1910 -2000 1848 0
-1910 -2001 1849 0
-1910 -2002 1850 0
-1910 -2003 1851 0
-1910 -2004 1852 0
-1911 -1947 1796 0
-1911 -1948 1797 0
-1911 -1949 1798 0
-1911 -1950 1799 0
-1911 -1951 1800 0
-1911 -1952 1801 0
-1911 -1953 1802 0
-1911 -1954 1803 0
-1911 -1955 1804 0
-1911 -1956 1805 0
-1911 -1957 1806 0
-1911 -1958 1807 0
-1911 -1959 1808 0
-1911 -1960 1809 0
-1911 -1961 1810 0
-1911 -1962 1811 0
-1911 -1963 1812 0
-1911 -1964 1813 0
-1911 -1965 1814 0
-1911 -1966 1815 0
-1911 -1967 1816 0
-1911 -1968 1817 0
-1911 -1969 1818 0
-1911 -1970 1819 0
-1911 -1971 1820 0
-1911 -1972 1821 0
-1911 -1973 1822 0
-1911 -1974 1823 0
-1911 -1975 1824 0
-1911 -1976 1825 0
-1911 -1977 1826 0
-1911 -1978 1827 0
-1911 -1979 1828 0
-1911 -1980 1829 0
-1911 -1981 1830 0
-1911 -1982 1831 0
-1911 -1983 1832 0
-1911 -1984 1833 0
-1911 -1985 1834 0
-1911 -1986 1835 0
-1911 -1987 1836 0
-1911 -1988 1837 0
-1911 -1989 1838 0
-1911 -1990 1839 0
-1911 -1991 1840 0
-1911 -1992 1841 0
-1911 -1993 1842 0
-1911 -1994 1843 0
-1911 -1995 1844 0
-1911 -1996 1845 0
-1911 -1997 1846 0
-1911 -1998 1847 0
-1911 -1999 1848 0
-1911 -2000 1849 0
-1911 -2001 1850 0
-1911 -2002 1851 0
-1911 -2003 1852 0
-1911 -2004 1853 0
-1912 -1947 1797 0
-1912 -1948 1798 0
-1912 -1949 1799 0
-1912 -1950 1800 0
-1912 -1951 1801 0
-1912 -1952 1802 0
-1912 -1953 1803 0
-1912 -1954 1804 0
-1912 -1955 1805 0
-1912 -1956 1806 0
-1912 -1957 1807 0
-1912 -1958 1808 0
-1912 -1959 1809 0
-1912 -1960 1810 0
-1912 -1961 1811 0
-1912 -1962 1812 0
-1912 -1963 1813 0
-1912 -1964 1814 0
-1912 -1965 1815 0
-1912 -1966 1816 0
-1912 -1967 1817 0
-1912 -1968 1818 0
-1912 -1969 1819 0
-1912 -1970 1820 0
-1912 -1971 1821 0
-1912 -1972 1822 0
-1912 -1973 1823 0
-1912 -1974 1824 0
-1912 -1975 1825 0
-1912 -1976 1826 0
-1912 -1977 1827 0
-1912 -1978 1828 0
-1912 -1979 1829 0
-1912 -1980 1830 0
-1912 -1981 1831 0
-1912 -1982 1832 0
-1912 -1983 1833 0
-1912 -1984 1834 0
-1912 -1985 1835 0
-1912 -1986 1836 0
-1912 -1987 1837 0
-1912 -1988 1838 0
-1912 -1989 1839 0
-1912 -1990 1840 0
-1912 -1991 1841 0
-1912 -1992 1842 0
-1912 -1993 1843 0
-1912 -1994 1844 0
-1912 -1995 1845 0
-1912 -1996 1846 0
-1912 -1997 1847 0
-1912 -1998 1848 0
-1912 -1999 1849 0
-1912 -2000 1850 0
-1912 -2001 1851 0
-1912 -2002 1852 0
-1912 -2003 1853 0
-1912 -2004 1854 0
-1913 -1947 1798 0
-1913 -1948 1799 0
-1913 -1949 1800 0
-1913 -1950 1801 0
-1913 -1951 1802 0
-1913 -1952 1803 0
-1913 -1953 1804 0
-1913 -1954 1805 0
-1913 -1955 1806 0
-1913 -1956 1807 0
-1913 -1957 1808 0
-1913 -1958 1809 0
-1913 -1959 1810 0
-1913 -1960 1811 0
-1913 -1961 1812 0
-1913 -1962 1813 0
-1913 -1963 1814 0
-1913 -1964 1815 0
-1913 -1965 1816 0
-1913 -1966 1817 0
-1913 -1967 1818 0
-1913 -1968 1819 0
-1913 -1969 1820 0
-1913 -1970 1821 0
-1913 -1971 1822 0
-1913 -1972 1823 0
-1913 -1973 1824 0
-1913 -1974 1825 0
-1913 -1975 1826 0
-1913 -1976 1827 0
-1913 -1977 1828 0
-1913 -1978 1829 0
-1913 -1979 1830 0
-1913 -1980 1831 0
-1913 -1981 1832 0
-1913 -1982 1833 0
-1913 -1983 1834 0
-1913 -1984 1835 0
-1913 -1985 1836 0
-1913 -1986 1837 0
-1913 -1987 1838 0
-1913 -1988 1839 0
-1913 -1989 1840 0
-1913 -1990 1841 0
-1913 -1991 1842 0
-1913 -1992 1843 0
-1913 -1993 1844 0
-1913 -1994 1845 0
-1913 -1995 1846 0
-1913 -1996 1847 0
-1913 -1997 1848 0
-1913 -1998 1849 0
-1913 -1999 1850 0
-1913 -2000 1851 0
-1913 -2001 1852 0
-1913 -2002 1853 0
-1913 -2003 1854 0
-1913 -2004 1855 0
-1914 -1947 1799 0
-1914 -1948 1800 0
-1914 -1949 1801 0
-1914 -1950 1802 0
-1914 -1951 1803 0
-1914 -1952 1804 0
-1914 -1953 1805 0
-1914 -1954 1806 0
-1914 -1955 1807 0
-1914 -1956 1808 0
-1914 -1957 1809 0
-1914 -1958 1810 0
-1914 -1959 1811 0
-1914 -1960 1812 0
-1914 -1961 1813 0
-1914 -1962 1814 0
-1914 -1963 1815 0
-1914 -1964 1816 0
-1914 -1965 1817 0
-1914 -1966 1818 0
-1914 -1967 1819 0
-1914 -1968 1820 0
-1914 -1969 1821 0
-1914 -1970 1822 0
-1914 -1971 1823 0
-1914 -1972 1824 0
-1914 -1973 1825 0
-1914 -1974 1826 0
-1914 -1975 1827 0
-1914 -1976 1828 0
-1914 -1977 1829 0
-1914 -1978 1830 0
-1914 -1979 1831 0
-1914 -1980 1832 0
-1914 -1981 1833 0
-1914 -1982 1834 0
-1914 -1983 1835 0
-1914 -1984 1836 0
-1914 -1985 1837 0
-1914 -1986 1838 0
-1914 -1987 1839 0
-1914 -1988 1840 0
-1914 -1989 1841 0
-1914 -1990 1842 0
-1914 -1991 1843 0
-1914 -1992 1844 0
-1914 -1993 1845 0
-1914 -1994 1846 0
-1914 -1995 1847 0
-1914 -1996 1848 0
-1914 -1997 1849 0
-1914 -1998 1850 0
-1914 -1999 1851 0
-1914 -2000 1852 0
-1914 -2001 1853 0
-1914 -2002 1854 0
-1914 -2003 1855 0
-1914 -2004 1856 0
-1915 -1947 1800 0
-1915 -1948 1801 0
-1915 -1949 1802 0
-1915 -1950 1803 0
-1915 -1951 1804 0
-1915 -1952 1805 0
-1915 -1953 1806 0
-1915 -1954 1807 0
-1915 -1955 1808 0
-1915 -1956 1809 0
-1915 -1957 1810 0
-1915 -1958 1811 0
-1915 -1959 1812 0
-1915 -1960 1813 0
-1915 -1961 1814 0
-1915 -1962 1815 0
-1915 -1963 1816 0
-1915 -1964 1817 0
-1915 -1965 1818 0
-1915 -1966 1819 0
-1915 -1967 1820 0
-1915 -1968 1821 0
-1915 -1969 1822 0
-1915 -1970 1823 0
-1915 -1971 1824 0
-1915 -1972 1825 0
-1915 -1973 1826 0
-1915 -1974 1827 0
-1915 -1975 1828 0
-1915 -1976 1829 0
-1915 -1977 1830 0
-1915 -1978 1831 0
-1915 -1979 1832 0
-1915 -1980 1833 0
-1915 -1981 1834 0
-1915 -1982 1835 0
-1915 -1983 1836 0
-1915 -1984 1837 0
-1915 -1985 1838 0
-1915 -1986 1839 0
-1915 -1987 1840 0
-1915 -1988 1841 0
-1915 -1989 1842 0
-1915 -1990 1843 0
-1915 -1991 1844 0
-1915 -1992 1845 0
-1915 -1993 1846 0
-1915 -1994 1847 0
-1915 -1995 1848 0
-1915 -1996 1849 0
-1915 -1997 1850 0
-1915 -1998 1851 0
-1915 -1999 1852 0
-1915 -2000 1853 0
-1915 -2001 1854 0
-1915 -2002 1855 0
-1915 -2003 1856 0
-1915 -2004 1857 0
-1916 -1947 1801 0
-1916 -1948 1802 0
-1916 -1949 1803 0
-1916 -1950 1804 0
-1916 -1951 1805 0
-1916 -1952 1806 0
-1916 -1953 1807 0
-1916 -1954 1808 0
-1916 -1955 1809 0
-1916 -1956 1810 0
-1916 -1957 1811 0
-1916 -1958 1812 0
-1916 -1959 1813 0
-1916 -1960 1814 0
-1916 -1961 1815 0
-1916 -1962 1816 0
-1916 -1963 1817 0
-1916 -1964 1818 0
-1916 -1965 1819 0
-1916 -1966 1820 0
-1916 -1967 1821 0
-1916 -1968 1822 0
-1916 -1969 1823 0
-1916 -1970 1824 0
-1916 -1971 1825 0
-1916 -1972 1826 0
-1916 -1973 1827 0
-1916 -1974 1828 0
-1916 -1975 1829 0
-1916 -1976 1830 0
-1916 -1977 1831 0
-1916 -1978 1832 0
-1916 -1979 1833 0
-1916 -1980 1834 0
-1916 -1981 1835 0
-1916 -1982 1836 0
-1916 -1983 1837 0
-1916 -1984 1838 0
-1916 -1985 1839 0
-1916 -1986 1840 0
-1916 -1987 1841 0
-1916 -1988 1842 0
-1916 -1989 1843 0
-1916 -1990 1844 0
-1916 -1991 1845 0
-1916 -1992 1846 0
-1916 -1993 1847 0
-1916 -1994 1848 0
-1916 -1995 1849 0
-1916 -1996 1850 0
-1916 -1997 1851 0
-1916 -1998 1852 0
-1916 -1999 1853 0
-1916 -2000 1854 0
-1916 -2001 1855 0
-1916 -2002 1856 0
-1916 -2003 1857 0
-1916 -2004 1858 0
-1917 -1947 1802 0
-1917 -1948 1803 0
-1917 -1949 1804 0
-1917 -1950 1805 0
-1917 -1951 1806 0
-1917 -1952 1807 0
-1917 -1953 1808 0
-1917 -1954 1809 0
-1917 -1955 1810 0
-1917 -1956 1811 0
-1917 -1957 1812 0
-1917 -1958 1813 0
-1917 -1959 1814 0
-1917 -1960 1815 0
-1917 -1961 1816 0
-1917 -1962 1817 0
-1917 -1963 1818 0
-1917 -1964 1819 0
-1917 -1965 1820 0
-1917 -1966 1821 0
-1917 -1967 1822 0
-1917 -1968 1823 0
-1917 -1969 1824 0
-1917 -1970 1825 0
-1917 -1971 1826 0
-1917 -1972 1827 0
-1917 -1973 1828 0
-1917 -1974 1829 0
-1917 -1975 1830 0
-1917 -1976 1831 0
-1917 -1977 1832 0
-1917 -1978 1833 0
-1917 -1979 1834 0
-1917 -1980 1835 0
-1917 -1981 1836 0
-1917 -1982 1837 0
-1917 -1983 1838 0
-1917 -1984 1839 0
-1917 -1985 1840 0
-1917 -1986 1841 0
-1917 -1987 1842 0
-1917 -1988 1843 0
-1917 -1989 1844 0
-1917 -1990 1845 0
-1917 -1991 1846 0
-1917 -1992 1847 0
-1917 -1993 1848 0
-1917 -1994 1849 0
-1917 -1995 1850 0
-1917 -1996 1851 0
-1917 -1997 1852 0
-1917 -1998 1853 0
-1917 -1999 1854 0
-1917 -2000 1855 0
-1917 -2001 1856 0
-1917 -2002 1857 0
-1917 -2003 1858 0
-1917 -2004 1859 0
-1918 -1947 1803 0
-1918 -1948 1804 0
-1918 -1949 1805 0
-1918 -1950 1806 0
-1918 -1951 1807 0
-1918 -1952 1808 0
-1918 -1953 1809 0
-1918 -1954 1810 0
-1918 -1955 1811 0
-1918 -1956 1812 0
-1918 -1957 1813 0
-1918 -1958 1814 0
-1918 -1959 1815 0
-1918 -1960 1816 0
-1918 -1961 1817 0
-1918 -1962 1818 0
-1918 -1963 1819 0
-1918 -1964 1820 0
-1918 -1965 1821 0
-1918 -1966 1822 0
-1918 -1967 1823 0
-1918 -1968 1824 0
-1918 -1969 1825 0
-1918 -1970 1826 0
-1918 -1971 1827 0
-1918 -1972 1828 0
-1918 -1973 1829 0
-1918 -1974 1830 0
-1918 -1975 1831 0
-1918 -1976 1832 0
-1918 -1977 1833 0
-1918 -1978 1834 0
-1918 -1979 1835 0
-1918 -1980 1836 0
-1918 -1981 1837 0
-1918 -1982 1838 0
-1918 -1983 1839 0
-1918 -1984 1840 0
-1918 -1985 1841 0
-1918 -1986 1842 0
-1918 -1987 1843 0
-1918 -1988 1844 0
-1918 -1989 1845 0
-1918 -1990 1846 0
-1918 -1991 1847 0
-1918 -1992 1848 0
-1918 -1993 1849 0
-1918 -1994 1850 0
-1918 -1995 1851 0
-1918 -1996 1852 0
-1918 -1997 1853 0
-1918 -1998 1854 0
-1918 -1999 1855 0
-1918 -2000 1856 0
-1918 -2001 1857 0
-1918 -2002 1858 0
-1918 -2003 1859 0
-1918 -2004 1860 0
-1919 -1947 1804 0
-1919 -1948 1805 0
-1919 -1949 1806 0
-1919 -1950 1807 0
-1919 -1951 1808 0
-1919 -1952 1809 0
-1919 -1953 1810 0
-1919 -1954 1811 0
-1919 -1955 1812 0
-1919 -1956 1813 0
-1919 -1957 1814 0
-1919 -1958 1815 0
-1919 -1959 1816 0
-1919 -1960 1817 0
-1919 -1961 1818 0
-1919 -1962 1819 0
-1919 -1963 1820 0
-1919 -1964 1821 0
-1919 -1965 1822 0
-1919 -1966 1823 0
-1919 -1967 1824 0
-1919 -1968 1825 0
-1919 -1969 1826 0
-1919 -1970 1827 0
-1919 -1971 1828 0
-1919 -1972 1829 0
-1919 -1973 1830 0
-1919 -1974 1831 0
-1919 -1975 1832 0
-1919 -1976 1833 0
-1919 -1977 1834 0
-1919 -1978 1835 0
-1919 -1979 1836 0
-1919 -1980 1837 0
-1919 -1981 1838 0
-1919 -1982 1839 0
-1919 -1983 1840 0
-1919 -1984 1841 0
-1919 -1985 1842 0
-1919 -1986 1843 0
-1919 -1987 1844 0
-1919 -1988 1845 0
-1919 -1989 1846 0
-1919 -1990 1847 0
-1919 -1991 1848 0
-1919 -1992 1849 0
-1919 -1993 1850 0
-1919 -1994 1851 0
-1919 -1995 1852 0
-1919 -1996 1853 0
-1919 -1997 1854 0
-1919 -1998 1855 0
-1919 -1999 1856 0
-1919 -2000 1857 0
-1919 -2001 1858 0
-1919 -2002 1859 0
-1919 -2003 1860 0
-1919 -2004 1861 0
-1920 -1947 1805 0
-1920 -1948 1806 0
-1920 -1949 1807 0
-1920 -1950 1808 0
-1920 -1951 1809 0
-1920 -1952 1810 0
-1920 -1953 1811 0
-1920 -1954 1812 0
-1920 -1955 1813 0
-1920 -1956 1814 0
-1920 -1957 1815 0
-1920 -1958 1816 0
-1920 -1959 1817 0
-1920 -1960 1818 0
-1920 -1961 1819 0
-1920 -1962 1820 0
-1920 -1963 1821 0
-1920 -1964 1822 0
-1920 -1965 1823 0
-1920 -1966 1824 0
-1920 -1967 1825 0
-1920 -1968 1826 0
-1920 -1969 1827 0
-1920 -1970 1828 0
-1920 -1971 1829 0
-1920 -1972 1830 0
-1920 -1973 1831 0
-1920 -1974 1832 0
-1920 -1975 1833 0
-1920 -1976 1834 0
-1920 -1977 1835 0
-1920 -1978 1836 0
-1920 -1979 1837 0
-1920 -1980 1838 0
-1920 -1981 1839 0
-1920 -1982 1840 0
-1920 -1983 1841 0
-1920 -1984 1842 0
-1920 -1985 1843 0
-1920 -1986 1844 0
-1920 -1987 1845 0
-1920 -1988 1846 0
-1920 -1989 1847 0
-1920 -1990 1848 0
-1920 -1991 1849 0
-1920 -1992 1850 0
-1920 -1993 1851 0
-1920 -1994 1852 0
-1920 -1995 1853 0
-1920 -1996 1854 0
-1920 -1997 1855 0
-1920 -1998 1856 0
-1920 -1999 1857 0
-1920 -2000 1858 0
-1920 -2001 1859 0
-1920 -2002 1860 0
-1920 -2003 1861 0
-1920 -2004 1862 0
-1921 -1947 1806 0
-1921 -1948 1807 0
-1921 -1949 1808 0
-1921 -1950 1809 0
-1921 -1951 1810 0
-1921 -1952 1811 0
-1921 -1953 1812 0
-1921 -1954 1813 0
-1921 -1955 1814 0
-1921 -1956 1815 0
-1921 -1957 1816 0
-1921 -1958 1817 0
-1921 -1959 1818 0
-1921 -1960 1819 0
-1921 -1961 1820 0
-1921 -1962 1821 0
-1921 -1963 1822 0
-1921 -1964 1823 0
-1921 -1965 1824 0
-1921 -1966 1825 0
-1921 -1967 1826 0
-1921 -1968 1827 0
-1921 -1969 1828 0
-1921 -1970 1829 0
-1921 -1971 1830 0
-1921 -1972 1831 0
-1921 -1973 1832 0
-1921 -1974 1833 0
-1921 -1975 1834 0
-1921 -1976 1835 0
-1921 -1977 1836 0
-1921 -1978 1837 0
-1921 -1979 1838 0
-1921 -1980 1839 0
-1921 -1981 1840 0
-1921 -1982 1841 0
-1921 -1983 1842 0
-1921 -1984 1843 0
-1921 -1985 1844 0
-1921 -1986 1845 0
-1921 -1987 1846 0
-1921 -1988 1847 0
-1921 -1989 1848 0
-1921 -1990 1849 0
-1921 -1991 1850 0
-1921 -1992 1851 0
-1921 -1993 1852 0
-1921 -1994 1853 0
-1921 -1995 1854 0
-1921 -1996 1855 0
-1921 -1997 1856 0
-1921 -1998 1857 0
-1921 -1999 1858 0
-1921 -2000 1859 0
-1921 -2001 1860 0
-1921 -2002 1861 0
-1921 -2003 1862 0
-1921 -2004 1863 0
-1922 -1947 1807 0
-1922 -1948 1808 0
-1922 -1949 1809 0
-1922 -1950 1810 0
-1922 -1951 1811 0
-1922 -1952 1812 0
-1922 -1953 1813 0
-1922 -1954 1814 0
-1922 -1955 1815 0
-1922 -1956 1816 0
-1922 -1957 1817 0
-1922 -1958 1818 0
-1922 -1959 1819 0
-1922 -1960 1820 0
-1922 -1961 1821 0
-1922 -1962 1822 0
-1922 -1963 1823 0
-1922 -1964 1824 0
-1922 -1965 1825 0
-1922 -1966 1826 0
-1922 -1967 1827 0
-1922 -1968 1828 0
-1922 -1969 1829 0
-1922 -1970 1830 0
-1922 -1971 1831 0
-1922 -1972 1832 0
-1922 -1973 1833 0
-1922 -1974 1834 0
-1922 -1975 1835 0
-1922 -1976 1836 0
-1922 -1977 1837 0
-1922 -1978 1838 0
-1922 -1979 1839 0
-1922 -1980 1840 0
-1922 -1981 1841 0
-1922 -1982 1842 0
-1922 -1983 1843 0
-1922 -1984 1844 0
-1922 -1985 1845 0
-1922 -1986 1846 0
-1922 -1987 1847 0
-1922 -1988 1848 0
-1922 -1989 1849 0
-1922 -1990 1850 0
-1922 -1991 1851 0
-1922 -1992 1852 0
-1922 -1993 1853 0
-1922 -1994 1854 0
-1922 -1995 1855 0
-1922 -1996 1856 0
-1922 -1997 1857 0
-1922 -1998 1858 0
-1922 -1999 1859 0
-1922 -2000 1860 0
-1922 -2001 1861 0
-1922 -2002 1862 0
-1922 -2003 1863 0
-1922 -2004 1864 0
-1923 -1947 1808 0
-1923 -1948 1809 0
-1923 -1949 1810 0
-1923 -1950 1811 0
-1923 -1951 1812 0
-1923 -1952 1813 0
-1923 -1953 1814 0
-1923 -1954 1815 0
-1923 -1955 1816 0
-1923 -1956 1817 0
-1923 -1957 1818 0
-1923 -1958 1819 0
-1923 -1959 1820 0
-1923 -1960 1821 0
-1923 -1961 1822 0
-1923 -1962 1823 0
-1923 -1963 1824 0
-1923 -1964 1825 0
-1923 -1965 1826 0
-1923 -1966 1827 0
-1923 -1967 1828 0
-1923 -1968 1829 0
-1923 -1969 1830 0
-1923 -1970 1831 0
-1923 -1971 1832 0
-1923 -1972 1833 0
-1923 -1973 1834 0
-1923 -1974 1835 0
-1923 -1975 1836 0
-1923 -1976 1837 0
-1923 -1977 1838 0
-1923 -1978 1839 0
-1923 -1979 1840 0
-1923 -1980 1841 0
-1923 -1981 1842 0
-1923 -1982 1843 0
-1923 -1983 1844 0
-1923 -1984 1845 0
-1923 -1985 1846 0
-1923 -1986 1847 0
-1923 -1987 1848 0
-1923 -1988 1849 0
-1923 -1989 1850 0
-1923 -1990 1851 0
-1923 -1991 1852 0
-1923 -1992 1853 0
-1923 -1993 1854 0
-1923 -1994 1855 0
-1923 -1995 1856 0
-1923 -1996 1857 0
-1923 -1997 1858 0
-1923 -1998 1859 0
-1923 -1999 1860 0
-1923 -2000 1861 0
-1923 -2001 1862 0
-1923 -2002 1863 0
-1923 -2003 1864 0
-1923 -2004 1865 0
-1924 -1947 1809 0
-1924 -1948 1810 0
-1924 -1949 1811 0
-1924 -1950 1812 0
-1924 -1951 1813 0
-1924 -1952 1814 0
-1924 -1953 1815 0
-1924 -1954 1816 0
-1924 -1955 1817 0
-1924 -1956 1818 0
-1924 -1957 1819 0
-1924 -1958 1820 0
-1924 -1959 1821 0
-1924 -1960 1822 0
-1924 -1961 1823 0
-1924 -1962 1824 0
-1924 -1963 1825 0
-1924 -1964 1826 0
-1924 -1965 1827 0
-1924 -1966 1828 0
-1924 -1967 1829 0
-1924 -1968 1830 0
-1924 -1969 1831 0
-1924 -1970 1832 0
-1924 -1971 1833 0
-1924 -1972 1834 0
-1924 -1973 1835 0
-1924 -1974 1836 0
-1924 -1975 1837 0
-1924 -1976 1838 0
-1924 -1977 1839 0
-1924 -1978 1840 0
-1924 -1979 1841 0
-1924 -1980 1842 0
-1924 -1981 1843 0
-1924 -1982 1844 0
-1924 -1983 1845 0
-1924 -1984 1846 0
-1924 -1985 1847 0
-1924 -1986 1848 0
-1924 -1987 1849 0
-1924 -1988 1850 0
-1924 -1989 1851 0
-1924 -1990 1852 0
-1924 -1991 1853 0
-1924 -1992 1854 0
-1924 -1993 1855 0
-1924 -1994 1856 0
-1924 -1995 1857 0
-1924 -1996 1858 0
-1924 -1997 1859 0
-1924 -1998 1860 0
-1924 -1999 1861 0
-1924 -2000 1862 0
-1924 -2001 1863 0
-1924 -2002 1864 0
-1924 -2003 1865 0
-1924 -2004 1866 0
-1925 -1947 1810 0
-1925 -1948 1811 0
-1925 -1949 1812 0
-1925 -1950 1813 0
-1925 -1951 1814 0
-1925 -1952 1815 0
-1925 -1953 1816 0
-1925 -1954 1817 0
-1925 -1955 1818 0
-1925 -1956 1819 0
-1925 -1957 1820 0
-1925 -1958 1821 0
-1925 -1959 1822 0
-1925 -1960 1823 0
-1925 -1961 1824 0
-1925 -1962 1825 0
-1925 -1963 1826 0
-1925 -1964 1827 0
-1925 -1965 1828 0
-1925 -1966 1829 0
-1925 -1967 1830 0
-1925 -1968 1831 0
-1925 -1969 1832 0
-1925 -1970 1833 0
-1925 -1971 1834 0
-1925 -1972 1835 0
-1925 -1973 1836 0
-1925 -1974 1837 0
-1925 -1975 1838 0
-1925 -1976 1839 0
-1925 -1977 1840 0
-1925 -1978 1841 0
-1925 -1979 1842 0
-1925 -1980 1843 0
-1925 -1981 1844 0
-1925 -1982 1845 0
-1925 -1983 1846 0
-1925 -1984 1847 0
-1925 -1985 1848 0
-1925 -1986 1849 0
-1925 -1987 1850 0
-1925 -1988 1851 0
-1925 -1989 1852 0
-1925 -1990 1853 0
-1925 -1991 1854 0
-1925 -1992 1855 0
-1925 -1993 1856 0
-1925 -1994 1857 0
-1925 -1995 1858 0
-1925 -1996 1859 0
-1925 -1997 1860 0
-1925 -1998 1861 0
-1925 -1999 1862 0
-1925 -2000 1863 0
-1925 -2001 1864 0
-1925 -2002 1865 0
-1925 -2003 1866 0
-1925 -2004 1867 0
-1926 -1947 1811 0
-1926 -1948 1812 0
-1926 -1949 1813 0
-1926 -1950 1814 0
-1926 -1951 1815 0
-1926 -1952 1816 0
-1926 -1953 1817 0
-1926 -1954 1818 0
-1926 -1955 1819 0
-1926 -1956 1820 0
-1926 -1957 1821 0
-1926 -1958 1822 0
-1926 -1959 1823 0
-1926 -1960 1824 0
-1926 -1961 1825 0
-1926 -1962 1826 0
-1926 -1963 1827 0
-1926 -1964 1828 0
-1926 -1965 1829 0
-1926 -1966 1830 0
-1926 -1967 1831 0
-1926 -1968 1832 0
-1926 -1969 1833 0
-1926 -1970 1834 0
-1926 -1971 1835 0
-1926 -1972 1836 0
-1926 -1973 1837 0
-1926 -1974 1838 0
-1926 -1975 1839 0
-1926 -1976 1840 0
-1926 -1977 1841 0
-1926 -1978 1842 0
-1926 -1979 1843 0
-1926 -1980 1844 0
-1926 -1981 1845 0
-1926 -1982 1846 0
-1926 -1983 1847 0
-1926 -1984 1848 0
-1926 -1985 1849 0
-1926 -1986 1850 0
-1926 -1987 1851 0
-1926 -1988 1852 0
-1926 -1989 1853 0
-1926 -1990 1854 0
-1926 -1991 1855 0
-1926 -1992 1856 0
-1926 -1993 1857 0
-1926 -1994 1858 0
-1926 -1995 1859 0
-1926 -1996 1860 0
-1926 -1997 1861 0
-1926 -1998 1862 0
-1926 -1999 1863 0
-1926 -2000 1864 0
-1926 -2001 1865 0
-1926 -2002 1866 0
-1926 -2003 1867 0
-1926 -2004 1868 0
-1927 -1947 1812 0
-1927 -1948 1813 0
-1927 -1949 1814 0
-1927 -1950 1815 0
-1927 -1951 1816 0
-1927 -1952 1817 0
-1927 -1953 1818 0
-1927 -1954 1819 0
-1927 -1955 1820 0
-1927 -1956 1821 0
-1927 -1957 1822 0
-1927 -1958 1823 0
-1927 -1959 1824 0
-1927 -1960 1825 0
-1927 -1961 1826 0
-1927 -1962 1827 0
-1927 -1963 1828 0
-1927 -1964 1829 0
-1927 -1965 1830 0
-1927 -1966 1831 0
-1927 -1967 1832 0
-1927 -1968 1833 0
-1927 -1969 1834 0
-1927 -1970 1835 0
-1927 -1971 1836 0
-1927 -1972 1837 0
-1927 -1973 1838 0
-1927 -1974 1839 0
-1927 -1975 1840 0
-1927 -1976 1841 0
-1927 -1977 1842 0
-1927 -1978 1843 0
-1927 -1979 1844 0
-1927 -1980 1845 0
-1927 -1981 1846 0
-1927 -1982 1847 0
-1927 -1983 1848 0
-1927 -1984 1849 0
-1927 -1985 1850 0
-1927 -1986 1851 0
-1927 -1987 1852 0
-1927 -1988 1853 0
-1927 -1989 1854 0
-1927 -1990 1855 0
-1927 -1991 1856 0
-1927 -1992 1857 0
-1927 -1993 1858 0
-1927 -1994 1859 0
-1927 -1995 1860 0
-1927 -1996 1861 0
-1927 -1997 1862 0
-1927 -1998 1863 0
-1927 -1999 1864 0
-1927 -2000 1865 0
-1927 -2001 1866 0
-1927 -2002 1867 0
-1927 -2003 1868 0
-1927 -2004 1869 0
-1928 -1947 1813 0
-1928 -1948 1814 0
-1928 -1949 1815 0
-1928 -1950 1816 0
-1928 -1951 1817 0
-1928 -1952 1818 0
-1928 -1953 1819 0
-1928 -1954 1820 0
-1928 -1955 1821 0
-1928 -1956 1822 0
-1928 -1957 1823 0
-1928 -1958 1824 0
-1928 -1959 1825 0
-1928 -1960 1826 0
-1928 -1961 1827 0
-1928 -1962 1828 0
-1928 -1963 1829 0
-1928 -1964 1830 0
-1928 -1965 1831 0
-1928 -1966 1832 0
-1928 -1967 1833 0
-1928 -1968 1834 0
-1928 -1969 1835 0
-1928 -1970 1836 0
-1928 -1971 1837 0
-1928 -1972 1838 0
-1928 -1973 1839 0
-1928 -1974 1840 0
-1928 -1975 1841 0
-1928 -1976 1842 0
-1928 -1977 1843 0
-1928 -1978 1844 0
-1928 -1979 1845 0
-1928 -1980 1846 0
-1928 -1981 1847 0
-1928 -1982 1848 0
-1928 -1983 1849 0
-1928 -1984 1850 0
-1928 -1985 1851 0
-1928 -1986 1852 0
-1928 -1987 1853 0
-1928 -1988 1854 0
-1928 -1989 1855 0
-1928 -1990 1856 0
-1928 -1991 1857 0
-1928 -1992 1858 0
-1928 -1993 1859 0
-1928 -1994 1860 0
-1928 -1995 1861 0
-1928 -1996 1862 0
-1928 -1997 1863 0
-1928 -1998 1864 0
-1928 -1999 1865 0
-1928 -2000 1866 0
-1928 -2001 1867 0
-1928 -2002 1868 0
-1928 -2003 1869 0
-1928 -2004 1870 0
-1929 -1947 1814 0
-1929 -1948 1815 0
-1929 -1949 1816 0
-1929 -1950 1817 0
-1929 -1951 1818 0
-1929 -1952 1819 0
-1929 -1953 1820 0
-1929 -1954 1821 0
-1929 -1955 1822 0
-1929 -1956 1823 0
-1929 -1957 1824 0
-1929 -1958 1825 0
-1929 -1959 1826 0
-1929 -1960 1827 0
-1929 -1961 1828 0
-1929 -1962 1829 0
-1929 -1963 1830 0
-1929 -1964 1831 0
-1929 -1965 1832 0
-1929 -1966 1833 0
-1929 -1967 1834 0
-1929 -1968 1835 0
-1929 -1969 1836 0
-1929 -1970 1837 0
-1929 -1971 1838 0
-1929 -1972 1839 0
-1929 -1973 1840 0
-1929 -1974 1841 0
-1929 -1975 1842 0
-1929 -1976 1843 0
-1929 -1977 1844 0
-1929 -1978 1845 0
-1929 -1979 1846 0
-1929 -1980 1847 0
-1929 -1981 1848 0
-1929 -1982 1849 0
-1929 -1983 1850 0
-1929 -1984 1851 0
-1929 -1985 1852 0
-1929 -1986 1853 0
-1929 -1987 1854 0
-1929 -1988 1855 0
-1929 -1989 1856 0
-1929 -1990 1857 0
-1929 -1991 1858 0
-1929 -1992 1859 0
-1929 -1993 1860 0
-1929 -1994 1861 0
-1929 -1995 1862 0
-1929 -1996 1863 0
-1929 -1997 1864 0
-1929 -1998 1865 0
-1929 -1999 1866 0
-1929 -2000 1867 0
-1929 -2001 1868 0
-1929 -2002 1869 0
-1929 -2003 1870 0
-1929 -2004 1871 0
-1930 -1947 1815 0
-1930 -1948 1816 0
-1930 -1949 1817 0
-1930 -1950 1818 0
-1930 -1951 1819 0
-1930 -1952 1820 0
-1930 -1953 1821 0
-1930 -1954 1822 0
-1930 -1955 1823 0
-1930 -1956 1824 0
-1930 -1957 1825 0
-1930 -1958 1826 0
-1930 -1959 1827 0
-1930 -1960 1828 0
-1930 -1961 1829 0
-1930 -1962 1830 0
-1930 -1963 1831 0
-1930 -1964 1832 0
-1930 -1965 1833 0
-1930 -1966 1834 0
-1930 -1967 1835 0
-1930 -1968 1836 0
-1930 -1969 1837 0
-1930 -1970 1838 0
-1930 -1971 1839 0
-1930 -1972 1840 0
-1930 -1973 1841 0
-1930 -1974 1842 0
-1930 -1975 1843 0
-1930 -1976 1844 0
-1930 -1977 1845 0
-1930 -1978 1846 0
-1930 -1979 1847 0
-1930 -1980 1848 0
-1930 -1981 1849 0
-1930 -1982 1850 0
-1930 -1983 1851 0
-1930 -1984 1852 0
-1930 -1985 1853 0
-1930 -1986 1854 0
-1930 -1987 1855 0
-1930 -1988 1856 0
-1930 -1989 1857 0
-1930 -1990 1858 0
-1930 -1991 1859 0
-1930 -1992 1860 0
-1930 -1993 1861 0
-1930 -1994 1862 0
-1930 -1995 1863 0
-1930 -1996 1864 0
-1930 -1997 1865 0
-1930 -1998 1866 0
-1930 -1999 1867 0
-1930 -2000 1868 0
-1930 -2001 1869 0
-1930 -2002 1870 0
-1930 -2003 1871 0
-1930 -2004 1872 0
-1931 -1947 1816 0
-1931 -1948 1817 0
-1931 -1949 1818 0
-1931 -1950 1819 0
-1931 -1951 1820 0
-1931 -1952 1821 0
-1931 -1953 1822 0
-1931 -1954 1823 0
-1931 -1955 1824 0
-1931 -1956 1825 0
-1931 -1957 1826 0
-1931 -1958 1827 0
-1931 -1959 1828 0
-1931 -1960 1829 0
-1931 -1961 1830 0
-1931 -1962 1831 0
-1931 -1963 1832 0
-1931 -1964 1833 0
-1931 -1965 1834 0
-1931 -1966 1835 0
-1931 -1967 1836 0
-1931 -1968 1837 0
-1931 -1969 1838 0
-1931 -1970 1839 0
-1931 -1971 1840 0
-1931 -1972 1841 0
-1931 -1973 1842 0
-1931 -1974 1843 0
-1931 -1975 1844 0
-1931 -1976 1845 0
-1931 -1977 1846 0
-1931 -1978 1847 0
-1931 -1979 1848 0
-1931 -1980 1849 0
-1931 -1981 1850 0
-1931 -1982 1851 0
-1931 -1983 1852 0
-1931 -1984 1853 0
-1931 -1985 1854 0
-1931 -1986 1855 0
-1931 -1987 1856 0
-1931 -1988 1857 0
-1931 -1989 1858 0
-1931 -1990 1859 0
-1931 -1991 1860 0
-1931 -1992 1861 0
-1931 -1993 1862 0
-1931 -1994 1863 0
-1931 -1995 1864 0
-1931 -1996 1865 0
-1931 -1997 1866 0
-1931 -1998 1867 0
-1931 -1999 1868 0
-1931 -2000 1869 0
-1931 -2001 1870 0
-1931 -2002 1871 0
-1931 -2003 1872 0
-1931 -2004 1873 0
-1932 -1947 1817 0
-1932 -1948 1818 0
-1932 -1949 1819 0
-1932 -1950 1820 0
-1932 -1951 1821 0
-1932 -1952 1822 0
-1932 -1953 1823 0
-1932 -1954 1824 0
-1932 -1955 1825 0
-1932 -1956 1826 0
-1932 -1957 1827 0
-1932 -1958 1828 0
-1932 -1959 1829 0
-1932 -1960 1830 0
-1932 -1961 1831 0
-1932 -1962 1832 0
-1932 -1963 1833 0
-1932 -1964 1834 0
-1932 -1965 1835 0
-1932 -1966 1836 0
-1932 -1967 1837 0
-1932 -1968 1838 0
-1932 -1969 1839 0
-1932 -1970 1840 0
-1932 -1971 1841 0
-1932 -1972 1842 0
-1932 -1973 1843 0
-1932 -1974 1844 0
-1932 -1975 1845 0
-1932 -1976 1846 0
-1932 -1977 1847 0
-1932 -1978 1848 0
-1932 -1979 1849 0
-1932 -1980 1850 0
-1932 -1981 1851 0
-1932 -1982 1852 0
-1932 -1983 1853 0
-1932 -1984 1854 0
-1932 -1985 1855 0
-1932 -1986 1856 0
-1932 -1987 1857 0
-1932 -1988 1858 0
-1932 -1989 1859 0
-1932 -1990 1860 0
-1932 -1991 1861 0
-1932 -1992 1862 0
-1932 -1993 1863 0
-1932 -1994 1864 0
-1932 -1995 1865 0
-1932 -1996 1866 0
-1932 -1997 1867 0
-1932 -1998 1868 0
-1932 -1999 1869 0
-1932 -2000 1870 0
-1932 -2001 1871 0
-1932 -2002 1872 0
-1932 -2003 1873 0
-1932 -2004 1874 0
-1933 -1947 1818 0
-1933 -1948 1819 0
-1933 -1949 1820 0
-1933 -1950 1821 0
-1933 -1951 1822 0
-1933 -1952 1823 0
-1933 -1953 1824 0
-1933 -1954 1825 0
-1933 -1955 1826 0
-1933 -1956 1827 0
-1933 -1957 1828 0
-1933 -1958 1829 0
-1933 -1959 1830 0
-1933 -1960 1831 0
-1933 -1961 1832 0
-1933 -1962 1833 0
-1933 -1963 1834 0
-1933 -1964 1835 0
-1933 -1965 1836 0
-1933 -1966 1837 0
-1933 -1967 1838 0
-1933 -1968 1839 0
-1933 -1969 1840 0
-1933 -1970 1841 0
-1933 -1971 1842 0
-1933 -1972 1843 0
-1933 -1973 1844 0
-1933 -1974 1845 0
-1933 -1975 1846 0
-1933 -1976 1847 0
-1933 -1977 1848 0
-1933 -1978 1849 0
-1933 -1979 1850 0
-1933 -1980 1851 0
-1933 -1981 1852 0
-1933 -1982 1853 0
-1933 -1983 1854 0
-1933 -1984 1855 0
-1933 -1985 1856 0
-1933 -1986 1857 0
-1933 -1987 1858 0
-1933 -1988 1859 0
-1933 -1989 1860 0
-1933 -1990 1861 0
-1933 -1991 1862 0
-1933 -1992 1863 0
-1933 -1993 1864 0
-1933 -1994 1865 0
-1933 -1995 1866 0
-1933 -1996 1867 0
-1933 -1997 1868 0
-1933 -1998 1869 0
-1933 -1999 1870 0
-1933 -2000 1871 0
-1933 -2001 1872 0
-1933 -2002 1873 0
-1933 -2003 1874 0
-1933 -2004 1875 0
-1934 -1947 1819 0
-1934 -1948 1820 0
-1934 -1949 1821 0
-1934 -1950 1822 0
-1934 -1951 1823 0
-1934 -1952 1824 0
-1934 -1953 1825 0
-1934 -1954 1826 0
-1934 -1955 1827 0
-1934 -1956 1828 0
-1934 -1957 1829 0
-1934 -1958 1830 0
-1934 -1959 1831 0
-1934 -1960 1832 0
-1934 -1961 1833 0
-1934 -1962 1834 0
-1934 -1963 1835 0
-1934 -1964 1836 0
-1934 -1965 1837 0
-1934 -1966 1838 0
-1934 -1967 1839 0
-1934 -1968 1840 0
-1934 -1969 1841 0
-1934 -1970 1842 0
-1934 -1971 1843 0
-1934 -1972 1844 0
-1934 -1973 1845 0
-1934 -1974 1846 0
-1934 -1975 1847 0
-1934 -1976 1848 0
-1934 -1977 1849 0
-1934 -1978 1850 0
-1934 -1979 1851 0
-1934 -1980 1852 0
-1934 -1981 1853 0
-1934 -1982 1854 0
-1934 -1983 1855 0
-1934 -1984 1856 0
-1934 -1985 1857 0
-1934 -1986 1858 0
-1934 -1987 1859 0
-1934 -1988 1860 0
-1934 -1989 1861 0
-1934 -1990 1862 0
-1934 -1991 1863 0
-1934 -1992 1864 0
-1934 -1993 1865 0
-1934 -1994 1866 0
-1934 -1995 1867 0
-1934 -1996 1868 0
-1934 -1997 1869 0
-1934 -1998 1870 0
-1934 -1999 1871 0
-1934 -2000 1872 0
-1934 -2001 1873 0
-1934 -2002 1874 0
-1934 -2003 1875 0
-1934 -2004 1876 0
-1935 -1947 1820 0
-1935 -1948 1821 0
-1935 -1949 1822 0
-1935 -1950 1823 0
-1935 -1951 1824 0
-1935 -1952 1825 0
-1935 -1953 1826 0
-1935 -1954 1827 0
-1935 -1955 1828 0
-1935 -1956 1829 0
-1935 -1957 1830 0
-1935 -1958 1831 0
-1935 -1959 1832 0
-1935 -1960 1833 0
-1935 -1961 1834 0
-1935 -1962 1835 0
-1935 -1963 1836 0
-1935 -1964 1837 0
-1935 -1965 1838 0
-1935 -1966 1839 0
-1935 -1967 1840 0
-1935 -1968 1841 0
-1935 -1969 1842 0
-1935 -1970 1843 0
-1935 -1971 1844 0
-1935 -1972 1845 0
-1935 -1973 1846 0
-1935 -1974 1847 0
-1935 -1975 1848 0
-1935 -1976 1849 0
-1935 -1977 1850 0
-1935 -1978 1851 0
-1935 -1979 1852 0
-1935 -1980 1853 0
-1935 -1981 1854 0
-1935 -1982 1855 0
-1935 -1983 1856 0
-1935 -1984 1857 0
-1935 -1985 1858 0
-1935 -1986 1859 0
-1935 -1987 1860 0
-1935 -1988 1861 0
-1935 -1989 1862 0
-1935 -1990 1863 0
-1935 -1991 1864 0
-1935 -1992 1865 0
-1935 -1993 1866 0
-1935 -1994 1867 0
-1935 -1995 1868 0
-1935 -1996 1869 0
-1935 -1997 1870 0
-1935 -1998 1871 0
-1935 -1999 1872 0
-1935 -2000 1873 0
-1935 -2001 1874 0
-1935 -2002 1875 0
-1935 -2003 1876 0
-1935 -2004 1877 0
-1936 -1947 1821 0
-1936 -1948 1822 0
-1936 -1949 1823 0
-1936 -1950 1824 0
-1936 -1951 1825 0
-1936 -1952 1826 0
-1936 -1953 1827 0
-1936 -1954 1828 0
-1936 -1955 1829 0
-1936 -1956 1830 0
-1936 -1957 1831 0
-1936 -1958 1832 0
-1936 -1959 1833 0
-1936 -1960 1834 0
-1936 -1961 1835 0
-1936 -1962 1836 0
-1936 -1963 1837 0
-1936 -1964 1838 0
-1936 -1965 1839 0
-1936 -1966 1840 0
-1936 -1967 1841 0
-1936 -1968 1842 0
-1936 -1969 1843 0
-1936 -1970 1844 0
-1936 -1971 1845 0
-1936 -1972 1846 0
-1936 -1973 1847 0
-1936 -1974 1848 0
-1936 -1975 1849 0
-1936 -1976 1850 0
-1936 -1977 1851 0
-1936 -1978 1852 0
-1936 -1979 1853 0
-1936 -1980 1854 0
-1936 -1981 1855 0
-1936 -1982 1856 0
-1936 -1983 1857 0
-1936 -1984 1858 0
-1936 -1985 1859 0
-1936 -1986 1860 0
-1936 -1987 1861 0
-1936 -1988 1862 0
-1936 -1989 1863 0
-1936 -1990 1864 0
-1936 -1991 1865 0
-1936 -1992 1866 0
-1936 -1993 1867 0
-1936 -1994 1868 0
-1936 -1995 1869 0
-1936 -1996 1870 0
-1936 -1997 1871 0
-1936 -1998 1872 0
-1936 -1999 1873 0
-1936 -2000 1874 0
-1936 -2001 1875 0
-1936 -2002 1876 0
-1936 -2003 1877 0
-1936 -2004 1878 0
-1937 -1947 1822 0
-1937 -1948 1823 0
-1937 -1949 1824 0
-1937 -1950 1825 0
-1937 -1951 1826 0
-1937 -1952 1827 0
-1937 -1953 1828 0
-1937 -1954 1829 0
-1937 -1955 1830 0
-1937 -1956 1831 0
-1937 -1957 1832 0
-1937 -1958 1833 0
-1937 -1959 1834 0
-1937 -1960 1835 0
-1937 -1961 1836 0
-1937 -1962 1837 0
-1937 -1963 1838 0
-1937 -1964 1839 0
-1937 -1965 1840 0
-1937 -1966 1841 0
-1937 -1967 1842 0
-1937 -1968 1843 0
-1937 -1969 1844 0
-1937 -1970 1845 0
-1937 -1971 1846 0
-1937 -1972 1847 0
-1937 -1973 1848 0
-1937 -1974 1849 0
-1937 -1975 1850 0
-1937 -1976 1851 0
-1937 -1977 1852 0
-1937 -1978 1853 0
-1937 -1979 1854 0
-1937 -1980 1855 0
-1937 -1981 1856 0
-1937 -1982 1857 0
-1937 -1983 1858 0
-1937 -1984 1859 0
-1937 -1985 1860 0
-1937 -1986 1861 0
-1937 -1987 1862 0
-1937 -1988 1863 0
-1937 -1989 1864 0
-1937 -1990 1865 0
-1937 -1991 1866 0
-1937 -1992 1867 0
-1937 -1993 1868 0
-1937 -1994 1869 0
-1937 -1995 1870 0
-1937 -1996 1871 0
-1937 -1997 1872 0
-1937 -1998 1873 0
-1937 -1999 1874 0
-1937 -2000 1875 0
-1937 -2001 1876 0
-1937 -2002 1877 0
-1937 -2003 1878 0
-1937 -2004 1879 0
-1938 -1947 1823 0
-1938 -1948 1824 0
-1938 -1949 1825 0
-1938 -1950 1826 0
-1938 -1951 1827 0
-1938 -1952 1828 0
-1938 -1953 1829 0
-1938 -1954 1830 0
-1938 -1955 1831 0
-1938 -1956 1832 0
-1938 -1957 1833 0
-1938 -1958 1834 0
-1938 -1959 1835 0
-1938 -1960 1836 0
-1938 -1961 1837 0
-1938 -1962 1838 0
-1938 -1963 1839 0
-1938 -1964 1840 0
-1938 -1965 1841 0
-1938 -1966 1842 0
-1938 -1967 1843 0
-1938 -1968 1844 0
-1938 -1969 1845 0
-1938 -1970 1846 0
-1938 -1971 1847 0
-1938 -1972 1848 0
-1938 -1973 1849 0
-1938 -1974 1850 0
-1938 -1975 1851 0
-1938 -1976 1852 0
-1938 -1977 1853 0
-1938 -1978 1854 0
-1938 -1979 1855 0
-1938 -1980 1856 0
-1938 -1981 1857 0
-1938 -1982 1858 0
-1938 -1983 1859 0
-1938 -1984 1860 0
-1938 -1985 1861 0
-1938 -1986 1862 0
-1938 -1987 1863 0
-1938 -1988 1864 0
-1938 -1989 1865 0
-1938 -1990 1866 0
-1938 -1991 1867 0
-1938 -1992 1868 0
-1938 -1993 1869 0
-1938 -1994 1870 0
-1938 -1995 1871 0
-1938 -1996 1872 0
-1938 -1997 1873 0
-1938 -1998 1874 0
-1938 -1999 1875 0
-1938 -2000 1876 0
-1938 -2001 1877 0
-1938 -2002 1878 0
-1938 -2003 1879 0
-1938 -2004 1880 0
-1939 -1947 1824 0
-1939 -1948 1825 0
-1939 -1949 1826 0
-1939 -1950 1827 0
-1939 -1951 1828 0
-1939 -1952 1829 0
-1939 -1953 1830 0
-1939 -1954 1831 0
-1939 -1955 1832 0
-1939 -1956 1833 0
-1939 -1957 1834 0
-1939 -1958 1835 0
-1939 -1959 1836 0
-1939 -1960 1837 0
-1939 -1961 1838 0
-1939 -1962 1839 0
-1939 -1963 1840 0
-1939 -1964 1841 0
-1939 -1965 1842 0
-1939 -1966 1843 0
-1939 -1967 1844 0
-1939 -1968 1845 0
-1939 -1969 1846 0
-1939 -1970 1847 0
-1939 -1971 1848 0
-1939 -1972 1849 0
-1939 -1973 1850 0
-1939 -1974 1851 0
-1939 -1975 1852 0
-1939 -1976 1853 0
-1939 -1977 1854 0
-1939 -1978 1855 0
-1939 -1979 1856 0
-1939 -1980 1857 0
-1939 -1981 1858 0
-1939 -1982 1859 0
-1939 -1983 1860 0
-1939 -1984 1861 0
-1939 -1985 1862 0
-1939 -1986 1863 0
-1939 -1987 1864 0
-1939 -1988 1865 0
-1939 -1989 1866 0
-1939 -1990 1867 0
-1939 -1991 1868 0
-1939 -1992 1869 0
-1939 -1993 1870 0
-1939 -1994 1871 0
-1939 -1995 1872 0
-1939 -1996 1873 0
-1939 -1997 1874 0
-1939 -1998 1875 0
-1939 -1999 1876 0
-1939 -2000 1877 0
-1939 -2001 1878 0
-1939 -2002 1879 0
-1939 -2003 1880 0
-1939 -2004 1881 0
-1940 -1947 1825 0
-1940 -1948 1826 0
-1940 -1949 1827 0
-1940 -1950 1828 0
-1940 -1951 1829 0
-1940 -1952 1830 0
-1940 -1953 1831 0
-1940 -1954 1832 0
-1940 -1955 1833 0
-1940 -1956 1834 0
-1940 -1957 1835 0
-1940 -1958 1836 0
-1940 -1959 1837 0
-1940 -1960 1838 0
-1940 -1961 1839 0
-1940 -1962 1840 0
-1940 -1963 1841 0
-1940 -1964 1842 0
-1940 -1965 1843 0
-1940 -1966 1844 0
-1940 -1967 1845 0
-1940 -1968 1846 0
-1940 -1969 1847 0
-1940 -1970 1848 0
-1940 -1971 1849 0
-1940 -1972 1850 0
-1940 -1973 1851 0
-1940 -1974 1852 0
-1940 -1975 1853 0
-1940 -1976 1854 0
-1940 -1977 1855 0
-1940 -1978 1856 0
-1940 -1979 1857 0
-1940 -1980 1858 0
-1940 -1981 1859 0
-1940 -1982 1860 0
-1940 -1983 1861 0
-1940 -1984 1862 0
-1940 -1985 1863 0
-1940 -1986 1864 0
-1940 -1987 1865 0
-1940 -1988 1866 0
-1940 -1989 1867 0
-1940 -1990 1868 0
-1940 -1991 1869 0
-1940 -1992 1870 0
-1940 -1993 1871 0
-1940 -1994 1872 0
-1940 -1995 1873 0
-1940 -1996 1874 0
-1940 -1997 1875 0
-1940 -1998 1876 0
-1940 -1999 1877 0
-1940 -2000 1878 0
-1940 -2001 1879 0
-1940 -2002 1880 0
-1940 -2003 1881 0
-1940 -2004 1882 0
-1941 -1947 1826 0
-1941 -1948 1827 0
-1941 -1949 1828 0
-1941 -1950 1829 0
-1941 -1951 1830 0
-1941 -1952 1831 0
-1941 -1953 1832 0
-1941 -1954 1833 0
-1941 -1955 1834 0
-1941 -1956 1835 0
-1941 -1957 1836 0
-1941 -1958 1837 0
-1941 -1959 1838 0
-1941 -1960 1839 0
-1941 -1961 1840 0
-1941 -1962 1841 0
-1941 -1963 1842 0
-1941 -1964 1843 0
-1941 -1965 1844 0
-1941 -1966 1845 0
-1941 -1967 1846 0
-1941 -1968 1847 0
-1941 -1969 1848 0
-1941 -1970 1849 0
-1941 -1971 1850 0
-1941 -1972 1851 0
-1941 -1973 1852 0
-1941 -1974 1853 0
-1941 -1975 1854 0
-1941 -1976 1855 0
-1941 -1977 1856 0
-1941 -1978 1857 0
-1941 -1979 1858 0
-1941 -1980 1859 0
-1941 -1981 1860 0
-1941 -1982 1861 0
-1941 -1983 1862 0
-1941 -1984 1863 0
-1941 -1985 1864 0
-1941 -1986 1865 0
-1941 -1987 1866 0
-1941 -1988 1867 0
-1941 -1989 1868 0
-1941 -1990 1869 0
-1941 -1991 1870 0
-1941 -1992 1871 0
-1941 -1993 1872 0
-1941 -1994 1873 0
-1941 -1995 1874 0
-1941 -1996 1875 0
-1941 -1997 1876 0
-1941 -1998 1877 0
-1941 -1999 1878 0
-1941 -2000 1879 0
-1941 -2001 1880 0
-1941 -2002 1881 0
-1941 -2003 1882 0
-1941 -2004 1883 0
-1942 -1947 1827 0
-1942 -1948 1828 0
-1942 -1949 1829 0
-1942 -1950 1830 0
-1942 -1951 1831 0
-1942 -1952 1832 0
-1942 -1953 1833 0
-1942 -1954 1834 0
-1942 -1955 1835 0
-1942 -1956 1836 0
-1942 -1957 1837 0
-1942 -1958 1838 0
-1942 -1959 1839 0
-1942 -1960 1840 0
-1942 -1961 1841 0
-1942 -1962 1842 0
-1942 -1963 1843 0
-1942 -1964 1844 0
-1942 -1965 1845 0
-1942 -1966 1846 0
-1942 -1967 1847 0
-1942 -1968 1848 0
-1942 -1969 1849 0
-1942 -1970 1850 0
-1942 -1971 1851 0
-1942 -1972 1852 0
-1942 -1973 1853 0
-1942 -1974 1854 0
-1942 -1975 1855 0
-1942 -1976 1856 0
-1942 -1977 1857 0
-1942 -1978 1858 0
-1942 -1979 1859 0
-1942 -1980 1860 0
-1942 -1981 1861 0
-1942 -1982 1862 0
-1942 -1983 1863 0
-1942 -1984 1864 0
-1942 -1985 1865 0
-1942 -1986 1866 0
-1942 -1987 1867 0
-1942 -1988 1868 0
-1942 -1989 1869 0
-1942 -1990 1870 0
-1942 -1991 1871 0
-1942 -1992 1872 0
-1942 -1993 1873 0
-1942 -1994 1874 0
-1942 -1995 1875 0
-1942 -1996 1876 0
-1942 -1997 1877 0
-1942 -1998 1878 0
-1942 -1999 1879 0
-1942 -2000 1880 0
-1942 -2001 1881 0
-1942 -2002 1882 0
-1942 -2003 1883 0
-1942 -2004 1884 0
-1943 -1947 1828 0
-1943 -1948 1829 0
-1943 -1949 1830 0
-1943 -1950 1831 0
-1943 -1951 1832 0
-1943 -1952 1833 0
-1943 -1953 1834 0
-1943 -1954 1835 0
-1943 -1955 1836 0
-1943 -1956 1837 0
-1943 -1957 1838 0
-1943 -1958 1839 0
-1943 -1959 1840 0
-1943 -1960 1841 0
-1943 -1961 1842 0
-1943 -1962 1843 0
-1943 -1963 1844 0
-1943 -1964 1845 0
-1943 -1965 1846 0
-1943 -1966 1847 0
-1943 -1967 1848 0
-1943 -1968 1849 0
-1943 -1969 1850 0
-1943 -1970 1851 0
-1943 -1971 1852 0
-1943 -1972 1853 0
-1943 -1973 1854 0
-1943 -1974 1855 0
-1943 -1975 1856 0
-1943 -1976 1857 0
-1943 -1977 1858 0
-1943 -1978 1859 0
-1943 -1979 1860 0
-1943 -1980 1861 0
-1943 -1981 1862 0
-1943 -1982 1863 0
-1943 -1983 1864 0
-1943 -1984 1865 0
-1943 -1985 1866 0
-1943 -1986 1867 0
-1943 -1987 1868 0
-1943 -1988 1869 0
-1943 -1989 1870 0
-1943 -1990 1871 0
-1943 -1991 1872 0
-1943 -1992 1873 0
-1943 -1993 1874 0
-1943 -1994 1875 0
-1943 -1995 1876 0
-1943 -1996 1877 0
-1943 -1997 1878 0
-1943 -1998 1879 0
-1943 -1999 1880 0
-1943 -2000 1881 0
-1943 -2001 1882 0
-1943 -2002 1883 0
-1943 -2003 1884 0
-1943 -2004 1885 0
-1944 -1947 1829 0
-1944 -1948 1830 0
-1944 -1949 1831 0
-1944 -1950 1832 0
-1944 -1951 1833 0
-1944 -1952 1834 0
-1944 -1953 1835 0
-1944 -1954 1836 0
-1944 -1955 1837 0
-1944 -1956 1838 0
-1944 -1957 1839 0
-1944 -1958 1840 0
-1944 -1959 1841 0
-1944 -1960 1842 0
-1944 -1961 1843 0
-1944 -1962 1844 0
-1944 -1963 1845 0
-1944 -1964 1846 0
-1944 -1965 1847 0
-1944 -1966 1848 0
-1944 -1967 1849 0
-1944 -1968 1850 0
-1944 -1969 1851 0
-1944 -1970 1852 0
-1944 -1971 1853 0
-1944 -1972 1854 0
-1944 -1973 1855 0
-1944 -1974 1856 0
-1944 -1975 1857 0
-1944 -1976 1858 0
-1944 -1977 1859 0
-1944 -1978 1860 0
-1944 -1979 1861 0
-1944 -1980 1862 0
-1944 -1981 1863 0
-1944 -1982 1864 0
-1944 -1983 1865 0
-1944 -1984 1866 0
-1944 -1985 1867 0
-1944 -1986 1868 0
-1944 -1987 1869 0
-1944 -1988 1870 0
-1944 -1989 1871 0
-1944 -1990 1872 0
-1944 -1991 1873 0
-1944 -1992 1874 0
-1944 -1993 1875 0
-1944 -1994 1876 0
-1944 -1995 1877 0
-1944 -1996 1878 0
-1944 -1997 1879 0
-1944 -1998 1880 0
-1944 -1999 1881 0
-1944 -2000 1882 0
-1944 -2001 1883 0
-1944 -2002 1884 0
-1944 -2003 1885 0
-1944 -2004 1886 0
-1945 -1947 1830 0
-1945 -1948 1831 0
-1945 -1949 1832 0
-1945 -1950 1833 0
-1945 -1951 1834 0
-1945 -1952 1835 0
-1945 -1953 1836 0
-1945 -1954 1837 0
-1945 -1955 1838 0
-1945 -1956 1839 0
-1945 -1957 1840 0
-1945 -1958 1841 0
-1945 -1959 1842 0
-1945 -1960 1843 0
-1945 -1961 1844 0
-1945 -1962 1845 0
-1945 -1963 1846 0
-1945 -1964 1847 0
-1945 -1965 1848 0
-1945 -1966 1849 0
-1945 -1967 1850 0
-1945 -1968 1851 0
-1945 -1969 1852 0
-1945 -1970 1853 0
-1945 -1971 1854 0
-1945 -1972 1855 0
-1945 -1973 1856 0
-1945 -1974 1857 0
-1945 -1975 1858 0
-1945 -1976 1859 0
-1945 -1977 1860 0
-1945 -1978 1861 0
-1945 -1979 1862 0
-1945 -1980 1863 0
-1945 -1981 1864 0
-1945 -1982 1865 0
-1945 -1983 1866 0
-1945 -1984 1867 0
-1945 -1985 1868 0
-1945 -1986 1869 0
-1945 -1987 1870 0
-1945 -1988 1871 0
-1945 -1989 1872 0
-1945 -1990 1873 0
-1945 -1991 1874 0
-1945 -1992 1875 0
-1945 -1993 1876 0
-1945 -1994 1877 0
-1945 -1995 1878 0
-1945 -1996 1879 0
-1945 -1997 1880 0
-1945 -1998 1881 0
-1945 -1999 1882 0
-1945 -2000 1883 0
-1945 -2001 1884 0
-1945 -2002 1885 0
-1945 -2003 1886 0
-1945 -2004 1887 0
-1946 -1947 1831 0
-1946 -1948 1832 0
-1946 -1949 1833 0
-1946 -1950 1834 0
-1946 -1951 1835 0
-1946 -1952 1836 0
-1946 -1953 1837 0
-1946 -1954 1838 0
-1946 -1955 1839 0
-1946 -1956 1840 0
-1946 -1957 1841 0
-1946 -1958 1842 0
-1946 -1959 1843 0
-1946 -1960 1844 0
-1946 -1961 1845 0
-1946 -1962 1846 0
-1946 -1963 1847 0
-1946 -1964 1848 0
-1946 -1965 1849 0
-1946 -1966 1850 0
-1946 -1967 1851 0
-1946 -1968 1852 0
-1946 -1969 1853 0
-1946 -1970 1854 0
-1946 -1971 1855 0
-1946 -1972 1856 0
-1946 -1973 1857 0
-1946 -1974 1858 0
-1946 -1975 1859 0
-1946 -1976 1860 0
-1946 -1977 1861 0
-1946 -1978 1862 0
-1946 -1979 1863 0
-1946 -1980 1864 0
-1946 -1981 1865 0
-1946 -1982 1866 0
-1946 -1983 1867 0
-1946 -1984 1868 0
-1946 -1985 1869 0
-1946 -1986 1870 0
-1946 -1987 1871 0
-1946 -1988 1872 0
-1946 -1989 1873 0
-1946 -1990 1874 0
-1946 -1991 1875 0
-1946 -1992 1876 0
-1946 -1993 1877 0
-1946 -1994 1878 0
-1946 -1995 1879 0
-1946 -1996 1880 0
-1946 -1997 1881 0
-1946 -1998 1882 0
-1946 -1999 1883 0
-1946 -2000 1884 0
-1946 -2001 1885 0
-1946 -2002 1886 0
-1946 -2003 1887 0
-1946 -2004 1888 0
-2034 1947 0
-2035 1948 0
-2036 1949 0
-2037 1950 0
-2038 1951 0
-2039 1952 0
-2040 1953 0
-2041 1954 0
-2042 1955 0
-2043 1956 0
-2044 1957 0
-2045 1958 0
-2046 1959 0
-2047 1960 0
-2048 1961 0
-2049 1962 0
-2050 1963 0
-2051 1964 0
-2052 1965 0
-2053 1966 0
-2054 1967 0
-2055 1968 0
-2056 1969 0
-2057 1970 0
-2058 1971 0
-2059 1972 0
-2060 1973 0
-2061 1974 0
-2062 1975 0
-2005 1947 0
-2006 1948 0
-2007 1949 0
-2008 1950 0
-2009 1951 0
-2010 1952 0
-2011 1953 0
-2012 1954 0
-2013 1955 0
-2014 1956 0
-2015 1957 0
-2016 1958 0
-2017 1959 0
-2018 1960 0
-2019 1961 0
-2020 1962 0
-2021 1963 0
-2022 1964 0
-2023 1965 0
-2024 1966 0
-2025 1967 0
-2026 1968 0
-2027 1969 0
-2028 1970 0
-2029 1971 0
-2030 1972 0
-2031 1973 0
-2032 1974 0
-2033 1975 0
-2005 -2034 1948 0
-2005 -2035 1949 0
-2005 -2036 1950 0
-2005 -2037 1951 0
-2005 -2038 1952 0
-2005 -2039 1953 0
-2005 -2040 1954 0
-2005 -2041 1955 0
-2005 -2042 1956 0
-2005 -2043 1957 0
-2005 -2044 1958 0
-2005 -2045 1959 0
-2005 -2046 1960 0
-2005 -2047 1961 0
-2005 -2048 1962 0
-2005 -2049 1963 0
-2005 -2050 1964 0
-2005 -2051 1965 0
-2005 -2052 1966 0
-2005 -2053 1967 0
-2005 -2054 1968 0
-2005 -2055 1969 0
-2005 -2056 1970 0
-2005 -2057 1971 0
-2005 -2058 1972 0
-2005 -2059 1973 0
-2005 -2060 1974 0
-2005 -2061 1975 0
-2005 -2062 1976 0
-2006 -2034 1949 0
-2006 -2035 1950 0
-2006 -2036 1951 0
-2006 -2037 1952 0
-2006 -2038 1953 0
-2006 -2039 1954 0
-2006 -2040 1955 0
-2006 -2041 1956 0
-2006 -2042 1957 0
-2006 -2043 1958 0
-2006 -2044 1959 0
-2006 -2045 1960 0
-2006 -2046 1961 0
-2006 -2047 1962 0
-2006 -2048 1963 0
-2006 -2049 1964 0
-2006 -2050 1965 0
-2006 -2051 1966 0
-2006 -2052 1967 0
-2006 -2053 1968 0
-2006 -2054 1969 0
-2006 -2055 1970 0
-2006 -2056 1971 0
-2006 -2057 1972 0
-2006 -2058 1973 0
-2006 -2059 1974 0
-2006 -2060 1975 0
-2006 -2061 1976 0
-2006 -2062 1977 0
-2007 -2034 1950 0
-2007 -2035 1951 0
-2007 -2036 1952 0
-2007 -2037 1953 0
-2007 -2038 1954 0
-2007 -2039 1955 0
-2007 -2040 1956 0
-2007 -2041 1957 0
-2007 -2042 1958 0
-2007 -2043 1959 0
-2007 -2044 1960 0
-2007 -2045 1961 0
-2007 -2046 1962 0
-2007 -2047 1963 0
-2007 -2048 1964 0
-2007 -2049 1965 0
-2007 -2050 1966 0
-2007 -2051 1967 0
-2007 -2052 1968 0
-2007 -2053 1969 0
-2007 -2054 1970 0
-2007 -2055 1971 0
-2007 -2056 1972 0
-2007 -2057 1973 0
-2007 -2058 1974 0
-2007 -2059 1975 0
-2007 -2060 1976 0
-2007 -2061 1977 0
-2007 -2062 1978 0
-2008 -2034 1951 0
-2008 -2035 1952 0
-2008 -2036 1953 0
-2008 -2037 1954 0
-2008 -2038 1955 0
-2008 -2039 1956 0
-2008 -2040 1957 0
-2008 -2041 1958 0
-2008 -2042 1959 0
-2008 -2043 1960 0
-2008 -2044 1961 0
-2008 -2045 1962 0
-2008 -2046 1963 0
-2008 -2047 1964 0
-2008 -2048 1965 0
-2008 -2049 1966 0
-2008 -2050 1967 0
-2008 -2051 1968 0
-2008 -2052 1969 0
-2008 -2053 1970 0
-2008 -2054 1971 0
-2008 -2055 1972 0
-2008 -2056 1973 0
-2008 -2057 1974 0
-2008 -2058 1975 0
-2008 -2059 1976 0
-2008 -2060 1977 0
-2008 -2061 1978 0
-2008 -2062 1979 0
-2009 -2034 1952 0
-2009 -2035 1953 0
-2009 -2036 1954 0
-2009 -2037 1955 0
-2009 -2038 1956 0
-2009 -2039 1957 0
-2009 -2040 1958 0
-2009 -2041 1959 0
-2009 -2042 1960 0
-2009 -2043 1961 0
-2009 -2044 1962 0
-2009 -2045 1963 0
-2009 -2046 1964 0
-2009 -2047 1965 0
-2009 -2048 1966 0
-2009 -2049 1967 0
-2009 -2050 1968 0
-2009 -2051 1969 0
-2009 -2052 1970 0
-2009 -2053 1971 0
-2009 -2054 1972 0
-2009 -2055 1973 0
-2009 -2056 1974 0
-2009 -2057 1975 0
-2009 -2058 1976 0
-2009 -2059 1977 0
-2009 -2060 1978 0
-2009 -2061 1979 0
-2009 -2062 1980 0
-2010 -2034 1953 0
-2010 -2035 1954 0
-2010 -2036 1955 0
-2010 -2037 1956 0
-2010 -2038 1957 0
-2010 -2039 1958 0
-2010 -2040 1959 0
-2010 -2041 1960 0
-2010 -2042 1961 0
-2010 -2043 1962 0
-2010 -2044 1963 0
-2010 -2045 1964 0
-2010 -2046 1965 0
-2010 -2047 1966 0
-2010 -2048 1967 0
-2010 -2049 1968 0
-2010 -2050 1969 0
-2010 -2051 1970 0
-2010 -2052 1971 0
-2010 -2053 1972 0
-2010 -2054 1973 0
-2010 -2055 1974 0
-2010 -2056 1975 0
-2010 -2057 1976 0
-2010 -2058 1977 0
-2010 -2059 1978 0
-2010 -2060 1979 0
-2010 -2061 1980 0
-2010 -2062 1981 0
-2011 -2034 1954 0
-2011 -2035 1955 0
-2011 -2036 1956 0
-2011 -2037 1957 0
-2011 -2038 1958 0
-2011 -2039 1959 0
-2011 -2040 1960 0
-2011 -2041 1961 0
-2011 -2042 1962 0
-2011 -2043 1963 0
-2011 -2044 1964 0
-2011 -2045 1965 0
-2011 -2046 1966 0
-2011 -2047 1967 0
-2011 -2048 1968 0
-2011 -2049 1969 0
-2011 -2050 1970 0
-2011 -2051 1971 0
-2011 -2052 1972 0
-2011 -2053 1973 0
-2011 -2054 1974 0
-2011 -2055 1975 0
-2011 -2056 1976 0
-2011 -2057 1977 0
-2011 -2058 1978 0
-2011 -2059 1979 0
-2011 -2060 1980 0
-2011 -2061 1981 0
-2011 -2062 1982 0
-2012 -2034 1955 0
-2012 -2035 1956 0
-2012 -2036 1957 0
-2012 -2037 1958 0
-2012 -2038 1959 0
-2012 -2039 1960 0
-2012 -2040 1961 0
-2012 -2041 1962 0
-2012 -2042 1963 0
-2012 -2043 1964 0
-2012 -2044 1965 0
-2012 -2045 1966 0
-2012 -2046 1967 0
-2012 -2047 1968 0
-2012 -2048 1969 0
-2012 -2049 1970 0
-2012 -2050 1971 0
-2012 -2051 1972 0
-2012 -2052 1973 0
-2012 -2053 1974 0
-2012 -2054 1975 0
-2012 -2055 1976 0
-2012 -2056 1977 0
-2012 -2057 1978 0
-2012 -2058 1979 0
-2012 -2059 1980 0
-2012 -2060 1981 0
-2012 -2061 1982 0
-2012 -2062 1983 0
-2013 -2034 1956 0
-2013 -2035 1957 0
-2013 -2036 1958 0
-2013 -2037 1959 0
-2013 -2038 1960 0
-2013 -2039 1961 0
-2013 -2040 1962 0
-2013 -2041 1963 0
-2013 -2042 1964 0
-2013 -2043 1965 0
-2013 -2044 1966 0
-2013 -2045 1967 0
-2013 -2046 1968 0
-2013 -2047 1969 0
-2013 -2048 1970 0
-2013 -2049 1971 0
-2013 -2050 1972 0
-2013 -2051 1973 0
-2013 -2052 1974 0
-2013 -2053 1975 0
-2013 -2054 1976 0
-2013 -2055 1977 0
-2013 -2056 1978 0
-2013 -2057 1979 0
-2013 -2058 1980 0
-2013 -2059 1981 0
-2013 -2060 1982 0
-2013 -2061 1983 0
-2013 -2062 1984 0
-2014 -2034 1957 0
-2014 -2035 1958 0
-2014 -2036 1959 0
-2014 -2037 1960 0
-2014 -2038 1961 0
-2014 -2039 1962 0
-2014 -2040 1963 0
-2014 -2041 1964 0
-2014 -2042 1965 0
-2014 -2043 1966 0
-2014 -2044 1967 0
-2014 -2045 1968 0
-2014 -2046 1969 0
-2014 -2047 1970 0
-2014 -2048 1971 0
-2014 -2049 1972 0
-2014 -2050 1973 0
-2014 -2051 1974 0
-2014 -2052 1975 0
-2014 -2053 1976 0
-2014 -2054 1977 0
-2014 -2055 1978 0
-2014 -2056 1979 0
-2014 -2057 1980 0
-2014 -2058 1981 0
-2014 -2059 1982 0
-2014 -2060 1983 0
-2014 -2061 1984 0
-2014 -2062 1985 0
-2015 -2034 1958 0
-2015 -2035 1959 0
-2015 -2036 1960 0
-2015 -2037 1961 0
-2015 -2038 1962 0
-2015 -2039 1963 0
-2015 -2040 1964 0
-2015 -2041 1965 0
-2015 -2042 1966 0
-2015 -2043 1967 0
-2015 -2044 1968 0
-2015 -2045 1969 0
-2015 -2046 1970 0
-2015 -2047 1971 0
-2015 -2048 1972 0
-2015 -2049 1973 0
-2015 -2050 1974 0
-2015 -2051 1975 0
-2015 -2052 1976 0
-2015 -2053 1977 0
-2015 -2054 1978 0
-2015 -2055 1979 0
-2015 -2056 1980 0
-2015 -2057 1981 0
-2015 -2058 1982 0
-2015 -2059 1983 0
-2015 -2060 1984 0
-2015 -2061 1985 0
-2015 -2062 1986 0
-2016 -2034 1959 0
-2016 -2035 1960 0
-2016 -2036 1961 0
-2016 -2037 1962 0
-2016 -2038 1963 0
-2016 -2039 1964 0
-2016 -2040 1965 0
-2016 -2041 1966 0
-2016 -2042 1967 0
-2016 -2043 1968 0
-2016 -2044 1969 0
-2016 -2045 1970 0
-2016 -2046 1971 0
-2016 -2047 1972 0
-2016 -2048 1973 0
-2016 -2049 1974 0
-2016 -2050 1975 0
-2016 -2051 1976 0
-2016 -2052 1977 0
-2016 -2053 1978 0
-2016 -2054 1979 0
-2016 -2055 1980 0
-2016 -2056 1981 0
-2016 -2057 1982 0
-2016 -2058 1983 0
-2016 -2059 1984 0
-2016 -2060 1985 0
-2016 -2061 1986 0
-2016 -2062 1987 0
-2017 -2034 1960 0
-2017 -2035 1961 0
-2017 -2036 1962 0
-2017 -2037 1963 0
-2017 -2038 1964 0
-2017 -2039 1965 0
-2017 -2040 1966 0
-2017 -2041 1967 0
-2017 -2042 1968 0
-2017 -2043 1969 0
-2017 -2044 1970 0
-2017 -2045 1971 0
-2017 -2046 1972 0
-2017 -2047 1973 0
-2017 -2048 1974 0
-2017 -2049 1975 0
-2017 -2050 1976 0
-2017 -2051 1977 0
-2017 -2052 1978 0
-2017 -2053 1979 0
-2017 -2054 1980 0
-2017 -2055 1981 0
-2017 -2056 1982 0
-2017 -2057 1983 0
-2017 -2058 1984 0
-2017 -2059 1985 0
-2017 -2060 1986 0
-2017 -2061 1987 0
-2017 -2062 1988 0
-2018 -2034 1961 0
-2018 -2035 1962 0
-2018 -2036 1963 0
-2018 -2037 1964 0
-2018 -2038 1965 0
-2018 -2039 1966 0
-2018 -2040 1967 0
-2018 -2041 1968 0
-2018 -2042 1969 0
-2018 -2043 1970 0
-2018 -2044 1971 0
-2018 -2045 1972 0
-2018 -2046 1973 0
-2018 -2047 1974 0
-2018 -2048 1975 0
-2018 -2049 1976 0
-2018 -2050 1977 0
-2018 -2051 1978 0
-2018 -2052 1979 0
-2018 -2053 1980 0
-2018 -2054 1981 0
-2018 -2055 1982 0
-2018 -2056 1983 0
-2018 -2057 1984 0
-2018 -2058 1985 0
-2018 -2059 1986 0
-2018 -2060 1987 0
-2018 -2061 1988 0
-2018 -2062 1989 0
-2019 -2034 1962 0
-2019 -2035 1963 0
-2019 -2036 1964 0
-2019 -2037 1965 0
-2019 -2038 1966 0
-2019 -2039 1967 0
-2019 -2040 1968 0
-2019 -2041 1969 0
-2019 -2042 1970 0
-2019 -2043 1971 0
-2019 -2044 1972 0
-2019 -2045 1973 0
-2019 -2046 1974 0
-2019 -2047 1975 0
-2019 -2048 1976 0
-2019 -2049 1977 0
-2019 -2050 1978 0
-2019 -2051 1979 0
-2019 -2052 1980 0
-2019 -2053 1981 0
-2019 -2054 1982 0
-2019 -2055 1983 0
-2019 -2056 1984 0
-2019 -2057 1985 0
-2019 -2058 1986 0
-2019 -2059 1987 0
-2019 -2060 1988 0
-2019 -2061 1989 0
-2019 -2062 1990 0
-2020 -2034 1963 0
-2020 -2035 1964 0
-2020 -2036 1965 0
-2020 -2037 1966 0
-2020 -2038 1967 0
-2020 -2039 1968 0
-2020 -2040 1969 0
-2020 -2041 1970 0
-2020 -2042 1971 0
-2020 -2043 1972 0
-2020 -2044 1973 0
-2020 -2045 1974 0
-2020 -2046 1975 0
-2020 -2047 1976 0
-2020 -2048 1977 0
-2020 -2049 1978 0
-2020 -2050 1979 0
-2020 -2051 1980 0
-2020 -2052 1981 0
-2020 -2053 1982 0
-2020 -2054 1983 0
-2020 -2055 1984 0
-2020 -2056 1985 0
-2020 -2057 1986 0
-2020 -2058 1987 0
-2020 -2059 1988 0
-2020 -2060 1989 0
-2020 -2061 1990 0
-2020 -2062 1991 0
-2021 -2034 1964 0
-2021 -2035 1965 0
-2021 -2036 1966 0
-2021 -2037 1967 0
-2021 -2038 1968 0
-2021 -2039 1969 0
-2021 -2040 1970 0
-2021 -2041 1971 0
-2021 -2042 1972 0
-2021 -2043 1973 0
-2021 -2044 1974 0
-2021 -2045 1975 0
-2021 -2046 1976 0
-2021 -2047 1977 0
-2021 -2048 1978 0
-2021 -2049 1979 0
-2021 -2050 1980 0
-2021 -2051 1981 0
-2021 -2052 1982 0
-2021 -2053 1983 0
-2021 -2054 1984 0
-2021 -2055 1985 0
-2021 -2056 1986 0
-2021 -2057 1987 0
-2021 -2058 1988 0
-2021 -2059 1989 0
-2021 -2060 1990 0
-2021 -2061 1991 0
-2021 -2062 1992 0
-2022 -2034 1965 0
-2022 -2035 1966 0
-2022 -2036 1967 0
-2022 -2037 1968 0
-2022 -2038 1969 0
-2022 -2039 1970 0
-2022 -2040 1971 0
-2022 -2041 1972 0
-2022 -2042 1973 0
-2022 -2043 1974 0
-2022 -2044 1975 0
-2022 -2045 1976 0
-2022 -2046 1977 0
-2022 -2047 1978 0
-2022 -2048 1979 0
-2022 -2049 1980 0
-2022 -2050 1981 0
-2022 -2051 1982 0
-2022 -2052 1983 0
-2022 -2053 1984 0
-2022 -2054 1985 0
-2022 -2055 1986 0
-2022 -2056 1987 0
-2022 -2057 1988 0
-2022 -2058 1989 0
-2022 -2059 1990 0
-2022 -2060 1991 0
-2022 -2061 1992 0
-2022 -2062 1993 0
-2023 -2034 1966 0
-2023 -2035 1967 0
-2023 -2036 1968 0
-2023 -2037 1969 0
-2023 -2038 1970 0
-2023 -2039 1971 0
-2023 -2040 1972 0
-2023 -2041 1973 0
-2023 -2042 1974 0
-2023 -2043 1975 0
-2023 -2044 1976 0
-2023 -2045 1977 0
-2023 -2046 1978 0
-2023 -2047 1979 0
-2023 -2048 1980 0
-2023 -2049 1981 0
-2023 -2050 1982 0
-2023 -2051 1983 0
-2023 -2052 1984 0
-2023 -2053 1985 0
-2023 -2054 1986 0
-2023 -2055 1987 0
-2023 -2056 1988 0
-2023 -2057 1989 0
-2023 -2058 1990 0
-2023 -2059 1991 0
-2023 -2060 1992 0
-2023 -2061 1993 0
-2023 -2062 1994 0
-2024 -2034 1967 0
-2024 -2035 1968 0
-2024 -2036 1969 0
-2024 -2037 1970 0
-2024 -2038 1971 0
-2024 -2039 1972 0
-2024 -2040 1973 0
-2024 -2041 1974 0
-2024 -2042 1975 0
-2024 -2043 1976 0
-2024 -2044 1977 0
-2024 -2045 1978 0
-2024 -2046 1979 0
-2024 -2047 1980 0
-2024 -2048 1981 0
-2024 -2049 1982 0
-2024 -2050 1983 0
-2024 -2051 1984 0
-2024 -2052 1985 0
-2024 -2053 1986 0
-2024 -2054 1987 0
-2024 -2055 1988 0
-2024 -2056 1989 0
-2024 -2057 1990 0
-2024 -2058 1991 0
-2024 -2059 1992 0
-2024 -2060 1993 0
-2024 -2061 1994 0
-2024 -2062 1995 0
-2025 -2034 1968 0
-2025 -2035 1969 0
-2025 -2036 1970 0
-2025 -2037 1971 0
-2025 -2038 1972 0
-2025 -2039 1973 0
-2025 -2040 1974 0
-2025 -2041 1975 0
-2025 -2042 1976 0
-2025 -2043 1977 0
-2025 -2044 1978 0
-2025 -2045 1979 0
-2025 -2046 1980 0
-2025 -2047 1981 0
-2025 -2048 1982 0
-2025 -2049 1983 0
-2025 -2050 1984 0
-2025 -2051 1985 0
-2025 -2052 1986 0
-2025 -2053 1987 0
-2025 -2054 1988 0
-2025 -2055 1989 0
-2025 -2056 1990 0
-2025 -2057 1991 0
-2025 -2058 1992 0
-2025 -2059 1993 0
-2025 -2060 1994 0
-2025 -2061 1995 0
-2025 -2062 1996 0
-2026 -2034 1969 0
-2026 -2035 1970 0
-2026 -2036 1971 0
-2026 -2037 1972 0
-2026 -2038 1973 0
-2026 -2039 1974 0
-2026 -2040 1975 0
-2026 -2041 1976 0
-2026 -2042 1977 0
-2026 -2043 1978 0
-2026 -2044 1979 0
-2026 -2045 1980 0
-2026 -2046 1981 0
-2026 -2047 1982 0
-2026 -2048 1983 0
-2026 -2049 1984 0
-2026 -2050 1985 0
-2026 -2051 1986 0
-2026 -2052 1987 0
-2026 -2053 1988 0
-2026 -2054 1989 0
-2026 -2055 1990 0
-2026 -2056 1991 0
-2026 -2057 1992 0
-2026 -2058 1993 0
-2026 -2059 1994 0
-2026 -2060 1995 0
-2026 -2061 1996 0
-2026 -2062 1997 0
-2027 -2034 1970 0
-2027 -2035 1971 0
-2027 -2036 1972 0
-2027 -2037 1973 0
-2027 -2038 1974 0
-2027 -2039 1975 0
-2027 -2040 1976 0
-2027 -2041 1977 0
-2027 -2042 1978 0
-2027 -2043 1979 0
-2027 -2044 1980 0
-2027 -2045 1981 0
-2027 -2046 1982 0
-2027 -2047 1983 0
-2027 -2048 1984 0
-2027 -2049 1985 0
-2027 -2050 1986 0
-2027 -2051 1987 0
-2027 -2052 1988 0
-2027 -2053 1989 0
-2027 -2054 1990 0
-2027 -2055 1991 0
-2027 -2056 1992 0
-2027 -2057 1993 0
-2027 -2058 1994 0
-2027 -2059 1995 0
-2027 -2060 1996 0
-2027 -2061 1997 0
-2027 -2062 1998 0
-2028 -2034 1971 0
-2028 -2035 1972 0
-2028 -2036 1973 0
-2028 -2037 1974 0
-2028 -2038 1975 0
-2028 -2039 1976 0
-2028 -2040 1977 0
-2028 -2041 1978 0
-2028 -2042 1979 0
-2028 -2043 1980 0
-2028 -2044 1981 0
-2028 -2045 1982 0
-2028 -2046 1983 0
-2028 -2047 1984 0
-2028 -2048 1985 0
-2028 -2049 1986 0
-2028 -2050 1987 0
-2028 -2051 1988 0
-2028 -2052 1989 0
-2028 -2053 1990 0
-2028 -2054 1991 0
-2028 -2055 1992 0
-2028 -2056 1993 0
-2028 -2057 1994 0
-2028 -2058 1995 0
-2028 -2059 1996 0
-2028 -2060 1997 0
-2028 -2061 1998 0
-2028 -2062 1999 0
-2029 -2034 1972 0
-2029 -2035 1973 0
-2029 -2036 1974 0
-2029 -2037 1975 0
-2029 -2038 1976 0
-2029 -2039 1977 0
-2029 -2040 1978 0
-2029 -2041 1979 0
-2029 -2042 1980 0
-2029 -2043 1981 0
-2029 -2044 1982 0
-2029 -2045 1983 0
-2029 -2046 1984 0
-2029 -2047 1985 0
-2029 -2048 1986 0
-2029 -2049 1987 0
-2029 -2050 1988 0
-2029 -2051 1989 0
-2029 -2052 1990 0
-2029 -2053 1991 0
-2029 -2054 1992 0
-2029 -2055 1993 0
-2029 -2056 1994 0
-2029 -2057 1995 0
-2029 -2058 1996 0
-2029 -2059 1997 0
-2029 -2060 1998 0
-2029 -2061 1999 0
-2029 -2062 2000 0
-2030 -2034 1973 0
-2030 -2035 1974 0
-2030 -2036 1975 0
-2030 -2037 1976 0
-2030 -2038 1977 0
-2030 -2039 1978 0
-2030 -2040 1979 0
-2030 -2041 1980 0
-2030 -2042 1981 0
-2030 -2043 1982 0
-2030 -2044 1983 0
-2030 -2045 1984 0
-2030 -2046 1985 0
-2030 -2047 1986 0
-2030 -2048 1987 0
-2030 -2049 1988 0
-2030 -2050 1989 0
-2030 -2051 1990 0
-2030 -2052 1991 0
-2030 -2053 1992 0
-2030 -2054 1993 0
-2030 -2055 1994 0
-2030 -2056 1995 0
-2030 -2057 1996 0
-2030 -2058 1997 0
-2030 -2059 1998 0
-2030 -2060 1999 0
-2030 -2061 2000 0
-2030 -2062 2001 0
-2031 -2034 1974 0
-2031 -2035 1975 0
-2031 -2036 1976 0
-2031 -2037 1977 0
-2031 -2038 1978 0
-2031 -2039 1979 0
-2031 -2040 1980 0
-2031 -2041 1981 0
-2031 -2042 1982 0
-2031 -2043 1983 0
-2031 -2044 1984 0
-2031 -2045 1985 0
-2031 -2046 1986 0
-2031 -2047 1987 0
-2031 -2048 1988 0
-2031 -2049 1989 0
-2031 -2050 1990 0
-2031 -2051 1991 0
-2031 -2052 1992 0
-2031 -2053 1993 0
-2031 -2054 1994 0
-2031 -2055 1995 0
-2031 -2056 1996 0
-2031 -2057 1997 0
-2031 -2058 1998 0
-2031 -2059 1999 0
-2031 -2060 2000 0
-2031 -2061 2001 0
-2031 -2062 2002 0
-2032 -2034 1975 0
-2032 -2035 1976 0
-2032 -2036 1977 0
-2032 -2037 1978 0
-2032 -2038 1979 0
-2032 -2039 1980 0
-2032 -2040 1981 0
-2032 -2041 1982 0
-2032 -2042 1983 0
-2032 -2043 1984 0
-2032 -2044 1985 0
-2032 -2045 1986 0
-2032 -2046 1987 0
-2032 -2047 1988 0
-2032 -2048 1989 0
-2032 -2049 1990 0
-2032 -2050 1991 0
-2032 -2051 1992 0
-2032 -2052 1993 0
-2032 -2053 1994 0
-2032 -2054 1995 0
-2032 -2055 1996 0
-2032 -2056 1997 0
-2032 -2057 1998 0
-2032 -2058 1999 0
-2032 -2059 2000 0
-2032 -2060 2001 0
-2032 -2061 2002 0
-2032 -2062 2003 0
-2033 -2034 1976 0
-2033 -2035 1977 0
-2033 -2036 1978 0
-2033 -2037 1979 0
-2033 -2038 1980 0
-2033 -2039 1981 0
-2033 -2040 1982 0
-2033 -2041 1983 0
-2033 -2042 1984 0
-2033 -2043 1985 0
-2033 -2044 1986 0
-2033 -2045 1987 0
-2033 -2046 1988 0
-2033 -2047 1989 0
-2033 -2048 1990 0
-2033 -2049 1991 0
-2033 -2050 1992 0
-2033 -2051 1993 0
-2033 -2052 1994 0
-2033 -2053 1995 0
-2033 -2054 1996 0
-2033 -2055 1997 0
-2033 -2056 1998 0
-2033 -2057 1999 0
-2033 -2058 2000 0
-2033 -2059 2001 0
-2033 -2060 2002 0
-2033 -2061 2003 0
-2033 -2062 2004 0
-2078 2034 0
-2079 2035 0
-2080 2036 0
-2081 2037 0
-2082 2038 0
-2083 2039 0
-2084 2040 0
-2085 2041 0
-2086 2042 0
-2087 2043 0
-2088 2044 0
-2089 2045 0
-2090 2046 0
-2091 2047 0
-2063 2034 0
-2064 2035 0
-2065 2036 0
-2066 2037 0
-2067 2038 0
-2068 2039 0
-2069 2040 0
-2070 2041 0
-2071 2042 0
-2072 2043 0
-2073 2044 0
-2074 2045 0
-2075 2046 0
-2076 2047 0
-2077 2048 0
-2063 -2078 2035 0
-2063 -2079 2036 0
-2063 -2080 2037 0
-2063 -2081 2038 0
-2063 -2082 2039 0
-2063 -2083 2040 0
-2063 -2084 2041 0
-2063 -2085 2042 0
-2063 -2086 2043 0
-2063 -2087 2044 0
-2063 -2088 2045 0
-2063 -2089 2046 0
-2063 -2090 2047 0
-2063 -2091 2048 0
-2064 -2078 2036 0
-2064 -2079 2037 0
-2064 -2080 2038 0
-2064 -2081 2039 0
-2064 -2082 2040 0
-2064 -2083 2041 0
-2064 -2084 2042 0
-2064 -2085 2043 0
-2064 -2086 2044 0
-2064 -2087 2045 0
-2064 -2088 2046 0
-2064 -2089 2047 0
-2064 -2090 2048 0
-2064 -2091 2049 0
-2065 -2078 2037 0
-2065 -2079 2038 0
-2065 -2080 2039 0
-2065 -2081 2040 0
-2065 -2082 2041 0
-2065 -2083 2042 0
-2065 -2084 2043 0
-2065 -2085 2044 0
-2065 -2086 2045 0
-2065 -2087 2046 0
-2065 -2088 2047 0
-2065 -2089 2048 0
-2065 -2090 2049 0
-2065 -2091 2050 0
-2066 -2078 2038 0
-2066 -2079 2039 0
-2066 -2080 2040 0
-2066 -2081 2041 0
-2066 -2082 2042 0
-2066 -2083 2043 0
-2066 -2084 2044 0
-2066 -2085 2045 0
-2066 -2086 2046 0
-2066 -2087 2047 0
-2066 -2088 2048 0
-2066 -2089 2049 0
-2066 -2090 2050 0
-2066 -2091 2051 0
-2067 -2078 2039 0
-2067 -2079 2040 0
-2067 -2080 2041 0
-2067 -2081 2042 0
-2067 -2082 2043 0
-2067 -2083 2044 0
-2067 -2084 2045 0
-2067 -2085 2046 0
-2067 -2086 2047 0
-2067 -2087 2048 0
-2067 -2088 2049 0
-2067 -2089 2050 0
-2067 -2090 2051 0
-2067 -2091 2052 0
-2068 -2078 2040 0
-2068 -2079 2041 0
-2068 -2080 2042 0
-2068 -2081 2043 0
-2068 -2082 2044 0
-2068 -2083 2045 0
-2068 -2084 2046 0
-2068 -2085 2047 0
-2068 -2086 2048 0
-2068 -2087 2049 0
-2068 -2088 2050 0
-2068 -2089 2051 0
-2068 -2090 2052 0
-2068 -2091 2053 0
-2069 -2078 2041 0
-2069 -2079 2042 0
-2069 -2080 2043 0
-2069 -2081 2044 0
-2069 -2082 2045 0
-2069 -2083 2046 0
-2069 -2084 2047 0
-2069 -2085 2048 0
-2069 -2086 2049 0
-2069 -2087 2050 0
-2069 -2088 2051 0
-2069 -2089 2052 0
-2069 -2090 2053 0
-2069 -2091 2054 0
-2070 -2078 2042 0
-2070 -2079 2043 0
-2070 -2080 2044 0
-2070 -2081 2045 0
-2070 -2082 2046 0
-2070 -2083 2047 0
-2070 -2084 2048 0
-2070 -2085 2049 0
-2070 -2086 2050 0
-2070 -2087 2051 0
-2070 -2088 2052 0
-2070 -2089 2053 0
-2070 -2090 2054 0
-2070 -2091 2055 0
-2071 -2078 2043 0
-2071 -2079 2044 0
-2071 -2080 2045 0
-2071 -2081 2046 0
-2071 -2082 2047 0
-2071 -2083 2048 0
-2071 -2084 2049 0
-2071 -2085 2050 0
-2071 -2086 2051 0
-2071 -2087 2052 0
-2071 -2088 2053 0
-2071 -2089 2054 0
-2071 -2090 2055 0
-2071 -2091 2056 0
-2072 -2078 2044 0
-2072 -2079 2045 0
-2072 -2080 2046 0
-2072 -2081 2047 0
-2072 -2082 2048 0
-2072 -2083 2049 0
-2072 -2084 2050 0
-2072 -2085 2051 0
-2072 -2086 2052 0
-2072 -2087 2053 0
-2072 -2088 2054 0
-2072 -2089 2055 0
-2072 -2090 2056 0
-2072 -2091 2057 0
-2073 -2078 2045 0
-2073 -2079 2046 0
-2073 -2080 2047 0
-2073 -2081 2048 0
-2073 -2082 2049 0
-2073 -2083 2050 0
-2073 -2084 2051 0
-2073 -2085 2052 0
-2073 -2086 2053 0
-2073 -2087 2054 0
-2073 -2088 2055 0
-2073 -2089 2056 0
-2073 -2090 2057 0
-2073 -2091 2058 0
-2074 -2078 2046 0
-2074 -2079 2047 0
-2074 -2080 2048 0
-2074 -2081 2049 0
-2074 -2082 2050 0
-2074 -2083 2051 0
-2074 -2084 2052 0
-2074 -2085 2053 0
-2074 -2086 2054 0
-2074 -2087 2055 0
-2074 -2088 2056 0
-2074 -2089 2057 0
-2074 -2090 2058 0
-2074 -2091 2059 0
-2075 -2078 2047 0
-2075 -2079 2048 0
-2075 -2080 2049 0
-2075 -2081 2050 0
-2075 -2082 2051 0
-2075 -2083 2052 0
-2075 -2084 2053 0
-2075 -2085 2054 0
-2075 -2086 2055 0
-2075 -2087 2056 0
-2075 -2088 2057 0
-2075 -2089 2058 0
-2075 -2090 2059 0
-2075 -2091 2060 0
-2076 -2078 2048 0
-2076 -2079 2049 0
-2076 -2080 2050 0
-2076 -2081 2051 0
-2076 -2082 2052 0
-2076 -2083 2053 0
-2076 -2084 2054 0
-2076 -2085 2055 0
-2076 -2086 2056 0
-2076 -2087 2057 0
-2076 -2088 2058 0
-2076 -2089 2059 0
-2076 -2090 2060 0
-2076 -2091 2061 0
-2077 -2078 2049 0
-2077 -2079 2050 0
-2077 -2080 2051 0
-2077 -2081 2052 0
-2077 -2082 2053 0
-2077 -2083 2054 0
-2077 -2084 2055 0
-2077 -2085 2056 0
-2077 -2086 2057 0
-2077 -2087 2058 0
-2077 -2088 2059 0
-2077 -2089 2060 0
-2077 -2090 2061 0
-2077 -2091 2062 0
-2099 2078 0
-2100 2079 0
-2101 2080 0
-2102 2081 0
-2103 2082 0
-2104 2083 0
-2105 2084 0
-2092 2078 0
-2093 2079 0
-2094 2080 0
-2095 2081 0
-2096 2082 0
-2097 2083 0
-2098 2084 0
-2092 -2099 2079 0
-2092 -2100 2080 0
-2092 -2101 2081 0
-2092 -2102 2082 0
-2092 -2103 2083 0
-2092 -2104 2084 0
-2092 -2105 2085 0
-2093 -2099 2080 0
-2093 -2100 2081 0
-2093 -2101 2082 0
-2093 -2102 2083 0
-2093 -2103 2084 0
-2093 -2104 2085 0
-2093 -2105 2086 0
-2094 -2099 2081 0
-2094 -2100 2082 0
-2094 -2101 2083 0
-2094 -2102 2084 0
-2094 -2103 2085 0
-2094 -2104 2086 0
-2094 -2105 2087 0
-2095 -2099 2082 0
-2095 -2100 2083 0
-2095 -2101 2084 0
-2095 -2102 2085 0
-2095 -2103 2086 0
-2095 -2104 2087 0
-2095 -2105 2088 0
-2096 -2099 2083 0
-2096 -2100 2084 0
-2096 -2101 2085 0
-2096 -2102 2086 0
-2096 -2103 2087 0
-2096 -2104 2088 0
-2096 -2105 2089 0
-2097 -2099 2084 0
-2097 -2100 2085 0
-2097 -2101 2086 0
-2097 -2102 2087 0
-2097 -2103 2088 0
-2097 -2104 2089 0
-2097 -2105 2090 0
-2098 -2099 2085 0
-2098 -2100 2086 0
-2098 -2101 2087 0
-2098 -2102 2088 0
-2098 -2103 2089 0
-2098 -2104 2090 0
-2098 -2105 2091 0
-2110 2099 0
-2111 2100 0
-2112 2101 0
-2106 2099 0
-2107 2100 0
-2108 2101 0
-2109 2102 0
-2106 -2110 2100 0
-2106 -2111 2101 0
-2106 -2112 2102 0
-2107 -2110 2101 0
-2107 -2111 2102 0
-2107 -2112 2103 0
-2108 -2110 2102 0
-2108 -2111 2103 0
-2108 -2112 2104 0
-2109 -2110 2103 0
-2109 -2111 2104 0
-2109 -2112 2105 0
-448 2110 0
-2113 2110 0
-2114 2111 0
-2113 -448 2111 0
-2114 -448 2112 0
-447 2113 0
-446 2113 0
-446 -447 2114 0
-2117 2106 0
-2118 2107 0
-2115 2106 0
-2116 2107 0
-2115 -2117 2107 0
-2115 -2118 2108 0
-2116 -2117 2108 0
-2116 -2118 2109 0
-445 2117 0
-444 2117 0
-444 -445 2118 0
-443 2115 0
-442 2115 0
-442 -443 2116 0
-2123 2092 0
-2124 2093 0
-2125 2094 0
-2119 2092 0
-2120 2093 0
-2121 2094 0
-2122 2095 0
-2119 -2123 2093 0
-2119 -2124 2094 0
-2119 -2125 2095 0
-2120 -2123 2094 0
-2120 -2124 2095 0
-2120 -2125 2096 0
-2121 -2123 2095 0
-2121 -2124 2096 0
-2121 -2125 2097 0
-2122 -2123 2096 0
-2122 -2124 2097 0
-2122 -2125 2098 0
-441 2123 0
-2126 2123 0
-2127 2124 0
-2126 -441 2124 0
-2127 -441 2125 0
-440 2126 0
-439 2126 0
-439 -440 2127 0
-2130 2119 0
-2131 2120 0
-2128 2119 0
-2129 2120 0
-2128 -2130 2120 0
-2128 -2131 2121 0
-2129 -2130 2121 0
-2129 -2131 2122 0
-438 2130 0
-437 2130 0
-437 -438 2131 0
-436 2128 0
-435 2128 0
-435 -436 2129 0
-2140 2063 0
-2141 2064 0
-2142 2065 0
-2143 2066 0
-2144 2067 0
-2145 2068 0
-2146 2069 0
-2132 2063 0
-2133 2064 0
-2134 2065 0
-2135 2066 0
-2136 2067 0
-2137 2068 0
-2138 2069 0
-2139 2070 0
-2132 -2140 2064 0
-2132 -2141 2065 0
-2132 -2142 2066 0
-2132 -2143 2067 0
-2132 -2144 2068 0
-2132 -2145 2069 0
-2132 -2146 2070 0
-2133 -2140 2065 0
-2133 -2141 2066 0
-2133 -2142 2067 0
-2133 -2143 2068 0
-2133 -2144 2069 0
-2133 -2145 2070 0
-2133 -2146 2071 0
-2134 -2140 2066 0
-2134 -2141 2067 0
-2134 -2142 2068 0
-2134 -2143 2069 0
-2134 -2144 2070 0
-2134 -2145 2071 0
-2134 -2146 2072 0
-2135 -2140 2067 0
-2135 -2141 2068 0
-2135 -2142 2069 0
-2135 -2143 2070 0
-2135 -2144 2071 0
-2135 -2145 2072 0
-2135 -2146 2073 0
-2136 -2140 2068 0
-2136 -2141 2069 0
-2136 -2142 2070 0
-2136 -2143 2071 0
-2136 -2144 2072 0
-2136 -2145 2073 0
-2136 -2146 2074 0
-2137 -2140 2069 0
-2137 -2141 2070 0
-2137 -2142 2071 0
-2137 -2143 2072 0
-2137 -2144 2073 0
-2137 -2145 2074 0
-2137 -2146 2075 0
-2138 -2140 2070 0
-2138 -2141 2071 0
-2138 -2142 2072 0
-2138 -2143 2073 0
-2138 -2144 2074 0
-2138 -2145 2075 0
-2138 -2146 2076 0
-2139 -2140 2071 0
-2139 -2141 2072 0
-2139 -2142 2073 0
-2139 -2143 2074 0
-2139 -2144 2075 0
-2139 -2145 2076 0
-2139 -2146 2077 0
-2151 2140 0
-2152 2141 0
-2153 2142 0
-2147 2140 0
-2148 2141 0
-2149 2142 0
-2150 2143 0
-2147 -2151 2141 0
-2147 -2152 2142 0
-2147 -2153 2143 0
-2148 -2151 2142 0
-2148 -2152 2143 0
-2148 -2153 2144 0
-2149 -2151 2143 0
-2149 -2152 2144 0
-2149 -2153 2145 0
-2150 -2151 2144 0
-2150 -2152 2145 0
-2150 -2153 2146 0
-434 2151 0
-2154 2151 0
-2155 2152 0
-2154 -434 2152 0
-2155 -434 2153 0
-433 2154 0
-432 2154 0
-432 -433 2155 0
-2158 2147 0
-2159 2148 0
-2156 2147 0
-2157 2148 0
-2156 -2158 2148 0
-2156 -2159 2149 0
-2157 -2158 2149 0
-2157 -2159 2150 0
-431 2158 0
-430 2158 0
-430 -431 2159 0
-429 2156 0
-428 2156 0
-428 -429 2157 0
-2164 2132 0
-2165 2133 0
-2166 2134 0
-2167 2135 0
-2160 2132 0
-2161 2133 0
-2162 2134 0
-2163 2135 0
-2160 -2164 2133 0
-2160 -2165 2134 0
-2160 -2166 2135 0
-2160 -2167 2136 0
-2161 -2164 2134 0
-2161 -2165 2135 0
-2161 -2166 2136 0
-2161 -2167 2137 0
-2162 -2164 2135 0
-2162 -2165 2136 0
-2162 -2166 2137 0
-2162 -2167 2138 0
-2163 -2164 2136 0
-2163 -2165 2137 0
-2163 -2166 2138 0
-2163 -2167 2139 0
-2170 2164 0
-2171 2165 0
-2168 2164 0
-2169 2165 0
-2168 -2170 2165 0
-2168 -2171 2166 0
-2169 -2170 2166 0
-2169 -2171 2167 0
-427 2170 0
-426 2170 0
-426 -427 2171 0
-425 2168 0
-424 2168 0
-424 -425 2169 0
-2174 2160 0
-2175 2161 0
-2172 2160 0
-2173 2161 0
-2172 -2174 2161 0
-2172 -2175 2162 0
-2173 -2174 2162 0
-2173 -2175 2163 0
-423 2174 0
-422 2174 0
-422 -423 2175 0
-421 2172 0
-420 2172 0
-420 -421 2173 0
-2191 2005 0
-2192 2006 0
-2193 2007 0
-2194 2008 0
-2195 2009 0
-2196 2010 0
-2197 2011 0
-2198 2012 0
-2199 2013 0
-2200 2014 0
-2201 2015 0
-2202 2016 0
-2203 2017 0
-2204 2018 0
-2176 2005 0
-2177 2006 0
-2178 2007 0
-2179 2008 0
-2180 2009 0
-2181 2010 0
-2182 2011 0
-2183 2012 0
-2184 2013 0
-2185 2014 0
-2186 2015 0
-2187 2016 0
-2188 2017 0
-2189 2018 0
-2190 2019 0
-2176 -2191 2006 0
-2176 -2192 2007 0
-2176 -2193 2008 0
-2176 -2194 2009 0
-2176 -2195 2010 0
-2176 -2196 2011 0
-2176 -2197 2012 0
-2176 -2198 2013 0
-2176 -2199 2014 0
-2176 -2200 2015 0
-2176 -2201 2016 0
-2176 -2202 2017 0
-2176 -2203 2018 0
-2176 -2204 2019 0
-2177 -2191 2007 0
-2177 -2192 2008 0
-2177 -2193 2009 0
-2177 -2194 2010 0
-2177 -2195 2011 0
-2177 -2196 2012 0
-2177 -2197 2013 0
-2177 -2198 2014 0
-2177 -2199 2015 0
-2177 -2200 2016 0
-2177 -2201 2017 0
-2177 -2202 2018 0
-2177 -2203 2019 0
-2177 -2204 2020 0
-2178 -2191 2008 0
-2178 -2192 2009 0
-2178 -2193 2010 0
-2178 -2194 2011 0
-2178 -2195 2012 0
-2178 -2196 2013 0
-2178 -2197 2014 0
-2178 -2198 2015 0
-2178 -2199 2016 0
-2178 -2200 2017 0
-2178 -2201 2018 0
-2178 -2202 2019 0
-2178 -2203 2020 0
-2178 -2204 2021 0
-2179 -2191 2009 0
-2179 -2192 2010 0
-2179 -2193 2011 0
-2179 -2194 2012 0
-2179 -2195 2013 0
-2179 -2196 2014 0
-2179 -2197 2015 0
-2179 -2198 2016 0
-2179 -2199 2017 0
-2179 -2200 2018 0
-2179 -2201 2019 0
-2179 -2202 2020 0
-2179 -2203 2021 0
-2179 -2204 2022 0
-2180 -2191 2010 0
-2180 -2192 2011 0
-2180 -2193 2012 0
-2180 -2194 2013 0
-2180 -2195 2014 0
-2180 -2196 2015 0
-2180 -2197 2016 0
-2180 -2198 2017 0
-2180 -2199 2018 0
-2180 -2200 2019 0
-2180 -2201 2020 0
-2180 -2202 2021 0
-2180 -2203 2022 0
-2180 -2204 2023 0
-2181 -2191 2011 0
-2181 -2192 2012 0
-2181 -2193 2013 0
-2181 -2194 2014 0
-2181 -2195 2015 0
-2181 -2196 2016 0
-2181 -2197 2017 0
-2181 -2198 2018 0
-2181 -2199 2019 0
-2181 -2200 2020 0
-2181 -2201 2021 0
-2181 -2202 2022 0
-2181 -2203 2023 0
-2181 -2204 2024 0
-2182 -2191 2012 0
-2182 -2192 2013 0
-2182 -2193 2014 0
-2182 -2194 2015 0
-2182 -2195 2016 0
-2182 -2196 2017 0
-2182 -2197 2018 0
-2182 -2198 2019 0
-2182 -2199 2020 0
-2182 -2200 2021 0
-2182 -2201 2022 0
-2182 -2202 2023 0
-2182 -2203 2024 0
-2182 -2204 2025 0
-2183 -2191 2013 0
-2183 -2192 2014 0
-2183 -2193 2015 0
-2183 -2194 2016 0
-2183 -2195 2017 0
-2183 -2196 2018 0
-2183 -2197 2019 0
-2183 -2198 2020 0
-2183 -2199 2021 0
-2183 -2200 2022 0
-2183 -2201 2023 0
-2183 -2202 2024 0
-2183 -2203 2025 0
-2183 -2204 2026 0
-2184 -2191 2014 0
-2184 -2192 2015 0
-2184 -2193 2016 0
-2184 -2194 2017 0
-2184 -2195 2018 0
-2184 -2196 2019 0
-2184 -2197 2020 0
-2184 -2198 2021 0
-2184 -2199 2022 0
-2184 -2200 2023 0
-2184 -2201 2024 0
-2184 -2202 2025 0
-2184 -2203 2026 0
-2184 -2204 2027 0
-2185 -2191 2015 0
-2185 -2192 2016 0
-2185 -2193 2017 0
-2185 -2194 2018 0
-2185 -2195 2019 0
-2185 -2196 2020 0
-2185 -2197 2021 0
-2185 -2198 2022 0
-2185 -2199 2023 0
-2185 -2200 2024 0
-2185 -2201 2025 0
-2185 -2202 2026 0
-2185 -2203 2027 0
-2185 -2204 2028 0
-2186 -2191 2016 0
-2186 -2192 2017 0
-2186 -2193 2018 0
-2186 -2194 2019 0
-2186 -2195 2020 0
-2186 -2196 2021 0
-2186 -2197 2022 0
-2186 -2198 2023 0
-2186 -2199 2024 0
-2186 -2200 2025 0
-2186 -2201 2026 0
-2186 -2202 2027 0
-2186 -2203 2028 0
-2186 -2204 2029 0
-2187 -2191 2017 0
-2187 -2192 2018 0
-2187 -2193 2019 0
-2187 -2194 2020 0
-2187 -2195 2021 0
-2187 -2196 2022 0
-2187 -2197 2023 0
-2187 -2198 2024 0
-2187 -2199 2025 0
-2187 -2200 2026 0
-2187 -2201 2027 0
-2187 -2202 2028 0
-2187 -2203 2029 0
-2187 -2204 2030 0
-2188 -2191 2018 0
-2188 -2192 2019 0
-2188 -2193 2020 0
-2188 -2194 2021 0
-2188 -2195 2022 0
-2188 -2196 2023 0
-2188 -2197 2024 0
-2188 -2198 2025 0
-2188 -2199 2026 0
-2188 -2200 2027 0
-2188 -2201 2028 0
-2188 -2202 2029 0
-2188 -2203 2030 0
-2188 -2204 2031 0
-2189 -2191 2019 0
-2189 -2192 2020 0
-2189 -2193 2021 0
-2189 -2194 2022 0
-2189 -2195 2023 0
-2189 -2196 2024 0
-2189 -2197 2025 0
-2189 -2198 2026 0
-2189 -2199 2027 0
-2189 -2200 2028 0
-2189 -2201 2029 0
-2189 -2202 2030 0
-2189 -2203 2031 0
-2189 -2204 2032 0
-2190 -2191 2020 0
-2190 -2192 2021 0
-2190 -2193 2022 0
-2190 -2194 2023 0
-2190 -2195 2024 0
-2190 -2196 2025 0
-2190 -2197 2026 0
-2190 -2198 2027 0
-2190 -2199 2028 0
-2190 -2200 2029 0
-2190 -2201 2030 0
-2190 -2202 2031 0
-2190 -2203 2032 0
-2190 -2204 2033 0
-2212 2191 0
-2213 2192 0
-2214 2193 0
-2215 2194 0
-2216 2195 0
-2217 2196 0
-2218 2197 0
-2205 2191 0
-2206 2192 0
-2207 2193 0
-2208 2194 0
-2209 2195 0
-2210 2196 0
-2211 2197 0
-2205 -2212 2192 0
-2205 -2213 2193 0
-2205 -2214 2194 0
-2205 -2215 2195 0
-2205 -2216 2196 0
-2205 -2217 2197 0
-2205 -2218 2198 0
-2206 -2212 2193 0
-2206 -2213 2194 0
-2206 -2214 2195 0
-2206 -2215 2196 0
-2206 -2216 2197 0
-2206 -2217 2198 0
-2206 -2218 2199 0
-2207 -2212 2194 0
-2207 -2213 2195 0
-2207 -2214 2196 0
-2207 -2215 2197 0
-2207 -2216 2198 0
-2207 -2217 2199 0
-2207 -2218 2200 0
-2208 -2212 2195 0
-2208 -2213 2196 0
-2208 -2214 2197 0
-2208 -2215 2198 0
-2208 -2216 2199 0
-2208 -2217 2200 0
-2208 -2218 2201 0
-2209 -2212 2196 0
-2209 -2213 2197 0
-2209 -2214 2198 0
-2209 -2215 2199 0
-2209 -2216 2200 0
-2209 -2217 2201 0
-2209 -2218 2202 0
-2210 -2212 2197 0
-2210 -2213 2198 0
-2210 -2214 2199 0
-2210 -2215 2200 0
-2210 -2216 2201 0
-2210 -2217 2202 0
-2210 -2218 2203 0
-2211 -2212 2198 0
-2211 -2213 2199 0
-2211 -2214 2200 0
-2211 -2215 2201 0
-2211 -2216 2202 0
-2211 -2217 2203 0
-2211 -2218 2204 0
-2223 2212 0
-2224 2213 0
-2225 2214 0
-2219 2212 0
-2220 2213 0
-2221 2214 0
-2222 2215 0
-2219 -2223 2213 0
-2219 -2224 2214 0
-2219 -2225 2215 0
-2220 -2223 2214 0
-2220 -2224 2215 0
-2220 -2225 2216 0
-2221 -2223 2215 0
-2221 -2224 2216 0
-2221 -2225 2217 0
-2222 -2223 2216 0
-2222 -2224 2217 0
-2222 -2225 2218 0
-419 2223 0
-2226 2223 0
-2227 2224 0
-2226 -419 2224 0
-2227 -419 2225 0
-418 2226 0
-417 2226 0
-417 -418 2227 0
-2230 2219 0
-2231 2220 0
-2228 2219 0
-2229 2220 0
-2228 -2230 2220 0
-2228 -2231 2221 0
-2229 -2230 2221 0
-2229 -2231 2222 0
-416 2230 0
-415 2230 0
-415 -416 2231 0
-414 2228 0
-413 2228 0
-413 -414 2229 0
-2236 2205 0
-2237 2206 0
-2238 2207 0
-2232 2205 0
-2233 2206 0
-2234 2207 0
-2235 2208 0
-2232 -2236 2206 0
-2232 -2237 2207 0
-2232 -2238 2208 0
-2233 -2236 2207 0
-2233 -2237 2208 0
-2233 -2238 2209 0
-2234 -2236 2208 0
-2234 -2237 2209 0
-2234 -2238 2210 0
-2235 -2236 2209 0
-2235 -2237 2210 0
-2235 -2238 2211 0
-412 2236 0
-2239 2236 0
-2240 2237 0
-2239 -412 2237 0
-2240 -412 2238 0
-411 2239 0
-410 2239 0
-410 -411 2240 0
-2243 2232 0
-2244 2233 0
-2241 2232 0
-2242 2233 0
-2241 -2243 2233 0
-2241 -2244 2234 0
-2242 -2243 2234 0
-2242 -2244 2235 0
-409 2243 0
-408 2243 0
-408 -409 2244 0
-407 2241 0
-406 2241 0
-406 -407 2242 0
-2253 2176 0
-2254 2177 0
-2255 2178 0
-2256 2179 0
-2257 2180 0
-2258 2181 0
-2259 2182 0
-2245 2176 0
-2246 2177 0
-2247 2178 0
-2248 2179 0
-2249 2180 0
-2250 2181 0
-2251 2182 0
-2252 2183 0
-2245 -2253 2177 0
-2245 -2254 2178 0
-2245 -2255 2179 0
-2245 -2256 2180 0
-2245 -2257 2181 0
-2245 -2258 2182 0
-2245 -2259 2183 0
-2246 -2253 2178 0
-2246 -2254 2179 0
-2246 -2255 2180 0
-2246 -2256 2181 0
-2246 -2257 2182 0
-2246 -2258 2183 0
-2246 -2259 2184 0
-2247 -2253 2179 0
-2247 -2254 2180 0
-2247 -2255 2181 0
-2247 -2256 2182 0
-2247 -2257 2183 0
-2247 -2258 2184 0
-2247 -2259 2185 0
-2248 -2253 2180 0
-2248 -2254 2181 0
-2248 -2255 2182 0
-2248 -2256 2183 0
-2248 -2257 2184 0
-2248 -2258 2185 0
-2248 -2259 2186 0
-2249 -2253 2181 0
-2249 -2254 2182 0
-2249 -2255 2183 0
-2249 -2256 2184 0
-2249 -2257 2185 0
-2249 -2258 2186 0
-2249 -2259 2187 0
-2250 -2253 2182 0
-2250 -2254 2183 0
-2250 -2255 2184 0
-2250 -2256 2185 0
-2250 -2257 2186 0
-2250 -2258 2187 0
-2250 -2259 2188 0
-2251 -2253 2183 0
-2251 -2254 2184 0
-2251 -2255 2185 0
-2251 -2256 2186 0
-2251 -2257 2187 0
-2251 -2258 2188 0
-2251 -2259 2189 0
-2252 -2253 2184 0
-2252 -2254 2185 0
-2252 -2255 2186 0
-2252 -2256 2187 0
-2252 -2257 2188 0
-2252 -2258 2189 0
-2252 -2259 2190 0
-2264 2253 0
-2265 2254 0
-2266 2255 0
-2260 2253 0
-2261 2254 0
-2262 2255 0
-2263 2256 0
-2260 -2264 2254 0
-2260 -2265 2255 0
-2260 -2266 2256 0
-2261 -2264 2255 0
-2261 -2265 2256 0
-2261 -2266 2257 0
-2262 -2264 2256 0
-2262 -2265 2257 0
-2262 -2266 2258 0
-2263 -2264 2257 0
-2263 -2265 2258 0
-2263 -2266 2259 0
-405 2264 0
-2267 2264 0
-2268 2265 0
-2267 -405 2265 0
-2268 -405 2266 0
-404 2267 0
-403 2267 0
-403 -404 2268 0
-2271 2260 0
-2272 2261 0
-2269 2260 0
-2270 2261 0
-2269 -2271 2261 0
-2269 -2272 2262 0
-2270 -2271 2262 0
-2270 -2272 2263 0
-402 2271 0
-401 2271 0
-401 -402 2272 0
-400 2269 0
-399 2269 0
-399 -400 2270 0
-2277 2245 0
-2278 2246 0
-2279 2247 0
-2280 2248 0
-2273 2245 0
-2274 2246 0
-2275 2247 0
-2276 2248 0
-2273 -2277 2246 0
-2273 -2278 2247 0
-2273 -2279 2248 0
-2273 -2280 2249 0
-2274 -2277 2247 0
-2274 -2278 2248 0
-2274 -2279 2249 0
-2274 -2280 2250 0
-2275 -2277 2248 0
-2275 -2278 2249 0
-2275 -2279 2250 0
-2275 -2280 2251 0
-2276 -2277 2249 0
-2276 -2278 2250 0
-2276 -2279 2251 0
-2276 -2280 2252 0
-2283 2277 0
-2284 2278 0
-2281 2277 0
-2282 2278 0
-2281 -2283 2278 0
-2281 -2284 2279 0
-2282 -2283 2279 0
-2282 -2284 2280 0
-398 2283 0
-397 2283 0
-397 -398 2284 0
-396 2281 0
-395 2281 0
-395 -396 2282 0
-2287 2273 0
-2288 2274 0
-2285 2273 0
-2286 2274 0
-2285 -2287 2274 0
-2285 -2288 2275 0
-2286 -2287 2275 0
-2286 -2288 2276 0
-394 2287 0
-393 2287 0
-393 -394 2288 0
-392 2285 0
-391 2285 0
-391 -392 2286 0
-2318 1889 0
-2319 1890 0
-2320 1891 0
-2321 1892 0
-2322 1893 0
-2323 1894 0
-2324 1895 0
-2325 1896 0
-2326 1897 0
-2327 1898 0
-2328 1899 0
-2329 1900 0
-2330 1901 0
-2331 1902 0
-2332 1903 0
-2333 1904 0
-2334 1905 0
-2335 1906 0
-2336 1907 0
-2337 1908 0
-2338 1909 0
-2339 1910 0
-2340 1911 0
-2341 1912 0
-2342 1913 0
-2343 1914 0
-2344 1915 0
-2345 1916 0
-2346 1917 0
-2289 1889 0
-2290 1890 0
-2291 1891 0
-2292 1892 0
-2293 1893 0
-2294 1894 0
-2295 1895 0
-2296 1896 0
-2297 1897 0
-2298 1898 0
-2299 1899 0
-2300 1900 0
-2301 1901 0
-2302 1902 0
-2303 1903 0
-2304 1904 0
-2305 1905 0
-2306 1906 0
-2307 1907 0
-2308 1908 0
-2309 1909 0
-2310 1910 0
-2311 1911 0
-2312 1912 0
-2313 1913 0
-2314 1914 0
-2315 1915 0
-2316 1916 0
-2317 1917 0
-2289 -2318 1890 0
-2289 -2319 1891 0
-2289 -2320 1892 0
-2289 -2321 1893 0
-2289 -2322 1894 0
-2289 -2323 1895 0
-2289 -2324 1896 0
-2289 -2325 1897 0
-2289 -2326 1898 0
-2289 -2327 1899 0
-2289 -2328 1900 0
-2289 -2329 1901 0
-2289 -2330 1902 0
-2289 -2331 1903 0
-2289 -2332 1904 0
-2289 -2333 1905 0
-2289 -2334 1906 0
-2289 -2335 1907 0
-2289 -2336 1908 0
-2289 -2337 1909 0
-2289 -2338 1910 0
-2289 -2339 1911 0
-2289 -2340 1912 0
-2289 -2341 1913 0
-2289 -2342 1914 0
-2289 -2343 1915 0
-2289 -2344 1916 0
-2289 -2345 1917 0
-2289 -2346 1918 0
-2290 -2318 1891 0
-2290 -2319 1892 0
-2290 -2320 1893 0
-2290 -2321 1894 0
-2290 -2322 1895 0
-2290 -2323 1896 0
-2290 -2324 1897 0
-2290 -2325 1898 0
-2290 -2326 1899 0
-2290 -2327 1900 0
-2290 -2328 1901 0
-2290 -2329 1902 0
-2290 -2330 1903 0
-2290 -2331 1904 0
-2290 -2332 1905 0
-2290 -2333 1906 0
-2290 -2334 1907 0
-2290 -2335 1908 0
-2290 -2336 1909 0
-2290 -2337 1910 0
-2290 -2338 1911 0
-2290 -2339 1912 0
-2290 -2340 1913 0
-2290 -2341 1914 0
-2290 -2342 1915 0
-2290 -2343 1916 0
-2290 -2344 1917 0
-2290 -2345 1918 0
-2290 -2346 1919 0
-2291 -2318 1892 0
-2291 -2319 1893 0
-2291 -2320 1894 0
-2291 -2321 1895 0
-2291 -2322 1896 0
-2291 -2323 1897 0
-2291 -2324 1898 0
-2291 -2325 1899 0
-2291 -2326 1900 0
-2291 -2327 1901 0
-2291 -2328 1902 0
-2291 -2329 1903 0
-2291 -2330 1904 0
-2291 -2331 1905 0
-2291 -2332 1906 0
-2291 -2333 1907 0
-2291 -2334 1908 0
-2291 -2335 1909 0
-2291 -2336 1910 0
-2291 -2337 1911 0
-2291 -2338 1912 0
-2291 -2339 1913 0
-2291 -2340 1914 0
-2291 -2341 1915 0
-2291 -2342 1916 0
-2291 -2343 1917 0
-2291 -2344 1918 0
-2291 -2345 1919 0
-2291 -2346 1920 0
-2292 -2318 1893 0
-2292 -2319 1894 0
-2292 -2320 1895 0
-2292 -2321 1896 0
-2292 -2322 1897 0
-2292 -2323 1898 0
-2292 -2324 1899 0
-2292 -2325 1900 0
-2292 -2326 1901 0
-2292 -2327 1902 0
-2292 -2328 1903 0
-2292 -2329 1904 0
-2292 -2330 1905 0
-2292 -2331 1906 0
-2292 -2332 1907 0
-2292 -2333 1908 0
-2292 -2334 1909 0
-2292 -2335 1910 0
-2292 -2336 1911 0
-2292 -2337 1912 0
-2292 -2338 1913 0
-2292 -2339 1914 0
-2292 -2340 1915 0
-2292 -2341 1916 0
-2292 -2342 1917 0
-2292 -2343 1918 0
-2292 -2344 1919 0
-2292 -2345 1920 0
-2292 -2346 1921 0
-2293 -2318 1894 0
-2293 -2319 1895 0
-2293 -2320 1896 0
-2293 -2321 1897 0
-2293 -2322 1898 0
-2293 -2323 1899 0
-2293 -2324 1900 0
-2293 -2325 1901 0
-2293 -2326 1902 0
-2293 -2327 1903 0
-2293 -2328 1904 0
-2293 -2329 1905 0
-2293 -2330 1906 0
-2293 -2331 1907 0
-2293 -2332 1908 0
-2293 -2333 1909 0
-2293 -2334 1910 0
-2293 -2335 1911 0
-2293 -2336 1912 0
-2293 -2337 1913 0
-2293 -2338 1914 0
-2293 -2339 1915 0
-2293 -2340 1916 0
-2293 -2341 1917 0
-2293 -2342 1918 0
-2293 -2343 1919 0
-2293 -2344 1920 0
-2293 -2345 1921 0
-2293 -2346 1922 0
-2294 -2318 1895 0
-2294 -2319 1896 0
-2294 -2320 1897 0
-2294 -2321 1898 0
-2294 -2322 1899 0
-2294 -2323 1900 0
-2294 -2324 1901 0
-2294 -2325 1902 0
-2294 -2326 1903 0
-2294 -2327 1904 0
-2294 -2328 1905 0
-2294 -2329 1906 0
-2294 -2330 1907 0
-2294 -2331 1908 0
-2294 -2332 1909 0
-2294 -2333 1910 0
-2294 -2334 1911 0
-2294 -2335 1912 0
-2294 -2336 1913 0
-2294 -2337 1914 0
-2294 -2338 1915 0
-2294 -2339 1916 0
-2294 -2340 1917 0
-2294 -2341 1918 0
-2294 -2342 1919 0
-2294 -2343 1920 0
-2294 -2344 1921 0
-2294 -2345 1922 0
-2294 -2346 1923 0
-2295 -2318 1896 0
-2295 -2319 1897 0
-2295 -2320 1898 0
-2295 -2321 1899 0
-2295 -2322 1900 0
-2295 -2323 1901 0
-2295 -2324 1902 0
-2295 -2325 1903 0
-2295 -2326 1904 0
-2295 -2327 1905 0
-2295 -2328 1906 0
-2295 -2329 1907 0
-2295 -2330 1908 0
-2295 -2331 1909 0
-2295 -2332 1910 0
-2295 -2333 1911 0
-2295 -2334 1912 0
-2295 -2335 1913 0
-2295 -2336 1914 0
-2295 -2337 1915 0
-2295 -2338 1916 0
-2295 -2339 1917 0
-2295 -2340 1918 0
-2295 -2341 1919 0
-2295 -2342 1920 0
-2295 -2343 1921 0
-2295 -2344 1922 0
-2295 -2345 1923 0
-2295 -2346 1924 0
-2296 -2318 1897 0
-2296 -2319 1898 0
-2296 -2320 1899 0
-2296 -2321 1900 0
-2296 -2322 1901 0
-2296 -2323 1902 0
-2296 -2324 1903 0
-2296 -2325 1904 0
-2296 -2326 1905 0
-2296 -2327 1906 0
-2296 -2328 1907 0
-2296 -2329 1908 0
-2296 -2330 1909 0
-2296 -2331 1910 0
-2296 -2332 1911 0
-2296 -2333 1912 0
-2296 -2334 1913 0
-2296 -2335 1914 0
-2296 -2336 1915 0
-2296 -2337 1916 0
-2296 -2338 1917 0
-2296 -2339 1918 0
-2296 -2340 1919 0
-2296 -2341 1920 0
-2296 -2342 1921 0
-2296 -2343 1922 0
-2296 -2344 1923 0
-2296 -2345 1924 0
-2296 -2346 1925 0
-2297 -2318 1898 0
-2297 -2319 1899 0
-2297 -2320 1900 0
-2297 -2321 1901 0
-2297 -2322 1902 0
-2297 -2323 1903 0
-2297 -2324 1904 0
-2297 -2325 1905 0
-2297 -2326 1906 0
-2297 -2327 1907 0
-2297 -2328 1908 0
-2297 -2329 1909 0
-2297 -2330 1910 0
-2297 -2331 1911 0
-2297 -2332 1912 0
-2297 -2333 1913 0
-2297 -2334 1914 0
-2297 -2335 1915 0
-2297 -2336 1916 0
-2297 -2337 1917 0
-2297 -2338 1918 0
-2297 -2339 1919 0
-2297 -2340 1920 0
-2297 -2341 1921 0
-2297 -2342 1922 0
-2297 -2343 1923 0
-2297 -2344 1924 0
-2297 -2345 1925 0
-2297 -2346 1926 0
-2298 -2318 1899 0
-2298 -2319 1900 0
-2298 -2320 1901 0
-2298 -2321 1902 0
-2298 -2322 1903 0
-2298 -2323 1904 0
-2298 -2324 1905 0
-2298 -2325 1906 0
-2298 -2326 1907 0
-2298 -2327 1908 0
-2298 -2328 1909 0
-2298 -2329 1910 0
-2298 -2330 1911 0
-2298 -2331 1912 0
-2298 -2332 1913 0
-2298 -2333 1914 0
-2298 -2334 1915 0
-2298 -2335 1916 0
-2298 -2336 1917 0
-2298 -2337 1918 0
-2298 -2338 1919 0
-2298 -2339 1920 0
-2298 -2340 1921 0
-2298 -2341 1922 0
-2298 -2342 1923 0
-2298 -2343 1924 0
-2298 -2344 1925 0
-2298 -2345 1926 0
-2298 -2346 1927 0
-2299 -2318 1900 0
-2299 -2319 1901 0
-2299 -2320 1902 0
-2299 -2321 1903 0
-2299 -2322 1904 0
-2299 -2323 1905 0
-2299 -2324 1906 0
-2299 -2325 1907 0
-2299 -2326 1908 0
-2299 -2327 1909 0
-2299 -2328 1910 0
-2299 -2329 1911 0
-2299 -2330 1912 0
-2299 -2331 1913 0
-2299 -2332 1914 0
-2299 -2333 1915 0
-2299 -2334 1916 0
-2299 -2335 1917 0
-2299 -2336 1918 0
-2299 -2337 1919 0
-2299 -2338 1920 0
-2299 -2339 1921 0
-2299 -2340 1922 0
-2299 -2341 1923 0
-2299 -2342 1924 0
-2299 -2343 1925 0
-2299 -2344 1926 0
-2299 -2345 1927 0
-2299 -2346 1928 0
-2300 -2318 1901 0
-2300 -2319 1902 0
-2300 -2320 1903 0
-2300 -2321 1904 0
-2300 -2322 1905 0
-2300 -2323 1906 0
-2300 -2324 1907 0
-2300 -2325 1908 0
-2300 -2326 1909 0
-2300 -2327 1910 0
-2300 -2328 1911 0
-2300 -2329 1912 0
-2300 -2330 1913 0
-2300 -2331 1914 0
-2300 -2332 1915 0
-2300 -2333 1916 0
-2300 -2334 1917 0
-2300 -2335 1918 0
-2300 -2336 1919 0
-2300 -2337 1920 0
-2300 -2338 1921 0
-2300 -2339 1922 0
-2300 -2340 1923 0
-2300 -2341 1924 0
-2300 -2342 1925 0
-2300 -2343 1926 0
-2300 -2344 1927 0
-2300 -2345 1928 0
-2300 -2346 1929 0
-2301 -2318 1902 0
-2301 -2319 1903 0
-2301 -2320 1904 0
-2301 -2321 1905 0
-2301 -2322 1906 0
-2301 -2323 1907 0
-2301 -2324 1908 0
-2301 -2325 1909 0
-2301 -2326 1910 0
-2301 -2327 1911 0
-2301 -2328 1912 0
-2301 -2329 1913 0
-2301 -2330 1914 0
-2301 -2331 1915 0
-2301 -2332 1916 0
-2301 -2333 1917 0
-2301 -2334 1918 0
-2301 -2335 1919 0
-2301 -2336 1920 0
-2301 -2337 1921 0
-2301 -2338 1922 0
-2301 -2339 1923 0
-2301 -2340 1924 0
-2301 -2341 1925 0
-2301 -2342 1926 0
-2301 -2343 1927 0
-2301 -2344 1928 0
-2301 -2345 1929 0
-2301 -2346 1930 0
-2302 -2318 1903 0
-2302 -2319 1904 0
-2302 -2320 1905 0
-2302 -2321 1906 0
-2302 -2322 1907 0
-2302 -2323 1908 0
-2302 -2324 1909 0
-2302 -2325 1910 0
-2302 -2326 1911 0
-2302 -2327 1912 0
-2302 -2328 1913 0
-2302 -2329 1914 0
-2302 -2330 1915 0
-2302 -2331 1916 0
-2302 -2332 1917 0
-2302 -2333 1918 0
-2302 -2334 1919 0
-2302 -2335 1920 0
-2302 -2336 1921 0
-2302 -2337 1922 0
-2302 -2338 1923 0
-2302 -2339 1924 0
-2302 -2340 1925 0
-2302 -2341 1926 0
-2302 -2342 1927 0
-2302 -2343 1928 0
-2302 -2344 1929 0
-2302 -2345 1930 0
-2302 -2346 1931 0
-2303 -2318 1904 0
-2303 -2319 1905 0
-2303 -2320 1906 0
-2303 -2321 1907 0
-2303 -2322 1908 0
-2303 -2323 1909 0
-2303 -2324 1910 0
-2303 -2325 1911 0
-2303 -2326 1912 0
-2303 -2327 1913 0
-2303 -2328 1914 0
-2303 -2329 1915 0
-2303 -2330 1916 0
-2303 -2331 1917 0
-2303 -2332 1918 0
-2303 -2333 1919 0
-2303 -2334 1920 0
-2303 -2335 1921 0
-2303 -2336 1922 0
-2303 -2337 1923 0
-2303 -2338 1924 0
-2303 -2339 1925 0
-2303 -2340 1926 0
-2303 -2341 1927 0
-2303 -2342 1928 0
-2303 -2343 1929 0
-2303 -2344 1930 0
-2303 -2345 1931 0
-2303 -2346 1932 0
-2304 -2318 1905 0
-2304 -2319 1906 0
-2304 -2320 1907 0
-2304 -2321 1908 0
-2304 -2322 1909 0
-2304 -2323 1910 0
-2304 -2324 1911 0
-2304 -2325 1912 0
-2304 -2326 1913 0
-2304 -2327 1914 0
-2304 -2328 1915 0
-2304 -2329 1916 0
-2304 -2330 1917 0
-2304 -2331 1918 0
-2304 -2332 1919 0
-2304 -2333 1920 0
-2304 -2334 1921 0
-2304 -2335 1922 0
-2304 -2336 1923 0
-2304 -2337 1924 0
-2304 -2338 1925 0
-2304 -2339 1926 0
-2304 -2340 1927 0
-2304 -2341 1928 0
-2304 -2342 1929 0
-2304 -2343 1930 0
-2304 -2344 1931 0
-2304 -2345 1932 0
-2304 -2346 1933 0
-2305 -2318 1906 0
-2305 -2319 1907 0
-2305 -2320 1908 0
-2305 -2321 1909 0
-2305 -2322 1910 0
-2305 -2323 1911 0
-2305 -2324 1912 0
-2305 -2325 1913 0
-2305 -2326 1914 0
-2305 -2327 1915 0
-2305 -2328 1916 0
-2305 -2329 1917 0
-2305 -2330 1918 0
-2305 -2331 1919 0
-2305 -2332 1920 0
-2305 -2333 1921 0
-2305 -2334 1922 0
-2305 -2335 1923 0
-2305 -2336 1924 0
-2305 -2337 1925 0
-2305 -2338 1926 0
-2305 -2339 1927 0
-2305 -2340 1928 0
-2305 -2341 1929 0
-2305 -2342 1930 0
-2305 -2343 1931 0
-2305 -2344 1932 0
-2305 -2345 1933 0
-2305 -2346 1934 0
-2306 -2318 1907 0
-2306 -2319 1908 0
-2306 -2320 1909 0
-2306 -2321 1910 0
-2306 -2322 1911 0
-2306 -2323 1912 0
-2306 -2324 1913 0
-2306 -2325 1914 0
-2306 -2326 1915 0
-2306 -2327 1916 0
-2306 -2328 1917 0
-2306 -2329 1918 0
-2306 -2330 1919 0
-2306 -2331 1920 0
-2306 -2332 1921 0
-2306 -2333 1922 0
-2306 -2334 1923 0
-2306 -2335 1924 0
-2306 -2336 1925 0
-2306 -2337 1926 0
-2306 -2338 1927 0
-2306 -2339 1928 0
-2306 -2340 1929 0
-2306 -2341 1930 0
-2306 -2342 1931 0
-2306 -2343 1932 0
-2306 -2344 1933 0
-2306 -2345 1934 0
-2306 -2346 1935 0
-2307 -2318 1908 0
-2307 -2319 1909 0
-2307 -2320 1910 0
-2307 -2321 1911 0
-2307 -2322 1912 0
-2307 -2323 1913 0
-2307 -2324 1914 0
-2307 -2325 1915 0
-2307 -2326 1916 0
-2307 -2327 1917 0
-2307 -2328 1918 0
-2307 -2329 1919 0
-2307 -2330 1920 0
-2307 -2331 1921 0
-2307 -2332 1922 0
-2307 -2333 1923 0
-2307 -2334 1924 0
-2307 -2335 1925 0
-2307 -2336 1926 0
-2307 -2337 1927 0
-2307 -2338 1928 0
-2307 -2339 1929 0
-2307 -2340 1930 0
-2307 -2341 1931 0
-2307 -2342 1932 0
-2307 -2343 1933 0
-2307 -2344 1934 0
-2307 -2345 1935 0
-2307 -2346 1936 0
-2308 -2318 1909 0
-2308 -2319 1910 0
-2308 -2320 1911 0
-2308 -2321 1912 0
-2308 -2322 1913 0
-2308 -2323 1914 0
-2308 -2324 1915 0
-2308 -2325 1916 0
-2308 -2326 1917 0
-2308 -2327 1918 0
-2308 -2328 1919 0
-2308 -2329 1920 0
-2308 -2330 1921 0
-2308 -2331 1922 0
-2308 -2332 1923 0
-2308 -2333 1924 0
-2308 -2334 1925 0
-2308 -2335 1926 0
-2308 -2336 1927 0
-2308 -2337 1928 0
-2308 -2338 1929 0
-2308 -2339 1930 0
-2308 -2340 1931 0
-2308 -2341 1932 0
-2308 -2342 1933 0
-2308 -2343 1934 0
-2308 -2344 1935 0
-2308 -2345 1936 0
-2308 -2346 1937 0
-2309 -2318 1910 0
-2309 -2319 1911 0
-2309 -2320 1912 0
-2309 -2321 1913 0
-2309 -2322 1914 0
-2309 -2323 1915 0
-2309 -2324 1916 0
-2309 -2325 1917 0
-2309 -2326 1918 0
-2309 -2327 1919 0
-2309 -2328 1920 0
-2309 -2329 1921 0
-2309 -2330 1922 0
-2309 -2331 1923 0
-2309 -2332 1924 0
-2309 -2333 1925 0
-2309 -2334 1926 0
-2309 -2335 1927 0
-2309 -2336 1928 0
-2309 -2337 1929 0
-2309 -2338 1930 0
-2309 -2339 1931 0
-2309 -2340 1932 0
-2309 -2341 1933 0
-2309 -2342 1934 0
-2309 -2343 1935 0
-2309 -2344 1936 0
-2309 -2345 1937 0
-2309 -2346 1938 0
-2310 -2318 1911 0
-2310 -2319 1912 0
-2310 -2320 1913 0
-2310 -2321 1914 0
-2310 -2322 1915 0
-2310 -2323 1916 0
-2310 -2324 1917 0
-2310 -2325 1918 0
-2310 -2326 1919 0
-2310 -2327 1920 0
-2310 -2328 1921 0
-2310 -2329 1922 0
-2310 -2330 1923 0
-2310 -2331 1924 0
-2310 -2332 1925 0
-2310 -2333 1926 0
-2310 -2334 1927 0
-2310 -2335 1928 0
-2310 -2336 1929 0
-2310 -2337 1930 0
-2310 -2338 1931 0
-2310 -2339 1932 0
-2310 -2340 1933 0
-2310 -2341 1934 0
-2310 -2342 1935 0
-2310 -2343 1936 0
-2310 -2344 1937 0
-2310 -2345 1938 0
-2310 -2346 1939 0
-2311 -2318 1912 0
-2311 -2319 1913 0
-2311 -2320 1914 0
-2311 -2321 1915 0
-2311 -2322 1916 0
-2311 -2323 1917 0
-2311 -2324 1918 0
-2311 -2325 1919 0
-2311 -2326 1920 0
-2311 -2327 1921 0
-2311 -2328 1922 0
-2311 -2329 1923 0
-2311 -2330 1924 0
-2311 -2331 1925 0
-2311 -2332 1926 0
-2311 -2333 1927 0
-2311 -2334 1928 0
-2311 -2335 1929 0
-2311 -2336 1930 0
-2311 -2337 1931 0
-2311 -2338 1932 0
-2311 -2339 1933 0
-2311 -2340 1934 0
-2311 -2341 1935 0
-2311 -2342 1936 0
-2311 -2343 1937 0
-2311 -2344 1938 0
-2311 -2345 1939 0
-2311 -2346 1940 0
-2312 -2318 1913 0
-2312 -2319 1914 0
-2312 -2320 1915 0
-2312 -2321 1916 0
-2312 -2322 1917 0
-2312 -2323 1918 0
-2312 -2324 1919 0
-2312 -2325 1920 0
-2312 -2326 1921 0
-2312 -2327 1922 0
-2312 -2328 1923 0
-2312 -2329 1924 0
-2312 -2330 1925 0
-2312 -2331 1926 0
-2312 -2332 1927 0
-2312 -2333 1928 0
-2312 -2334 1929 0
-2312 -2335 1930 0
-2312 -2336 1931 0
-2312 -2337 1932 0
-2312 -2338 1933 0
-2312 -2339 1934 0
-2312 -2340 1935 0
-2312 -2341 1936 0
-2312 -2342 1937 0
-2312 -2343 1938 0
-2312 -2344 1939 0
-2312 -2345 1940 0
-2312 -2346 1941 0
-2313 -2318 1914 0
-2313 -2319 1915 0
-2313 -2320 1916 0
-2313 -2321 1917 0
-2313 -2322 1918 0
-2313 -2323 1919 0
-2313 -2324 1920 0
-2313 -2325 1921 0
-2313 -2326 1922 0
-2313 -2327 1923 0
-2313 -2328 1924 0
-2313 -2329 1925 0
-2313 -2330 1926 0
-2313 -2331 1927 0
-2313 -2332 1928 0
-2313 -2333 1929 0
-2313 -2334 1930 0
-2313 -2335 1931 0
-2313 -2336 1932 0
-2313 -2337 1933 0
-2313 -2338 1934 0
-2313 -2339 1935 0
-2313 -2340 1936 0
-2313 -2341 1937 0
-2313 -2342 1938 0
-2313 -2343 1939 0
-2313 -2344 1940 0
-2313 -2345 1941 0
-2313 -2346 1942 0
-2314 -2318 1915 0
-2314 -2319 1916 0
-2314 -2320 1917 0
-2314 -2321 1918 0
-2314 -2322 1919 0
-2314 -2323 1920 0
-2314 -2324 1921 0
-2314 -2325 1922 0
-2314 -2326 1923 0
-2314 -2327 1924 0
-2314 -2328 1925 0
-2314 -2329 1926 0
-2314 -2330 1927 0
-2314 -2331 1928 0
-2314 -2332 1929 0
-2314 -2333 1930 0
-2314 -2334 1931 0
-2314 -2335 1932 0
-2314 -2336 1933 0
-2314 -2337 1934 0
-2314 -2338 1935 0
-2314 -2339 1936 0
-2314 -2340 1937 0
-2314 -2341 1938 0
-2314 -2342 1939 0
-2314 -2343 1940 0
-2314 -2344 1941 0
-2314 -2345 1942 0
-2314 -2346 1943 0
-2315 -2318 1916 0
-2315 -2319 1917 0
-2315 -2320 1918 0
-2315 -2321 1919 0
-2315 -2322 1920 0
-2315 -2323 1921 0
-2315 -2324 1922 0
-2315 -2325 1923 0
-2315 -2326 1924 0
-2315 -2327 1925 0
-2315 -2328 1926 0
-2315 -2329 1927 0
-2315 -2330 1928 0
-2315 -2331 1929 0
-2315 -2332 1930 0
-2315 -2333 1931 0
-2315 -2334 1932 0
-2315 -2335 1933 0
-2315 -2336 1934 0
-2315 -2337 1935 0
-2315 -2338 1936 0
-2315 -2339 1937 0
-2315 -2340 1938 0
-2315 -2341 1939 0
-2315 -2342 1940 0
-2315 -2343 1941 0
-2315 -2344 1942 0
-2315 -2345 1943 0
-2315 -2346 1944 0
-2316 -2318 1917 0
-2316 -2319 1918 0
-2316 -2320 1919 0
-2316 -2321 1920 0
-2316 -2322 1921 0
-2316 -2323 1922 0
-2316 -2324 1923 0
-2316 -2325 1924 0
-2316 -2326 1925 0
-2316 -2327 1926 0
-2316 -2328 1927 0
-2316 -2329 1928 0
-2316 -2330 1929 0
-2316 -2331 1930 0
-2316 -2332 1931 0
-2316 -2333 1932 0
-2316 -2334 1933 0
-2316 -2335 1934 0
-2316 -2336 1935 0
-2316 -2337 1936 0
-2316 -2338 1937 0
-2316 -2339 1938 0
-2316 -2340 1939 0
-2316 -2341 1940 0
-2316 -2342 1941 0
-2316 -2343 1942 0
-2316 -2344 1943 0
-2316 -2345 1944 0
-2316 -2346 1945 0
-2317 -2318 1918 0
-2317 -2319 1919 0
-2317 -2320 1920 0
-2317 -2321 1921 0
-2317 -2322 1922 0
-2317 -2323 1923 0
-2317 -2324 1924 0
-2317 -2325 1925 0
-2317 -2326 1926 0
-2317 -2327 1927 0
-2317 -2328 1928 0
-2317 -2329 1929 0
-2317 -2330 1930 0
-2317 -2331 1931 0
-2317 -2332 1932 0
-2317 -2333 1933 0
-2317 -2334 1934 0
-2317 -2335 1935 0
-2317 -2336 1936 0
-2317 -2337 1937 0
-2317 -2338 1938 0
-2317 -2339 1939 0
-2317 -2340 1940 0
-2317 -2341 1941 0
-2317 -2342 1942 0
-2317 -2343 1943 0
-2317 -2344 1944 0
-2317 -2345 1945 0
-2317 -2346 1946 0
-2362 2318 0
-2363 2319 0
-2364 2320 0
-2365 2321 0
-2366 2322 0
-2367 2323 0
-2368 2324 0
-2369 2325 0
-2370 2326 0
-2371 2327 0
-2372 2328 0
-2373 2329 0
-2374 2330 0
-2375 2331 0
-2347 2318 0
-2348 2319 0
-2349 2320 0
-2350 2321 0
-2351 2322 0
-2352 2323 0
-2353 2324 0
-2354 2325 0
-2355 2326 0
-2356 2327 0
-2357 2328 0
-2358 2329 0
-2359 2330 0
-2360 2331 0
-2361 2332 0
-2347 -2362 2319 0
-2347 -2363 2320 0
-2347 -2364 2321 0
-2347 -2365 2322 0
-2347 -2366 2323 0
-2347 -2367 2324 0
-2347 -2368 2325 0
-2347 -2369 2326 0
-2347 -2370 2327 0
-2347 -2371 2328 0
-2347 -2372 2329 0
-2347 -2373 2330 0
-2347 -2374 2331 0
-2347 -2375 2332 0
-2348 -2362 2320 0
-2348 -2363 2321 0
-2348 -2364 2322 0
-2348 -2365 2323 0
-2348 -2366 2324 0
-2348 -2367 2325 0
-2348 -2368 2326 0
-2348 -2369 2327 0
-2348 -2370 2328 0
-2348 -2371 2329 0
-2348 -2372 2330 0
-2348 -2373 2331 0
-2348 -2374 2332 0
-2348 -2375 2333 0
-2349 -2362 2321 0
-2349 -2363 2322 0
-2349 -2364 2323 0
-2349 -2365 2324 0
-2349 -2366 2325 0
-2349 -2367 2326 0
-2349 -2368 2327 0
-2349 -2369 2328 0
-2349 -2370 2329 0
-2349 -2371 2330 0
-2349 -2372 2331 0
-2349 -2373 2332 0
-2349 -2374 2333 0
-2349 -2375 2334 0
-2350 -2362 2322 0
-2350 -2363 2323 0
-2350 -2364 2324 0
-2350 -2365 2325 0
-2350 -2366 2326 0
-2350 -2367 2327 0
-2350 -2368 2328 0
-2350 -2369 2329 0
-2350 -2370 2330 0
-2350 -2371 2331 0
-2350 -2372 2332 0
-2350 -2373 2333 0
-2350 -2374 2334 0
-2350 -2375 2335 0
-2351 -2362 2323 0
-2351 -2363 2324 0
-2351 -2364 2325 0
-2351 -2365 2326 0
-2351 -2366 2327 0
-2351 -2367 2328 0
-2351 -2368 2329 0
-2351 -2369 2330 0
-2351 -2370 2331 0
-2351 -2371 2332 0
-2351 -2372 2333 0
-2351 -2373 2334 0
-2351 -2374 2335 0
-2351 -2375 2336 0
-2352 -2362 2324 0
-2352 -2363 2325 0
-2352 -2364 2326 0
-2352 -2365 2327 0
-2352 -2366 2328 0
-2352 -2367 2329 0
-2352 -2368 2330 0
-2352 -2369 2331 0
-2352 -2370 2332 0
-2352 -2371 2333 0
-2352 -2372 2334 0
-2352 -2373 2335 0
-2352 -2374 2336 0
-2352 -2375 2337 0
-2353 -2362 2325 0
-2353 -2363 2326 0
-2353 -2364 2327 0
-2353 -2365 2328 0
-2353 -2366 2329 0
-2353 -2367 2330 0
-2353 -2368 2331 0
-2353 -2369 2332 0
-2353 -2370 2333 0
-2353 -2371 2334 0
-2353 -2372 2335 0
-2353 -2373 2336 0
-2353 -2374 2337 0
-2353 -2375 2338 0
-2354 -2362 2326 0
-2354 -2363 2327 0
-2354 -2364 2328 0
-2354 -2365 2329 0
-2354 -2366 2330 0
-2354 -2367 2331 0
-2354 -2368 2332 0
-2354 -2369 2333 0
-2354 -2370 2334 0
-2354 -2371 2335 0
-2354 -2372 2336 0
-2354 -2373 2337 0
-2354 -2374 2338 0
-2354 -2375 2339 0
-2355 -2362 2327 0
-2355 -2363 2328 0
-2355 -2364 2329 0
-2355 -2365 2330 0
-2355 -2366 2331 0
-2355 -2367 2332 0
-2355 -2368 2333 0
-2355 -2369 2334 0
-2355 -2370 2335 0
-2355 -2371 2336 0
-2355 -2372 2337 0
-2355 -2373 2338 0
-2355 -2374 2339 0
-2355 -2375 2340 0
-2356 -2362 2328 0
-2356 -2363 2329 0
-2356 -2364 2330 0
-2356 -2365 2331 0
-2356 -2366 2332 0
-2356 -2367 2333 0
-2356 -2368 2334 0
-2356 -2369 2335 0
-2356 -2370 2336 0
-2356 -2371 2337 0
-2356 -2372 2338 0
-2356 -2373 2339 0
-2356 -2374 2340 0
-2356 -2375 2341 0
-2357 -2362 2329 0
-2357 -2363 2330 0
-2357 -2364 2331 0
-2357 -2365 2332 0
-2357 -2366 2333 0
-2357 -2367 2334 0
-2357 -2368 2335 0
-2357 -2369 2336 0
-2357 -2370 2337 0
-2357 -2371 2338 0
-2357 -2372 2339 0
-2357 -2373 2340 0
-2357 -2374 2341 0
-2357 -2375 2342 0
-2358 -2362 2330 0
-2358 -2363 2331 0
-2358 -2364 2332 0
-2358 -2365 2333 0
-2358 -2366 2334 0
-2358 -2367 2335 0
-2358 -2368 2336 0
-2358 -2369 2337 0
-2358 -2370 2338 0
-2358 -2371 2339 0
-2358 -2372 2340 0
-2358 -2373 2341 0
-2358 -2374 2342 0
-2358 -2375 2343 0
-2359 -2362 2331 0
-2359 -2363 2332 0
-2359 -2364 2333 0
-2359 -2365 2334 0
-2359 -2366 2335 0
-2359 -2367 2336 0
-2359 -2368 2337 0
-2359 -2369 2338 0
-2359 -2370 2339 0
-2359 -2371 2340 0
-2359 -2372 2341 0
-2359 -2373 2342 0
-2359 -2374 2343 0
-2359 -2375 2344 0
-2360 -2362 2332 0
-2360 -2363 2333 0
-2360 -2364 2334 0
-2360 -2365 2335 0
-2360 -2366 2336 0
-2360 -2367 2337 0
-2360 -2368 2338 0
-2360 -2369 2339 0
-2360 -2370 2340 0
-2360 -2371 2341 0
-2360 -2372 2342 0
-2360 -2373 2343 0
-2360 -2374 2344 0
-2360 -2375 2345 0
-2361 -2362 2333 0
-2361 -2363 2334 0
-2361 -2364 2335 0
-2361 -2365 2336 0
-2361 -2366 2337 0
-2361 -2367 2338 0
-2361 -2368 2339 0
-2361 -2369 2340 0
-2361 -2370 2341 0
-2361 -2371 2342 0
-2361 -2372 2343 0
-2361 -2373 2344 0
-2361 -2374 2345 0
-2361 -2375 2346 0
-2383 2362 0
-2384 2363 0
-2385 2364 0
-2386 2365 0
-2387 2366 0
-2388 2367 0
-2389 2368 0
-2376 2362 0
-2377 2363 0
-2378 2364 0
-2379 2365 0
-2380 2366 0
-2381 2367 0
-2382 2368 0
-2376 -2383 2363 0
-2376 -2384 2364 0
-2376 -2385 2365 0
-2376 -2386 2366 0
-2376 -2387 2367 0
-2376 -2388 2368 0
-2376 -2389 2369 0
-2377 -2383 2364 0
-2377 -2384 2365 0
-2377 -2385 2366 0
-2377 -2386 2367 0
-2377 -2387 2368 0
-2377 -2388 2369 0
-2377 -2389 2370 0
-2378 -2383 2365 0
-2378 -2384 2366 0
-2378 -2385 2367 0
-2378 -2386 2368 0
-2378 -2387 2369 0
-2378 -2388 2370 0
-2378 -2389 2371 0
-2379 -2383 2366 0
-2379 -2384 2367 0
-2379 -2385 2368 0
-2379 -2386 2369 0
-2379 -2387 2370 0
-2379 -2388 2371 0
-2379 -2389 2372 0
-2380 -2383 2367 0
-2380 -2384 2368 0
-2380 -2385 2369 0
-2380 -2386 2370 0
-2380 -2387 2371 0
-2380 -2388 2372 0
-2380 -2389 2373 0
-2381 -2383 2368 0
-2381 -2384 2369 0
-2381 -2385 2370 0
-2381 -2386 2371 0
-2381 -2387 2372 0
-2381 -2388 2373 0
-2381 -2389 2374 0
-2382 -2383 2369 0
-2382 -2384 2370 0
-2382 -2385 2371 0
-2382 -2386 2372 0
-2382 -2387 2373 0
-2382 -2388 2374 0
-2382 -2389 2375 0
-2394 2383 0
-2395 2384 0
-2396 2385 0
-2390 2383 0
-2391 2384 0
-2392 2385 0
-2393 2386 0
-2390 -2394 2384 0
-2390 -2395 2385 0
-2390 -2396 2386 0
-2391 -2394 2385 0
-2391 -2395 2386 0
-2391 -2396 2387 0
-2392 -2394 2386 0
-2392 -2395 2387 0
-2392 -2396 2388 0
-2393 -2394 2387 0
-2393 -2395 2388 0
-2393 -2396 2389 0
-390 2394 0
-2397 2394 0
-2398 2395 0
-2397 -390 2395 0
-2398 -390 2396 0
-389 2397 0
-388 2397 0
-388 -389 2398 0
-2401 2390 0
-2402 2391 0
-2399 2390 0
-2400 2391 0
-2399 -2401 2391 0
-2399 -2402 2392 0
-2400 -2401 2392 0
-2400 -2402 2393 0
-387 2401 0
-386 2401 0
-386 -387 2402 0
-385 2399 0
-384 2399 0
-384 -385 2400 0
-2407 2376 0
-2408 2377 0
-2409 2378 0
-2403 2376 0
-2404 2377 0
-2405 2378 0
-2406 2379 0
-2403 -2407 2377 0
-2403 -2408 2378 0
-2403 -2409 2379 0
-2404 -2407 2378 0
-2404 -2408 2379 0
-2404 -2409 2380 0
-2405 -2407 2379 0
-2405 -2408 2380 0
-2405 -2409 2381 0
-2406 -2407 2380 0
-2406 -2408 2381 0
-2406 -2409 2382 0
-383 2407 0
-2410 2407 0
-2411 2408 0
-2410 -383 2408 0
-2411 -383 2409 0
-382 2410 0
-381 2410 0
-381 -382 2411 0
-2414 2403 0
-2415 2404 0
-2412 2403 0
-2413 2404 0
-2412 -2414 2404 0
-2412 -2415 2405 0
-2413 -2414 2405 0
-2413 -2415 2406 0
-380 2414 0
-379 2414 0
-379 -380 2415 0
-378 2412 0
-377 2412 0
-377 -378 2413 0
-2424 2347 0
-2425 2348 0
-2426 2349 0
-2427 2350 0
-2428 2351 0
-2429 2352 0
-2430 2353 0
-2416 2347 0
-2417 2348 0
-2418 2349 0
-2419 2350 0
-2420 2351 0
-2421 2352 0
-2422 2353 0
-2423 2354 0
-2416 -2424 2348 0
-2416 -2425 2349 0
-2416 -2426 2350 0
-2416 -2427 2351 0
-2416 -2428 2352 0
-2416 -2429 2353 0
-2416 -2430 2354 0
-2417 -2424 2349 0
-2417 -2425 2350 0
-2417 -2426 2351 0
-2417 -2427 2352 0
-2417 -2428 2353 0
-2417 -2429 2354 0
-2417 -2430 2355 0
-2418 -2424 2350 0
-2418 -2425 2351 0
-2418 -2426 2352 0
-2418 -2427 2353 0
-2418 -2428 2354 0
-2418 -2429 2355 0
-2418 -2430 2356 0
-2419 -2424 2351 0
-2419 -2425 2352 0
-2419 -2426 2353 0
-2419 -2427 2354 0
-2419 -2428 2355 0
-2419 -2429 2356 0
-2419 -2430 2357 0
-2420 -2424 2352 0
-2420 -2425 2353 0
-2420 -2426 2354 0
-2420 -2427 2355 0
-2420 -2428 2356 0
-2420 -2429 2357 0
-2420 -2430 2358 0
-2421 -2424 2353 0
-2421 -2425 2354 0
-2421 -2426 2355 0
-2421 -2427 2356 0
-2421 -2428 2357 0
-2421 -2429 2358 0
-2421 -2430 2359 0
-2422 -2424 2354 0
-2422 -2425 2355 0
-2422 -2426 2356 0
-2422 -2427 2357 0
-2422 -2428 2358 0
-2422 -2429 2359 0
-2422 -2430 2360 0
-2423 -2424 2355 0
-2423 -2425 2356 0
-2423 -2426 2357 0
-2423 -2427 2358 0
-2423 -2428 2359 0
-2423 -2429 2360 0
-2423 -2430 2361 0
-2435 2424 0
-2436 2425 0
-2437 2426 0
-2431 2424 0
-2432 2425 0
-2433 2426 0
-2434 2427 0
-2431 -2435 2425 0
-2431 -2436 2426 0
-2431 -2437 2427 0
-2432 -2435 2426 0
-2432 -2436 2427 0
-2432 -2437 2428 0
-2433 -2435 2427 0
-2433 -2436 2428 0
-2433 -2437 2429 0
-2434 -2435 2428 0
-2434 -2436 2429 0
-2434 -2437 2430 0
-376 2435 0
-2438 2435 0
-2439 2436 0
-2438 -376 2436 0
-2439 -376 2437 0
-375 2438 0
-374 2438 0
-374 -375 2439 0
-2442 2431 0
-2443 2432 0
-2440 2431 0
-2441 2432 0
-2440 -2442 2432 0
-2440 -2443 2433 0
-2441 -2442 2433 0
-2441 -2443 2434 0
-373 2442 0
-372 2442 0
-372 -373 2443 0
-371 2440 0
-370 2440 0
-370 -371 2441 0
-2448 2416 0
-2449 2417 0
-2450 2418 0
-2451 2419 0
-2444 2416 0
-2445 2417 0
-2446 2418 0
-2447 2419 0
-2444 -2448 2417 0
-2444 -2449 2418 0
-2444 -2450 2419 0
-2444 -2451 2420 0
-2445 -2448 2418 0
-2445 -2449 2419 0
-2445 -2450 2420 0
-2445 -2451 2421 0
-2446 -2448 2419 0
-2446 -2449 2420 0
-2446 -2450 2421 0
-2446 -2451 2422 0
-2447 -2448 2420 0
-2447 -2449 2421 0
-2447 -2450 2422 0
-2447 -2451 2423 0
-2454 2448 0
-2455 2449 0
-2452 2448 0
-2453 2449 0
-2452 -2454 2449 0
-2452 -2455 2450 0
-2453 -2454 2450 0
-2453 -2455 2451 0
-369 2454 0
-368 2454 0
-368 -369 2455 0
-367 2452 0
-366 2452 0
-366 -367 2453 0
-2458 2444 0
-2459 2445 0
-2456 2444 0
-2457 2445 0
-2456 -2458 2445 0
-2456 -2459 2446 0
-2457 -2458 2446 0
-2457 -2459 2447 0
-365 2458 0
-364 2458 0
-364 -365 2459 0
-363 2456 0
-362 2456 0
-362 -363 2457 0
-2475 2289 0
-2476 2290 0
-2477 2291 0
-2478 2292 0
-2479 2293 0
-2480 2294 0
-2481 2295 0
-2482 2296 0
-2483 2297 0
-2484 2298 0
-2485 2299 0
-2486 2300 0
-2487 2301 0
-2488 2302 0
-2460 2289 0
-2461 2290 0
-2462 2291 0
-2463 2292 0
-2464 2293 0
-2465 2294 0
-2466 2295 0
-2467 2296 0
-2468 2297 0
-2469 2298 0
-2470 2299 0
-2471 2300 0
-2472 2301 0
-2473 2302 0
-2474 2303 0
-2460 -2475 2290 0
-2460 -2476 2291 0
-2460 -2477 2292 0
-2460 -2478 2293 0
-2460 -2479 2294 0
-2460 -2480 2295 0
-2460 -2481 2296 0
-2460 -2482 2297 0
-2460 -2483 2298 0
-2460 -2484 2299 0
-2460 -2485 2300 0
-2460 -2486 2301 0
-2460 -2487 2302 0
-2460 -2488 2303 0
-2461 -2475 2291 0
-2461 -2476 2292 0
-2461 -2477 2293 0
-2461 -2478 2294 0
-2461 -2479 2295 0
-2461 -2480 2296 0
-2461 -2481 2297 0
-2461 -2482 2298 0
-2461 -2483 2299 0
-2461 -2484 2300 0
-2461 -2485 2301 0
-2461 -2486 2302 0
-2461 -2487 2303 0
-2461 -2488 2304 0
-2462 -2475 2292 0
-2462 -2476 2293 0
-2462 -2477 2294 0
-2462 -2478 2295 0
-2462 -2479 2296 0
-2462 -2480 2297 0
-2462 -2481 2298 0
-2462 -2482 2299 0
-2462 -2483 2300 0
-2462 -2484 2301 0
-2462 -2485 2302 0
-2462 -2486 2303 0
-2462 -2487 2304 0
-2462 -2488 2305 0
-2463 -2475 2293 0
-2463 -2476 2294 0
-2463 -2477 2295 0
-2463 -2478 2296 0
-2463 -2479 2297 0
-2463 -2480 2298 0
-2463 -2481 2299 0
-2463 -2482 2300 0
-2463 -2483 2301 0
-2463 -2484 2302 0
-2463 -2485 2303 0
-2463 -2486 2304 0
-2463 -2487 2305 0
-2463 -2488 2306 0
-2464 -2475 2294 0
-2464 -2476 2295 0
-2464 -2477 2296 0
-2464 -2478 2297 0
-2464 -2479 2298 0
-2464 -2480 2299 0
-2464 -2481 2300 0
-2464 -2482 2301 0
-2464 -2483 2302 0
-2464 -2484 2303 0
-2464 -2485 2304 0
-2464 -2486 2305 0
-2464 -2487 2306 0
-2464 -2488 2307 0
-2465 -2475 2295 0
-2465 -2476 2296 0
-2465 -2477 2297 0
-2465 -2478 2298 0
-2465 -2479 2299 0
-2465 -2480 2300 0
-2465 -2481 2301 0
-2465 -2482 2302 0
-2465 -2483 2303 0
-2465 -2484 2304 0
-2465 -2485 2305 0
-2465 -2486 2306 0
-2465 -2487 2307 0
-2465 -2488 2308 0
-2466 -2475 2296 0
-2466 -2476 2297 0
-2466 -2477 2298 0
-2466 -2478 2299 0
-2466 -2479 2300 0
-2466 -2480 2301 0
-2466 -2481 2302 0
-2466 -2482 2303 0
-2466 -2483 2304 0
-2466 -2484 2305 0
-2466 -2485 2306 0
-2466 -2486 2307 0
-2466 -2487 2308 0
-2466 -2488 2309 0
-2467 -2475 2297 0
-2467 -2476 2298 0
-2467 -2477 2299 0
-2467 -2478 2300 0
-2467 -2479 2301 0
-2467 -2480 2302 0
-2467 -2481 2303 0
-2467 -2482 2304 0
-2467 -2483 2305 0
-2467 -2484 2306 0
-2467 -2485 2307 0
-2467 -2486 2308 0
-2467 -2487 2309 0
-2467 -2488 2310 0
-2468 -2475 2298 0
-2468 -2476 2299 0
-2468 -2477 2300 0
-2468 -2478 2301 0
-2468 -2479 2302 0
-2468 -2480 2303 0
-2468 -2481 2304 0
-2468 -2482 2305 0
-2468 -2483 2306 0
-2468 -2484 2307 0
-2468 -2485 2308 0
-2468 -2486 2309 0
-2468 -2487 2310 0
-2468 -2488 2311 0
-2469 -2475 2299 0
-2469 -2476 2300 0
-2469 -2477 2301 0
-2469 -2478 2302 0
-2469 -2479 2303 0
-2469 -2480 2304 0
-2469 -2481 2305 0
-2469 -2482 2306 0
-2469 -2483 2307 0
-2469 -2484 2308 0
-2469 -2485 2309 0
-2469 -2486 2310 0
-2469 -2487 2311 0
-2469 -2488 2312 0
-2470 -2475 2300 0
-2470 -2476 2301 0
-2470 -2477 2302 0
-2470 -2478 2303 0
-2470 -2479 2304 0
-2470 -2480 2305 0
-2470 -2481 2306 0
-2470 -2482 2307 0
-2470 -2483 2308 0
-2470 -2484 2309 0
-2470 -2485 2310 0
-2470 -2486 2311 0
-2470 -2487 2312 0
-2470 -2488 2313 0
-2471 -2475 2301 0
-2471 -2476 2302 0
-2471 -2477 2303 0
-2471 -2478 2304 0
-2471 -2479 2305 0
-2471 -2480 2306 0
-2471 -2481 2307 0
-2471 -2482 2308 0
-2471 -2483 2309 0
-2471 -2484 2310 0
-2471 -2485 2311 0
-2471 -2486 2312 0
-2471 -2487 2313 0
-2471 -2488 2314 0
-2472 -2475 2302 0
-2472 -2476 2303 0
-2472 -2477 2304 0
-2472 -2478 2305 0
-2472 -2479 2306 0
-2472 -2480 2307 0
-2472 -2481 2308 0
-2472 -2482 2309 0
-2472 -2483 2310 0
-2472 -2484 2311 0
-2472 -2485 2312 0
-2472 -2486 2313 0
-2472 -2487 2314 0
-2472 -2488 2315 0
-2473 -2475 2303 0
-2473 -2476 2304 0
-2473 -2477 2305 0
-2473 -2478 2306 0
-2473 -2479 2307 0
-2473 -2480 2308 0
-2473 -2481 2309 0
-2473 -2482 2310 0
-2473 -2483 2311 0
-2473 -2484 2312 0
-2473 -2485 2313 0
-2473 -2486 2314 0
-2473 -2487 2315 0
-2473 -2488 2316 0
-2474 -2475 2304 0
-2474 -2476 2305 0
-2474 -2477 2306 0
-2474 -2478 2307 0
-2474 -2479 2308 0
-2474 -2480 2309 0
-2474 -2481 2310 0
-2474 -2482 2311 0
-2474 -2483 2312 0
-2474 -2484 2313 0
-2474 -2485 2314 0
-2474 -2486 2315 0
-2474 -2487 2316 0
-2474 -2488 2317 0
-2496 2475 0
-2497 2476 0
-2498 2477 0
-2499 2478 0
-2500 2479 0
-2501 2480 0
-2502 2481 0
-2489 2475 0
-2490 2476 0
-2491 2477 0
-2492 2478 0
-2493 2479 0
-2494 2480 0
-2495 2481 0
-2489 -2496 2476 0
-2489 -2497 2477 0
-2489 -2498 2478 0
-2489 -2499 2479 0
-2489 -2500 2480 0
-2489 -2501 2481 0
-2489 -2502 2482 0
-2490 -2496 2477 0
-2490 -2497 2478 0
-2490 -2498 2479 0
-2490 -2499 2480 0
-2490 -2500 2481 0
-2490 -2501 2482 0
-2490 -2502 2483 0
-2491 -2496 2478 0
-2491 -2497 2479 0
-2491 -2498 2480 0
-2491 -2499 2481 0
-2491 -2500 2482 0
-2491 -2501 2483 0
-2491 -2502 2484 0
-2492 -2496 2479 0
-2492 -2497 2480 0
-2492 -2498 2481 0
-2492 -2499 2482 0
-2492 -2500 2483 0
-2492 -2501 2484 0
-2492 -2502 2485 0
-2493 -2496 2480 0
-2493 -2497 2481 0
-2493 -2498 2482 0
-2493 -2499 2483 0
-2493 -2500 2484 0
-2493 -2501 2485 0
-2493 -2502 2486 0
-2494 -2496 2481 0
-2494 -2497 2482 0
-2494 -2498 2483 0
-2494 -2499 2484 0
-2494 -2500 2485 0
-2494 -2501 2486 0
-2494 -2502 2487 0
-2495 -2496 2482 0
-2495 -2497 2483 0
-2495 -2498 2484 0
-2495 -2499 2485 0
-2495 -2500 2486 0
-2495 -2501 2487 0
-2495 -2502 2488 0
-2507 2496 0
-2508 2497 0
-2509 2498 0
-2503 2496 0
-2504 2497 0
-2505 2498 0
-2506 2499 0
-2503 -2507 2497 0
-2503 -2508 2498 0
-2503 -2509 2499 0
-2504 -2507 2498 0
-2504 -2508 2499 0
-2504 -2509 2500 0
-2505 -2507 2499 0
-2505 -2508 2500 0
-2505 -2509 2501 0
-2506 -2507 2500 0
-2506 -2508 2501 0
-2506 -2509 2502 0
-361 2507 0
-2510 2507 0
-2511 2508 0
-2510 -361 2508 0
-2511 -361 2509 0
-360 2510 0
-359 2510 0
-359 -360 2511 0
-2514 2503 0
-2515 2504 0
-2512 2503 0
-2513 2504 0
-2512 -2514 2504 0
-2512 -2515 2505 0
-2513 -2514 2505 0
-2513 -2515 2506 0
-358 2514 0
-357 2514 0
-357 -358 2515 0
-356 2512 0
-355 2512 0
-355 -356 2513 0
-2520 2489 0
-2521 2490 0
-2522 2491 0
-2516 2489 0
-2517 2490 0
-2518 2491 0
-2519 2492 0
-2516 -2520 2490 0
-2516 -2521 2491 0
-2516 -2522 2492 0
-2517 -2520 2491 0
-2517 -2521 2492 0
-2517 -2522 2493 0
-2518 -2520 2492 0
-2518 -2521 2493 0
-2518 -2522 2494 0
-2519 -2520 2493 0
-2519 -2521 2494 0
-2519 -2522 2495 0
-354 2520 0
-2523 2520 0
-2524 2521 0
-2523 -354 2521 0
-2524 -354 2522 0
-353 2523 0
-352 2523 0
-352 -353 2524 0
-2527 2516 0
-2528 2517 0
-2525 2516 0
-2526 2517 0
-2525 -2527 2517 0
-2525 -2528 2518 0
-2526 -2527 2518 0
-2526 -2528 2519 0
-351 2527 0
-350 2527 0
-350 -351 2528 0
-349 2525 0
-348 2525 0
-348 -349 2526 0
-2537 2460 0
-2538 2461 0
-2539 2462 0
-2540 2463 0
-2541 2464 0
-2542 2465 0
-2543 2466 0
-2529 2460 0
-2530 2461 0
-2531 2462 0
-2532 2463 0
-2533 2464 0
-2534 2465 0
-2535 2466 0
-2536 2467 0
-2529 -2537 2461 0
-2529 -2538 2462 0
-2529 -2539 2463 0
-2529 -2540 2464 0
-2529 -2541 2465 0
-2529 -2542 2466 0
-2529 -2543 2467 0
-2530 -2537 2462 0
-2530 -2538 2463 0
-2530 -2539 2464 0
-2530 -2540 2465 0
-2530 -2541 2466 0
-2530 -2542 2467 0
-2530 -2543 2468 0
-2531 -2537 2463 0
-2531 -2538 2464 0
-2531 -2539 2465 0
-2531 -2540 2466 0
-2531 -2541 2467 0
-2531 -2542 2468 0
-2531 -2543 2469 0
-2532 -2537 2464 0
-2532 -2538 2465 0
-2532 -2539 2466 0
-2532 -2540 2467 0
-2532 -2541 2468 0
-2532 -2542 2469 0
-2532 -2543 2470 0
-2533 -2537 2465 0
-2533 -2538 2466 0
-2533 -2539 2467 0
-2533 -2540 2468 0
-2533 -2541 2469 0
-2533 -2542 2470 0
-2533 -2543 2471 0
-2534 -2537 2466 0
-2534 -2538 2467 0
-2534 -2539 2468 0
-2534 -2540 2469 0
-2534 -2541 2470 0
-2534 -2542 2471 0
-2534 -2543 2472 0
-2535 -2537 2467 0
-2535 -2538 2468 0
-2535 -2539 2469 0
-2535 -2540 2470 0
-2535 -2541 2471 0
-2535 -2542 2472 0
-2535 -2543 2473 0
-2536 -2537 2468 0
-2536 -2538 2469 0
-2536 -2539 2470 0
-2536 -2540 2471 0
-2536 -2541 2472 0
-2536 -2542 2473 0
-2536 -2543 2474 0
-2548 2537 0
-2549 2538 0
-2550 2539 0
-2544 2537 0
-2545 2538 0
-2546 2539 0
-2547 2540 0
-2544 -2548 2538 0
-2544 -2549 2539 0
-2544 -2550 2540 0
-2545 -2548 2539 0
-2545 -2549 2540 0
-2545 -2550 2541 0
-2546 -2548 2540 0
-2546 -2549 2541 0
-2546 -2550 2542 0
-2547 -2548 2541 0
-2547 -2549 2542 0
-2547 -2550 2543 0
-347 2548 0
-2551 2548 0
-2552 2549 0
-2551 -347 2549 0
-2552 -347 2550 0
-346 2551 0
-345 2551 0
-345 -346 2552 0
-2555 2544 0
-2556 2545 0
-2553 2544 0
-2554 2545 0
-2553 -2555 2545 0
-2553 -2556 2546 0
-2554 -2555 2546 0
-2554 -2556 2547 0
-344 2555 0
-343 2555 0
-343 -344 2556 0
-342 2553 0
-341 2553 0
-341 -342 2554 0
-2561 2529 0
-2562 2530 0
-2563 2531 0
-2564 2532 0
-2557 2529 0
-2558 2530 0
-2559 2531 0
-2560 2532 0
-2557 -2561 2530 0
-2557 -2562 2531 0
-2557 -2563 2532 0
-2557 -2564 2533 0
-2558 -2561 2531 0
-2558 -2562 2532 0
-2558 -2563 2533 0
-2558 -2564 2534 0
-2559 -2561 2532 0
-2559 -2562 2533 0
-2559 -2563 2534 0
-2559 -2564 2535 0
-2560 -2561 2533 0
-2560 -2562 2534 0
-2560 -2563 2535 0
-2560 -2564 2536 0
-2567 2561 0
-2568 2562 0
-2565 2561 0
-2566 2562 0
-2565 -2567 2562 0
-2565 -2568 2563 0
-2566 -2567 2563 0
-2566 -2568 2564 0
-340 2567 0
-339 2567 0
-339 -340 2568 0
-338 2565 0
-337 2565 0
-337 -338 2566 0
-2571 2557 0
-2572 2558 0
-2569 2557 0
-2570 2558 0
-2569 -2571 2558 0
-2569 -2572 2559 0
-2570 -2571 2559 0
-2570 -2572 2560 0
-336 2571 0
-335 2571 0
-335 -336 2572 0
-334 2569 0
-333 2569 0
-333 -334 2570 0
-2631 1657 0
-2632 1658 0
-2633 1659 0
-2634 1660 0
-2635 1661 0
-2636 1662 0
-2637 1663 0
-2638 1664 0
-2639 1665 0
-2640 1666 0
-2641 1667 0
-2642 1668 0
-2643 1669 0
-2644 1670 0
-2645 1671 0
-2646 1672 0
-2647 1673 0
-2648 1674 0
-2649 1675 0
-2650 1676 0
-2651 1677 0
-2652 1678 0
-2653 1679 0
-2654 1680 0
-2655 1681 0
-2656 1682 0
-2657 1683 0
-2658 1684 0
-2659 1685 0
-2660 1686 0
-2661 1687 0
-2662 1688 0
-2663 1689 0
-2664 1690 0
-2665 1691 0
-2666 1692 0
-2667 1693 0
-2668 1694 0
-2669 1695 0
-2670 1696 0
-2671 1697 0
-2672 1698 0
-2673 1699 0
-2674 1700 0
-2675 1701 0
-2676 1702 0
-2677 1703 0
-2678 1704 0
-2679 1705 0
-2680 1706 0
-2681 1707 0
-2682 1708 0
-2683 1709 0
-2684 1710 0
-2685 1711 0
-2686 1712 0
-2687 1713 0
-2688 1714 0
-2573 1657 0
-2574 1658 0
-2575 1659 0
-2576 1660 0
-2577 1661 0
-2578 1662 0
-2579 1663 0
-2580 1664 0
-2581 1665 0
-2582 1666 0
-2583 1667 0
-2584 1668 0
-2585 1669 0
-2586 1670 0
-2587 1671 0
-2588 1672 0
-2589 1673 0
-2590 1674 0
-2591 1675 0
-2592 1676 0
-2593 1677 0
-2594 1678 0
-2595 1679 0
-2596 1680 0
-2597 1681 0
-2598 1682 0
-2599 1683 0
-2600 1684 0
-2601 1685 0
-2602 1686 0
-2603 1687 0
-2604 1688 0
-2605 1689 0
-2606 1690 0
-2607 1691 0
-2608 1692 0
-2609 1693 0
-2610 1694 0
-2611 1695 0
-2612 1696 0
-2613 1697 0
-2614 1698 0
-2615 1699 0
-2616 1700 0
-2617 1701 0
-2618 1702 0
-2619 1703 0
-2620 1704 0
-2621 1705 0
-2622 1706 0
-2623 1707 0
-2624 1708 0
-2625 1709 0
-2626 1710 0
-2627 1711 0
-2628 1712 0
-2629 1713 0
-2630 1714 0
-2573 -2631 1658 0
-2573 -2632 1659 0
-2573 -2633 1660 0
-2573 -2634 1661 0
-2573 -2635 1662 0
-2573 -2636 1663 0
-2573 -2637 1664 0
-2573 -2638 1665 0
-2573 -2639 1666 0
-2573 -2640 1667 0
-2573 -2641 1668 0
-2573 -2642 1669 0
-2573 -2643 1670 0
-2573 -2644 1671 0
-2573 -2645 1672 0
-2573 -2646 1673 0
-2573 -2647 1674 0
-2573 -2648 1675 0
-2573 -2649 1676 0
-2573 -2650 1677 0
-2573 -2651 1678 0
-2573 -2652 1679 0
-2573 -2653 1680 0
-2573 -2654 1681 0
-2573 -2655 1682 0
-2573 -2656 1683 0
-2573 -2657 1684 0
-2573 -2658 1685 0
-2573 -2659 1686 0
-2573 -2660 1687 0
-2573 -2661 1688 0
-2573 -2662 1689 0
-2573 -2663 1690 0
-2573 -2664 1691 0
-2573 -2665 1692 0
-2573 -2666 1693 0
-2573 -2667 1694 0
-2573 -2668 1695 0
-2573 -2669 1696 0
-2573 -2670 1697 0
-2573 -2671 1698 0
-2573 -2672 1699 0
-2573 -2673 1700 0
-2573 -2674 1701 0
-2573 -2675 1702 0
-2573 -2676 1703 0
-2573 -2677 1704 0
-2573 -2678 1705 0
-2573 -2679 1706 0
-2573 -2680 1707 0
-2573 -2681 1708 0
-2573 -2682 1709 0
-2573 -2683 1710 0
-2573 -2684 1711 0
-2573 -2685 1712 0
-2573 -2686 1713 0
-2573 -2687 1714 0
-2573 -2688 1715 0
-2574 -2631 1659 0
-2574 -2632 1660 0
-2574 -2633 1661 0
-2574 -2634 1662 0
-2574 -2635 1663 0
-2574 -2636 1664 0
-2574 -2637 1665 0
-2574 -2638 1666 0
-2574 -2639 1667 0
-2574 -2640 1668 0
-2574 -2641 1669 0
-2574 -2642 1670 0
-2574 -2643 1671 0
-2574 -2644 1672 0
-2574 -2645 1673 0
-2574 -2646 1674 0
-2574 -2647 1675 0
-2574 -2648 1676 0
-2574 -2649 1677 0
-2574 -2650 1678 0
-2574 -2651 1679 0
-2574 -2652 1680 0
-2574 -2653 1681 0
-2574 -2654 1682 0
-2574 -2655 1683 0
-2574 -2656 1684 0
-2574 -2657 1685 0
-2574 -2658 1686 0
-2574 -2659 1687 0
-2574 -2660 1688 0
-2574 -2661 1689 0
-2574 -2662 1690 0
-2574 -2663 1691 0
-2574 -2664 1692 0
-2574 -2665 1693 0
-2574 -2666 1694 0
-2574 -2667 1695 0
-2574 -2668 1696 0
-2574 -2669 1697 0
-2574 -2670 1698 0
-2574 -2671 1699 0
-2574 -2672 1700 0
-2574 -2673 1701 0
-2574 -2674 1702 0
-2574 -2675 1703 0
-2574 -2676 1704 0
-2574 -2677 1705 0
-2574 -2678 1706 0
-2574 -2679 1707 0
-2574 -2680 1708 0
-2574 -2681 1709 0
-2574 -2682 1710 0
-2574 -2683 1711 0
-2574 -2684 1712 0
-2574 -2685 1713 0
-2574 -2686 1714 0
-2574 -2687 1715 0
-2574 -2688 1716 0
-2575 -2631 1660 0
-2575 -2632 1661 0
-2575 -2633 1662 0
-2575 -2634 1663 0
-2575 -2635 1664 0
-2575 -2636 1665 0
-2575 -2637 1666 0
-2575 -2638 1667 0
-2575 -2639 1668 0
-2575 -2640 1669 0
-2575 -2641 1670 0
-2575 -2642 1671 0
-2575 -2643 1672 0
-2575 -2644 1673 0
-2575 -2645 1674 0
-2575 -2646 1675 0
-2575 -2647 1676 0
-2575 -2648 1677 0
-2575 -2649 1678 0
-2575 -2650 1679 0
-2575 -2651 1680 0
-2575 -2652 1681 0
-2575 -2653 1682 0
-2575 -2654 1683 0
-2575 -2655 1684 0
-2575 -2656 1685 0
-2575 -2657 1686 0
-2575 -2658 1687 0
-2575 -2659 1688 0
-2575 -2660 1689 0
-2575 -2661 1690 0
-2575 -2662 1691 0
-2575 -2663 1692 0
-2575 -2664 1693 0
-2575 -2665 1694 0
-2575 -2666 1695 0
-2575 -2667 1696 0
-2575 -2668 1697 0
-2575 -2669 1698 0
-2575 -2670 1699 0
-2575 -2671 1700 0
-2575 -2672 1701 0
-2575 -2673 1702 0
-2575 -2674 1703 0
-2575 -2675 1704 0
-2575 -2676 1705 0
-2575 -2677 1706 0
-2575 -2678 1707 0
-2575 -2679 1708 0
-2575 -2680 1709 0
-2575 -2681 1710 0
-2575 -2682 1711 0
-2575 -2683 1712 0
-2575 -2684 1713 0
-2575 -2685 1714 0
-2575 -2686 1715 0
-2575 -2687 1716 0
-2575 -2688 1717 0
-2576 -2631 1661 0
-2576 -2632 1662 0
-2576 -2633 1663 0
-2576 -2634 1664 0
-2576 -2635 1665 0
-2576 -2636 1666 0
-2576 -2637 1667 0
-2576 -2638 1668 0
-2576 -2639 1669 0
-2576 -2640 1670 0
-2576 -2641 1671 0
-2576 -2642 1672 0
-2576 -2643 1673 0
-2576 -2644 1674 0
-2576 -2645 1675 0
-2576 -2646 1676 0
-2576 -2647 1677 0
-2576 -2648 1678 0
-2576 -2649 1679 0
-2576 -2650 1680 0
-2576 -2651 1681 0
-2576 -2652 1682 0
-2576 -2653 1683 0
-2576 -2654 1684 0
-2576 -2655 1685 0
-2576 -2656 1686 0
-2576 -2657 1687 0
-2576 -2658 1688 0
-2576 -2659 1689 0
-2576 -2660 1690 0
-2576 -2661 1691 0
-2576 -2662 1692 0
-2576 -2663 1693 0
-2576 -2664 1694 0
-2576 -2665 1695 0
-2576 -2666 1696 0
-2576 -2667 1697 0
-2576 -2668 1698 0
-2576 -2669 1699 0
-2576 -2670 1700 0
-2576 -2671 1701 0
-2576 -2672 1702 0
-2576 -2673 1703 0
-2576 -2674 1704 0
-2576 -2675 1705 0
-2576 -2676 1706 0
-2576 -2677 1707 0
-2576 -2678 1708 0
-2576 -2679 1709 0
-2576 -2680 1710 0
-2576 -2681 1711 0
-2576 -2682 1712 0
-2576 -2683 1713 0
-2576 -2684 1714 0
-2576 -2685 1715 0
-2576 -2686 1716 0
-2576 -2687 1717 0
-2576 -2688 1718 0
-2577 -2631 1662 0
-2577 -2632 1663 0
-2577 -2633 1664 0
-2577 -2634 1665 0
-2577 -2635 1666 0
-2577 -2636 1667 0
-2577 -2637 1668 0
-2577 -2638 1669 0
-2577 -2639 1670 0
-2577 -2640 1671 0
-2577 -2641 1672 0
-2577 -2642 1673 0
-2577 -2643 1674 0
-2577 -2644 1675 0
-2577 -2645 1676 0
-2577 -2646 1677 0
-2577 -2647 1678 0
-2577 -2648 1679 0
-2577 -2649 1680 0
-2577 -2650 1681 0
-2577 -2651 1682 0
-2577 -2652 1683 0
-2577 -2653 1684 0
-2577 -2654 1685 0
-2577 -2655 1686 0
-2577 -2656 1687 0
-2577 -2657 1688 0
-2577 -2658 1689 0
-2577 -2659 1690 0
-2577 -2660 1691 0
-2577 -2661 1692 0
-2577 -2662 1693 0
-2577 -2663 1694 0
-2577 -2664 1695 0
-2577 -2665 1696 0
-2577 -2666 1697 0
-2577 -2667 1698 0
-2577 -2668 1699 0
-2577 -2669 1700 0
-2577 -2670 1701 0
-2577 -2671 1702 0
-2577 -2672 1703 0
-2577 -2673 1704 0
-2577 -2674 1705 0
-2577 -2675 1706 0
-2577 -2676 1707 0
-2577 -2677 1708 0
-2577 -2678 1709 0
-2577 -2679 1710 0
-2577 -2680 1711 0
-2577 -2681 1712 0
-2577 -2682 1713 0
-2577 -2683 1714 0
-2577 -2684 1715 0
-2577 -2685 1716 0
-2577 -2686 1717 0
-2577 -2687 1718 0
-2577 -2688 1719 0
-2578 -2631 1663 0
-2578 -2632 1664 0
-2578 -2633 1665 0
-2578 -2634 1666 0
-2578 -2635 1667 0
-2578 -2636 1668 0
-2578 -2637 1669 0
-2578 -2638 1670 0
-2578 -2639 1671 0
-2578 -2640 1672 0
-2578 -2641 1673 0
-2578 -2642 1674 0
-2578 -2643 1675 0
-2578 -2644 1676 0
-2578 -2645 1677 0
-2578 -2646 1678 0
-2578 -2647 1679 0
-2578 -2648 1680 0
-2578 -2649 1681 0
-2578 -2650 1682 0
-2578 -2651 1683 0
-2578 -2652 1684 0
-2578 -2653 1685 0
-2578 -2654 1686 0
-2578 -2655 1687 0
-2578 -2656 1688 0
-2578 -2657 1689 0
-2578 -2658 1690 0
-2578 -2659 1691 0
-2578 -2660 1692 0
-2578 -2661 1693 0
-2578 -2662 1694 0
-2578 -2663 1695 0
-2578 -2664 1696 0
-2578 -2665 1697 0
-2578 -2666 1698 0
-2578 -2667 1699 0
-2578 -2668 1700 0
-2578 -2669 1701 0
-2578 -2670 1702 0
-2578 -2671 1703 0
-2578 -2672 1704 0
-2578 -2673 1705 0
-2578 -2674 1706 0
-2578 -2675 1707 0
-2578 -2676 1708 0
-2578 -2677 1709 0
-2578 -2678 1710 0
-2578 -2679 1711 0
-2578 -2680 1712 0
-2578 -2681 1713 0
-2578 -2682 1714 0
-2578 -2683 1715 0
-2578 -2684 1716 0
-2578 -2685 1717 0
-2578 -2686 1718 0
-2578 -2687 1719 0
-2578 -2688 1720 0
-2579 -2631 1664 0
-2579 -2632 1665 0
-2579 -2633 1666 0
-2579 -2634 1667 0
-2579 -2635 1668 0
-2579 -2636 1669 0
-2579 -2637 1670 0
-2579 -2638 1671 0
-2579 -2639 1672 0
-2579 -2640 1673 0
-2579 -2641 1674 0
-2579 -2642 1675 0
-2579 -2643 1676 0
-2579 -2644 1677 0
-2579 -2645 1678 0
-2579 -2646 1679 0
-2579 -2647 1680 0
-2579 -2648 1681 0
-2579 -2649 1682 0
-2579 -2650 1683 0
-2579 -2651 1684 0
-2579 -2652 1685 0
-2579 -2653 1686 0
-2579 -2654 1687 0
-2579 -2655 1688 0
-2579 -2656 1689 0
-2579 -2657 1690 0
-2579 -2658 1691 0
-2579 -2659 1692 0
-2579 -2660 1693 0
-2579 -2661 1694 0
-2579 -2662 1695 0
-2579 -2663 1696 0
-2579 -2664 1697 0
-2579 -2665 1698 0
-2579 -2666 1699 0
-2579 -2667 1700 0
-2579 -2668 1701 0
-2579 -2669 1702 0
-2579 -2670 1703 0
-2579 -2671 1704 0
-2579 -2672 1705 0
-2579 -2673 1706 0
-2579 -2674 1707 0
-2579 -2675 1708 0
-2579 -2676 1709 0
-2579 -2677 1710 0
-2579 -2678 1711 0
-2579 -2679 1712 0
-2579 -2680 1713 0
-2579 -2681 1714 0
-2579 -2682 1715 0
-2579 -2683 1716 0
-2579 -2684 1717 0
-2579 -2685 1718 0
-2579 -2686 1719 0
-2579 -2687 1720 0
-2579 -2688 1721 0
-2580 -2631 1665 0
-2580 -2632 1666 0
-2580 -2633 1667 0
-2580 -2634 1668 0
-2580 -2635 1669 0
-2580 -2636 1670 0
-2580 -2637 1671 0
-2580 -2638 1672 0
-2580 -2639 1673 0
-2580 -2640 1674 0
-2580 -2641 1675 0
-2580 -2642 1676 0
-2580 -2643 1677 0
-2580 -2644 1678 0
-2580 -2645 1679 0
-2580 -2646 1680 0
-2580 -2647 1681 0
-2580 -2648 1682 0
-2580 -2649 1683 0
-2580 -2650 1684 0
-2580 -2651 1685 0
-2580 -2652 1686 0
-2580 -2653 1687 0
-2580 -2654 1688 0
-2580 -2655 1689 0
-2580 -2656 1690 0
-2580 -2657 1691 0
-2580 -2658 1692 0
-2580 -2659 1693 0
-2580 -2660 1694 0
-2580 -2661 1695 0
-2580 -2662 1696 0
-2580 -2663 1697 0
-2580 -2664 1698 0
-2580 -2665 1699 0
-2580 -2666 1700 0
-2580 -2667 1701 0
-2580 -2668 1702 0
-2580 -2669 1703 0
-2580 -2670 1704 0
-2580 -2671 1705 0
-2580 -2672 1706 0
-2580 -2673 1707 0
-2580 -2674 1708 0
-2580 -2675 1709 0
-2580 -2676 1710 0
-2580 -2677 1711 0
-2580 -2678 1712 0
-2580 -2679 1713 0
-2580 -2680 1714 0
-2580 -2681 1715 0
-2580 -2682 1716 0
-2580 -2683 1717 0
-2580 -2684 1718 0
-2580 -2685 1719 0
-2580 -2686 1720 0
-2580 -2687 1721 0
-2580 -2688 1722 0
-2581 -2631 1666 0
-2581 -2632 1667 0
-2581 -2633 1668 0
-2581 -2634 1669 0
-2581 -2635 1670 0
-2581 -2636 1671 0
-2581 -2637 1672 0
-2581 -2638 1673 0
-2581 -2639 1674 0
-2581 -2640 1675 0
-2581 -2641 1676 0
-2581 -2642 1677 0
-2581 -2643 1678 0
-2581 -2644 1679 0
-2581 -2645 1680 0
-2581 -2646 1681 0
-2581 -2647 1682 0
-2581 -2648 1683 0
-2581 -2649 1684 0
-2581 -2650 1685 0
-2581 -2651 1686 0
-2581 -2652 1687 0
-2581 -2653 1688 0
-2581 -2654 1689 0
-2581 -2655 1690 0
-2581 -2656 1691 0
-2581 -2657 1692 0
-2581 -2658 1693 0
-2581 -2659 1694 0
-2581 -2660 1695 0
-2581 -2661 1696 0
-2581 -2662 1697 0
-2581 -2663 1698 0
-2581 -2664 1699 0
-2581 -2665 1700 0
-2581 -2666 1701 0
-2581 -2667 1702 0
-2581 -2668 1703 0
-2581 -2669 1704 0
-2581 -2670 1705 0
-2581 -2671 1706 0
-2581 -2672 1707 0
-2581 -2673 1708 0
-2581 -2674 1709 0
-2581 -2675 1710 0
-2581 -2676 1711 0
-2581 -2677 1712 0
-2581 -2678 1713 0
-2581 -2679 1714 0
-2581 -2680 1715 0
-2581 -2681 1716 0
-2581 -2682 1717 0
-2581 -2683 1718 0
-2581 -2684 1719 0
-2581 -2685 1720 0
-2581 -2686 1721 0
-2581 -2687 1722 0
-2581 -2688 1723 0
-2582 -2631 1667 0
-2582 -2632 1668 0
-2582 -2633 1669 0
-2582 -2634 1670 0
-2582 -2635 1671 0
-2582 -2636 1672 0
-2582 -2637 1673 0
-2582 -2638 1674 0
-2582 -2639 1675 0
-2582 -2640 1676 0
-2582 -2641 1677 0
-2582 -2642 1678 0
-2582 -2643 1679 0
-2582 -2644 1680 0
-2582 -2645 1681 0
-2582 -2646 1682 0
-2582 -2647 1683 0
-2582 -2648 1684 0
-2582 -2649 1685 0
-2582 -2650 1686 0
-2582 -2651 1687 0
-2582 -2652 1688 0
-2582 -2653 1689 0
-2582 -2654 1690 0
-2582 -2655 1691 0
-2582 -2656 1692 0
-2582 -2657 1693 0
-2582 -2658 1694 0
-2582 -2659 1695 0
-2582 -2660 1696 0
-2582 -2661 1697 0
-2582 -2662 1698 0
-2582 -2663 1699 0
-2582 -2664 1700 0
-2582 -2665 1701 0
-2582 -2666 1702 0
-2582 -2667 1703 0
-2582 -2668 1704 0
-2582 -2669 1705 0
-2582 -2670 1706 0
-2582 -2671 1707 0
-2582 -2672 1708 0
-2582 -2673 1709 0
-2582 -2674 1710 0
-2582 -2675 1711 0
-2582 -2676 1712 0
-2582 -2677 1713 0
-2582 -2678 1714 0
-2582 -2679 1715 0
-2582 -2680 1716 0
-2582 -2681 1717 0
-2582 -2682 1718 0
-2582 -2683 1719 0
-2582 -2684 1720 0
-2582 -2685 1721 0
-2582 -2686 1722 0
-2582 -2687 1723 0
-2582 -2688 1724 0
-2583 -2631 1668 0
-2583 -2632 1669 0
-2583 -2633 1670 0
-2583 -2634 1671 0
-2583 -2635 1672 0
-2583 -2636 1673 0
-2583 -2637 1674 0
-2583 -2638 1675 0
-2583 -2639 1676 0
-2583 -2640 1677 0
-2583 -2641 1678 0
-2583 -2642 1679 0
-2583 -2643 1680 0
-2583 -2644 1681 0
-2583 -2645 1682 0
-2583 -2646 1683 0
-2583 -2647 1684 0
-2583 -2648 1685 0
-2583 -2649 1686 0
-2583 -2650 1687 0
-2583 -2651 1688 0
-2583 -2652 1689 0
-2583 -2653 1690 0
-2583 -2654 1691 0
-2583 -2655 1692 0
-2583 -2656 1693 0
-2583 -2657 1694 0
-2583 -2658 1695 0
-2583 -2659 1696 0
-2583 -2660 1697 0
-2583 -2661 1698 0
-2583 -2662 1699 0
-2583 -2663 1700 0
-2583 -2664 1701 0
-2583 -2665 1702 0
-2583 -2666 1703 0
-2583 -2667 1704 0
-2583 -2668 1705 0
-2583 -2669 1706 0
-2583 -2670 1707 0
-2583 -2671 1708 0
-2583 -2672 1709 0
-2583 -2673 1710 0
-2583 -2674 1711 0
-2583 -2675 1712 0
-2583 -2676 1713 0
-2583 -2677 1714 0
-2583 -2678 1715 0
-2583 -2679 1716 0
-2583 -2680 1717 0
-2583 -2681 1718 0
-2583 -2682 1719 0
-2583 -2683 1720 0
-2583 -2684 1721 0
-2583 -2685 1722 0
-2583 -2686 1723 0
-2583 -2687 1724 0
-2583 -2688 1725 0
-2584 -2631 1669 0
-2584 -2632 1670 0
-2584 -2633 1671 0
-2584 -2634 1672 0
-2584 -2635 1673 0
-2584 -2636 1674 0
-2584 -2637 1675 0
-2584 -2638 1676 0
-2584 -2639 1677 0
-2584 -2640 1678 0
-2584 -2641 1679 0
-2584 -2642 1680 0
-2584 -2643 1681 0
-2584 -2644 1682 0
-2584 -2645 1683 0
-2584 -2646 1684 0
-2584 -2647 1685 0
-2584 -2648 1686 0
-2584 -2649 1687 0
-2584 -2650 1688 0
-2584 -2651 1689 0
-2584 -2652 1690 0
-2584 -2653 1691 0
-2584 -2654 1692 0
-2584 -2655 1693 0
-2584 -2656 1694 0
-2584 -2657 1695 0
-2584 -2658 1696 0
-2584 -2659 1697 0
-2584 -2660 1698 0
-2584 -2661 1699 0
-2584 -2662 1700 0
-2584 -2663 1701 0
-2584 -2664 1702 0
-2584 -2665 1703 0
-2584 -2666 1704 0
-2584 -2667 1705 0
-2584 -2668 1706 0
-2584 -2669 1707 0
-2584 -2670 1708 0
-2584 -2671 1709 0
-2584 -2672 1710 0
-2584 -2673 1711 0
-2584 -2674 1712 0
-2584 -2675 1713 0
-2584 -2676 1714 0
-2584 -2677 1715 0
-2584 -2678 1716 0
-2584 -2679 1717 0
-2584 -2680 1718 0
-2584 -2681 1719 0
-2584 -2682 1720 0
-2584 -2683 1721 0
-2584 -2684 1722 0
-2584 -2685 1723 0
-2584 -2686 1724 0
-2584 -2687 1725 0
-2584 -2688 1726 0
-2585 -2631 1670 0
-2585 -2632 1671 0
-2585 -2633 1672 0
-2585 -2634 1673 0
-2585 -2635 1674 0
-2585 -2636 1675 0
-2585 -2637 1676 0
-2585 -2638 1677 0
-2585 -2639 1678 0
-2585 -2640 1679 0
-2585 -2641 1680 0
-2585 -2642 1681 0
-2585 -2643 1682 0
-2585 -2644 1683 0
-2585 -2645 1684 0
-2585 -2646 1685 0
-2585 -2647 1686 0
-2585 -2648 1687 0
-2585 -2649 1688 0
-2585 -2650 1689 0
-2585 -2651 1690 0
-2585 -2652 1691 0
-2585 -2653 1692 0
-2585 -2654 1693 0
-2585 -2655 1694 0
-2585 -2656 1695 0
-2585 -2657 1696 0
-2585 -2658 1697 0
-2585 -2659 1698 0
-2585 -2660 1699 0
-2585 -2661 1700 0
-2585 -2662 1701 0
-2585 -2663 1702 0
-2585 -2664 1703 0
-2585 -2665 1704 0
-2585 -2666 1705 0
-2585 -2667 1706 0
-2585 -2668 1707 0
-2585 -2669 1708 0
-2585 -2670 1709 0
-2585 -2671 1710 0
-2585 -2672 1711 0
-2585 -2673 1712 0
-2585 -2674 1713 0
-2585 -2675 1714 0
-2585 -2676 1715 0
-2585 -2677 1716 0
-2585 -2678 1717 0
-2585 -2679 1718 0
-2585 -2680 1719 0
-2585 -2681 1720 0
-2585 -2682 1721 0
-2585 -2683 1722 0
-2585 -2684 1723 0
-2585 -2685 1724 0
-2585 -2686 1725 0
-2585 -2687 1726 0
-2585 -2688 1727 0
-2586 -2631 1671 0
-2586 -2632 1672 0
-2586 -2633 1673 0
-2586 -2634 1674 0
-2586 -2635 1675 0
-2586 -2636 1676 0
-2586 -2637 1677 0
-2586 -2638 1678 0
-2586 -2639 1679 0
-2586 -2640 1680 0
-2586 -2641 1681 0
-2586 -2642 1682 0
-2586 -2643 1683 0
-2586 -2644 1684 0
-2586 -2645 1685 0
-2586 -2646 1686 0
-2586 -2647 1687 0
-2586 -2648 1688 0
-2586 -2649 1689 0
-2586 -2650 1690 0
-2586 -2651 1691 0
-2586 -2652 1692 0
-2586 -2653 1693 0
-2586 -2654 1694 0
-2586 -2655 1695 0
-2586 -2656 1696 0
-2586 -2657 1697 0
-2586 -2658 1698 0
-2586 -2659 1699 0
-2586 -2660 1700 0
-2586 -2661 1701 0
-2586 -2662 1702 0
-2586 -2663 1703 0
-2586 -2664 1704 0
-2586 -2665 1705 0
-2586 -2666 1706 0
-2586 -2667 1707 0
-2586 -2668 1708 0
-2586 -2669 1709 0
-2586 -2670 1710 0
-2586 -2671 1711 0
-2586 -2672 1712 0
-2586 -2673 1713 0
-2586 -2674 1714 0
-2586 -2675 1715 0
-2586 -2676 1716 0
-2586 -2677 1717 0
-2586 -2678 1718 0
-2586 -2679 1719 0
-2586 -2680 1720 0
-2586 -2681 1721 0
-2586 -2682 1722 0
-2586 -2683 1723 0
-2586 -2684 1724 0
-2586 -2685 1725 0
-2586 -2686 1726 0
-2586 -2687 1727 0
-2586 -2688 1728 0
-2587 -2631 1672 0
-2587 -2632 1673 0
-2587 -2633 1674 0
-2587 -2634 1675 0
-2587 -2635 1676 0
-2587 -2636 1677 0
-2587 -2637 1678 0
-2587 -2638 1679 0
-2587 -2639 1680 0
-2587 -2640 1681 0
-2587 -2641 1682 0
-2587 -2642 1683 0
-2587 -2643 1684 0
-2587 -2644 1685 0
-2587 -2645 1686 0
-2587 -2646 1687 0
-2587 -2647 1688 0
-2587 -2648 1689 0
-2587 -2649 1690 0
-2587 -2650 1691 0
-2587 -2651 1692 0
-2587 -2652 1693 0
-2587 -2653 1694 0
-2587 -2654 1695 0
-2587 -2655 1696 0
-2587 -2656 1697 0
-2587 -2657 1698 0
-2587 -2658 1699 0
-2587 -2659 1700 0
-2587 -2660 1701 0
-2587 -2661 1702 0
-2587 -2662 1703 0
-2587 -2663 1704 0
-2587 -2664 1705 0
-2587 -2665 1706 0
-2587 -2666 1707 0
-2587 -2667 1708 0
-2587 -2668 1709 0
-2587 -2669 1710 0
-2587 -2670 1711 0
-2587 -2671 1712 0
-2587 -2672 1713 0
-2587 -2673 1714 0
-2587 -2674 1715 0
-2587 -2675 1716 0
-2587 -2676 1717 0
-2587 -2677 1718 0
-2587 -2678 1719 0
-2587 -2679 1720 0
-2587 -2680 1721 0
-2587 -2681 1722 0
-2587 -2682 1723 0
-2587 -2683 1724 0
-2587 -2684 1725 0
-2587 -2685 1726 0
-2587 -2686 1727 0
-2587 -2687 1728 0
-2587 -2688 1729 0
-2588 -2631 1673 0
-2588 -2632 1674 0
-2588 -2633 1675 0
-2588 -2634 1676 0
-2588 -2635 1677 0
-2588 -2636 1678 0
-2588 -2637 1679 0
-2588 -2638 1680 0
-2588 -2639 1681 0
-2588 -2640 1682 0
-2588 -2641 1683 0
-2588 -2642 1684 0
-2588 -2643 1685 0
-2588 -2644 1686 0
-2588 -2645 1687 0
-2588 -2646 1688 0
-2588 -2647 1689 0
-2588 -2648 1690 0
-2588 -2649 1691 0
-2588 -2650 1692 0
-2588 -2651 1693 0
-2588 -2652 1694 0
-2588 -2653 1695 0
-2588 -2654 1696 0
-2588 -2655 1697 0
-2588 -2656 1698 0
-2588 -2657 1699 0
-2588 -2658 1700 0
-2588 -2659 1701 0
-2588 -2660 1702 0
-2588 -2661 1703 0
-2588 -2662 1704 0
-2588 -2663 1705 0
-2588 -2664 1706 0
-2588 -2665 1707 0
-2588 -2666 1708 0
-2588 -2667 1709 0
-2588 -2668 1710 0
-2588 -2669 1711 0
-2588 -2670 1712 0
-2588 -2671 1713 0
-2588 -2672 1714 0
-2588 -2673 1715 0
-2588 -2674 1716 0
-2588 -2675 1717 0
-2588 -2676 1718 0
-2588 -2677 1719 0
-2588 -2678 1720 0
-2588 -2679 1721 0
-2588 -2680 1722 0
-2588 -2681 1723 0
-2588 -2682 1724 0
-2588 -2683 1725 0
-2588 -2684 1726 0
-2588 -2685 1727 0
-2588 -2686 1728 0
-2588 -2687 1729 0
-2588 -2688 1730 0
-2589 -2631 1674 0
-2589 -2632 1675 0
-2589 -2633 1676 0
-2589 -2634 1677 0
-2589 -2635 1678 0
-2589 -2636 1679 0
-2589 -2637 1680 0
-2589 -2638 1681 0
-2589 -2639 1682 0
-2589 -2640 1683 0
-2589 -2641 1684 0
-2589 -2642 1685 0
-2589 -2643 1686 0
-2589 -2644 1687 0
-2589 -2645 1688 0
-2589 -2646 1689 0
-2589 -2647 1690 0
-2589 -2648 1691 0
-2589 -2649 1692 0
-2589 -2650 1693 0
-2589 -2651 1694 0
-2589 -2652 1695 0
-2589 -2653 1696 0
-2589 -2654 1697 0
-2589 -2655 1698 0
-2589 -2656 1699 0
-2589 -2657 1700 0
-2589 -2658 1701 0
-2589 -2659 1702 0
-2589 -2660 1703 0
-2589 -2661 1704 0
-2589 -2662 1705 0
-2589 -2663 1706 0
-2589 -2664 1707 0
-2589 -2665 1708 0
-2589 -2666 1709 0
-2589 -2667 1710 0
-2589 -2668 1711 0
-2589 -2669 1712 0
-2589 -2670 1713 0
-2589 -2671 1714 0
-2589 -2672 1715 0
-2589 -2673 1716 0
-2589 -2674 1717 0
-2589 -2675 1718 0
-2589 -2676 1719 0
-2589 -2677 1720 0
-2589 -2678 1721 0
-2589 -2679 1722 0
-2589 -2680 1723 0
-2589 -2681 1724 0
-2589 -2682 1725 0
-2589 -2683 1726 0
-2589 -2684 1727 0
-2589 -2685 1728 0
-2589 -2686 1729 0
-2589 -2687 1730 0
-2589 -2688 1731 0
-2590 -2631 1675 0
-2590 -2632 1676 0
-2590 -2633 1677 0
-2590 -2634 1678 0
-2590 -2635 1679 0
-2590 -2636 1680 0
-2590 -2637 1681 0
-2590 -2638 1682 0
-2590 -2639 1683 0
-2590 -2640 1684 0
-2590 -2641 1685 0
-2590 -2642 1686 0
-2590 -2643 1687 0
-2590 -2644 1688 0
-2590 -2645 1689 0
-2590 -2646 1690 0
-2590 -2647 1691 0
-2590 -2648 1692 0
-2590 -2649 1693 0
-2590 -2650 1694 0
-2590 -2651 1695 0
-2590 -2652 1696 0
-2590 -2653 1697 0
-2590 -2654 1698 0
-2590 -2655 1699 0
-2590 -2656 1700 0
-2590 -2657 1701 0
-2590 -2658 1702 0
-2590 -2659 1703 0
-2590 -2660 1704 0
-2590 -2661 1705 0
-2590 -2662 1706 0
-2590 -2663 1707 0
-2590 -2664 1708 0
-2590 -2665 1709 0
-2590 -2666 1710 0
-2590 -2667 1711 0
-2590 -2668 1712 0
-2590 -2669 1713 0
-2590 -2670 1714 0
-2590 -2671 1715 0
-2590 -2672 1716 0
-2590 -2673 1717 0
-2590 -2674 1718 0
-2590 -2675 1719 0
-2590 -2676 1720 0
-2590 -2677 1721 0
-2590 -2678 1722 0
-2590 -2679 1723 0
-2590 -2680 1724 0
-2590 -2681 1725 0
-2590 -2682 1726 0
-2590 -2683 1727 0
-2590 -2684 1728 0
-2590 -2685 1729 0
-2590 -2686 1730 0
-2590 -2687 1731 0
-2590 -2688 1732 0
-2591 -2631 1676 0
-2591 -2632 1677 0
-2591 -2633 1678 0
-2591 -2634 1679 0
-2591 -2635 1680 0
-2591 -2636 1681 0
-2591 -2637 1682 0
-2591 -2638 1683 0
-2591 -2639 1684 0
-2591 -2640 1685 0
-2591 -2641 1686 0
-2591 -2642 1687 0
-2591 -2643 1688 0
-2591 -2644 1689 0
-2591 -2645 1690 0
-2591 -2646 1691 0
-2591 -2647 1692 0
-2591 -2648 1693 0
-2591 -2649 1694 0
-2591 -2650 1695 0
-2591 -2651 1696 0
-2591 -2652 1697 0
-2591 -2653 1698 0
-2591 -2654 1699 0
-2591 -2655 1700 0
-2591 -2656 1701 0
-2591 -2657 1702 0
-2591 -2658 1703 0
-2591 -2659 1704 0
-2591 -2660 1705 0
-2591 -2661 1706 0
-2591 -2662 1707 0
-2591 -2663 1708 0
-2591 -2664 1709 0
-2591 -2665 1710 0
-2591 -2666 1711 0
-2591 -2667 1712 0
-2591 -2668 1713 0
-2591 -2669 1714 0
-2591 -2670 1715 0
-2591 -2671 1716 0
-2591 -2672 1717 0
-2591 -2673 1718 0
-2591 -2674 1719 0
-2591 -2675 1720 0
-2591 -2676 1721 0
-2591 -2677 1722 0
-2591 -2678 1723 0
-2591 -2679 1724 0
-2591 -2680 1725 0
-2591 -2681 1726 0
-2591 -2682 1727 0
-2591 -2683 1728 0
-2591 -2684 1729 0
-2591 -2685 1730 0
-2591 -2686 1731 0
-2591 -2687 1732 0
-2591 -2688 1733 0
-2592 -2631 1677 0
-2592 -2632 1678 0
-2592 -2633 1679 0
-2592 -2634 1680 0
-2592 -2635 1681 0
-2592 -2636 1682 0
-2592 -2637 1683 0
-2592 -2638 1684 0
-2592 -2639 1685 0
-2592 -2640 1686 0
-2592 -2641 1687 0
-2592 -2642 1688 0
-2592 -2643 1689 0
-2592 -2644 1690 0
-2592 -2645 1691 0
-2592 -2646 1692 0
-2592 -2647 1693 0
-2592 -2648 1694 0
-2592 -2649 1695 0
-2592 -2650 1696 0
-2592 -2651 1697 0
-2592 -2652 1698 0
-2592 -2653 1699 0
-2592 -2654 1700 0
-2592 -2655 1701 0
-2592 -2656 1702 0
-2592 -2657 1703 0
-2592 -2658 1704 0
-2592 -2659 1705 0
-2592 -2660 1706 0
-2592 -2661 1707 0
-2592 -2662 1708 0
-2592 -2663 1709 0
-2592 -2664 1710 0
-2592 -2665 1711 0
-2592 -2666 1712 0
-2592 -2667 1713 0
-2592 -2668 1714 0
-2592 -2669 1715 0
-2592 -2670 1716 0
-2592 -2671 1717 0
-2592 -2672 1718 0
-2592 -2673 1719 0
-2592 -2674 1720 0
-2592 -2675 1721 0
-2592 -2676 1722 0
-2592 -2677 1723 0
-2592 -2678 1724 0
-2592 -2679 1725 0
-2592 -2680 1726 0
-2592 -2681 1727 0
-2592 -2682 1728 0
-2592 -2683 1729 0
-2592 -2684 1730 0
-2592 -2685 1731 0
-2592 -2686 1732 0
-2592 -2687 1733 0
-2592 -2688 1734 0
-2593 -2631 1678 0
-2593 -2632 1679 0
-2593 -2633 1680 0
-2593 -2634 1681 0
-2593 -2635 1682 0
-2593 -2636 1683 0
-2593 -2637 1684 0
-2593 -2638 1685 0
-2593 -2639 1686 0
-2593 -2640 1687 0
-2593 -2641 1688 0
-2593 -2642 1689 0
-2593 -2643 1690 0
-2593 -2644 1691 0
-2593 -2645 1692 0
-2593 -2646 1693 0
-2593 -2647 1694 0
-2593 -2648 1695 0
-2593 -2649 1696 0
-2593 -2650 1697 0
-2593 -2651 1698 0
-2593 -2652 1699 0
-2593 -2653 1700 0
-2593 -2654 1701 0
-2593 -2655 1702 0
-2593 -2656 1703 0
-2593 -2657 1704 0
-2593 -2658 1705 0
-2593 -2659 1706 0
-2593 -2660 1707 0
-2593 -2661 1708 0
-2593 -2662 1709 0
-2593 -2663 1710 0
-2593 -2664 1711 0
-2593 -2665 1712 0
-2593 -2666 1713 0
-2593 -2667 1714 0
-2593 -2668 1715 0
-2593 -2669 1716 0
-2593 -2670 1717 0
-2593 -2671 1718 0
-2593 -2672 1719 0
-2593 -2673 1720 0
-2593 -2674 1721 0
-2593 -2675 1722 0
-2593 -2676 1723 0
-2593 -2677 1724 0
-2593 -2678 1725 0
-2593 -2679 1726 0
-2593 -2680 1727 0
-2593 -2681 1728 0
-2593 -2682 1729 0
-2593 -2683 1730 0
-2593 -2684 1731 0
-2593 -2685 1732 0
-2593 -2686 1733 0
-2593 -2687 1734 0
-2593 -2688 1735 0
-2594 -2631 1679 0
-2594 -2632 1680 0
-2594 -2633 1681 0
-2594 -2634 1682 0
-2594 -2635 1683 0
-2594 -2636 1684 0
-2594 -2637 1685 0
-2594 -2638 1686 0
-2594 -2639 1687 0
-2594 -2640 1688 0
-2594 -2641 1689 0
-2594 -2642 1690 0
-2594 -2643 1691 0
-2594 -2644 1692 0
-2594 -2645 1693 0
-2594 -2646 1694 0
-2594 -2647 1695 0
-2594 -2648 1696 0
-2594 -2649 1697 0
-2594 -2650 1698 0
-2594 -2651 1699 0
-2594 -2652 1700 0
-2594 -2653 1701 0
-2594 -2654 1702 0
-2594 -2655 1703 0
-2594 -2656 1704 0
-2594 -2657 1705 0
-2594 -2658 1706 0
-2594 -2659 1707 0
-2594 -2660 1708 0
-2594 -2661 1709 0
-2594 -2662 1710 0
-2594 -2663 1711 0
-2594 -2664 1712 0
-2594 -2665 1713 0
-2594 -2666 1714 0
-2594 -2667 1715 0
-2594 -2668 1716 0
-2594 -2669 1717 0
-2594 -2670 1718 0
-2594 -2671 1719 0
-2594 -2672 1720 0
-2594 -2673 1721 0
-2594 -2674 1722 0
-2594 -2675 1723 0
-2594 -2676 1724 0
-2594 -2677 1725 0
-2594 -2678 1726 0
-2594 -2679 1727 0
-2594 -2680 1728 0
-2594 -2681 1729 0
-2594 -2682 1730 0
-2594 -2683 1731 0
-2594 -2684 1732 0
-2594 -2685 1733 0
-2594 -2686 1734 0
-2594 -2687 1735 0
-2594 -2688 1736 0
-2595 -2631 1680 0
-2595 -2632 1681 0
-2595 -2633 1682 0
-2595 -2634 1683 0
-2595 -2635 1684 0
-2595 -2636 1685 0
-2595 -2637 1686 0
-2595 -2638 1687 0
-2595 -2639 1688 0
-2595 -2640 1689 0
-2595 -2641 1690 0
-2595 -2642 1691 0
-2595 -2643 1692 0
-2595 -2644 1693 0
-2595 -2645 1694 0
-2595 -2646 1695 0
-2595 -2647 1696 0
-2595 -2648 1697 0
-2595 -2649 1698 0
-2595 -2650 1699 0
-2595 -2651 1700 0
-2595 -2652 1701 0
-2595 -2653 1702 0
-2595 -2654 1703 0
-2595 -2655 1704 0
-2595 -2656 1705 0
-2595 -2657 1706 0
-2595 -2658 1707 0
-2595 -2659 1708 0
-2595 -2660 1709 0
-2595 -2661 1710 0
-2595 -2662 1711 0
-2595 -2663 1712 0
-2595 -2664 1713 0
-2595 -2665 1714 0
-2595 -2666 1715 0
-2595 -2667 1716 0
-2595 -2668 1717 0
-2595 -2669 1718 0
-2595 -2670 1719 0
-2595 -2671 1720 0
-2595 -2672 1721 0
-2595 -2673 1722 0
-2595 -2674 1723 0
-2595 -2675 1724 0
-2595 -2676 1725 0
-2595 -2677 1726 0
-2595 -2678 1727 0
-2595 -2679 1728 0
-2595 -2680 1729 0
-2595 -2681 1730 0
-2595 -2682 1731 0
-2595 -2683 1732 0
-2595 -2684 1733 0
-2595 -2685 1734 0
-2595 -2686 1735 0
-2595 -2687 1736 0
-2595 -2688 1737 0
-2596 -2631 1681 0
-2596 -2632 1682 0
-2596 -2633 1683 0
-2596 -2634 1684 0
-2596 -2635 1685 0
-2596 -2636 1686 0
-2596 -2637 1687 0
-2596 -2638 1688 0
-2596 -2639 1689 0
-2596 -2640 1690 0
-2596 -2641 1691 0
-2596 -2642 1692 0
-2596 -2643 1693 0
-2596 -2644 1694 0
-2596 -2645 1695 0
-2596 -2646 1696 0
-2596 -2647 1697 0
-2596 -2648 1698 0
-2596 -2649 1699 0
-2596 -2650 1700 0
-2596 -2651 1701 0
-2596 -2652 1702 0
-2596 -2653 1703 0
-2596 -2654 1704 0
-2596 -2655 1705 0
-2596 -2656 1706 0
-2596 -2657 1707 0
-2596 -2658 1708 0
-2596 -2659 1709 0
-2596 -2660 1710 0
-2596 -2661 1711 0
-2596 -2662 1712 0
-2596 -2663 1713 0
-2596 -2664 1714 0
-2596 -2665 1715 0
-2596 -2666 1716 0
-2596 -2667 1717 0
-2596 -2668 1718 0
-2596 -2669 1719 0
-2596 -2670 1720 0
-2596 -2671 1721 0
-2596 -2672 1722 0
-2596 -2673 1723 0
-2596 -2674 1724 0
-2596 -2675 1725 0
-2596 -2676 1726 0
-2596 -2677 1727 0
-2596 -2678 1728 0
-2596 -2679 1729 0
-2596 -2680 1730 0
-2596 -2681 1731 0
-2596 -2682 1732 0
-2596 -2683 1733 0
-2596 -2684 1734 0
-2596 -2685 1735 0
-2596 -2686 1736 0
-2596 -2687 1737 0
-2596 -2688 1738 0
-2597 -2631 1682 0
-2597 -2632 1683 0
-2597 -2633 1684 0
-2597 -2634 1685 0
-2597 -2635 1686 0
-2597 -2636 1687 0
-2597 -2637 1688 0
-2597 -2638 1689 0
-2597 -2639 1690 0
-2597 -2640 1691 0
-2597 -2641 1692 0
-2597 -2642 1693 0
-2597 -2643 1694 0
-2597 -2644 1695 0
-2597 -2645 1696 0
-2597 -2646 1697 0
-2597 -2647 1698 0
-2597 -2648 1699 0
-2597 -2649 1700 0
-2597 -2650 1701 0
-2597 -2651 1702 0
-2597 -2652 1703 0
-2597 -2653 1704 0
-2597 -2654 1705 0
-2597 -2655 1706 0
-2597 -2656 1707 0
-2597 -2657 1708 0
-2597 -2658 1709 0
-2597 -2659 1710 0
-2597 -2660 1711 0
-2597 -2661 1712 0
-2597 -2662 1713 0
-2597 -2663 1714 0
-2597 -2664 1715 0
-2597 -2665 1716 0
-2597 -2666 1717 0
-2597 -2667 1718 0
-2597 -2668 1719 0
-2597 -2669 1720 0
-2597 -2670 1721 0
-2597 -2671 1722 0
-2597 -2672 1723 0
-2597 -2673 1724 0
-2597 -2674 1725 0
-2597 -2675 1726 0
-2597 -2676 1727 0
-2597 -2677 1728 0
-2597 -2678 1729 0
-2597 -2679 1730 0
-2597 -2680 1731 0
-2597 -2681 1732 0
-2597 -2682 1733 0
-2597 -2683 1734 0
-2597 -2684 1735 0
-2597 -2685 1736 0
-2597 -2686 1737 0
-2597 -2687 1738 0
-2597 -2688 1739 0
-2598 -2631 1683 0
-2598 -2632 1684 0
-2598 -2633 1685 0
-2598 -2634 1686 0
-2598 -2635 1687 0
-2598 -2636 1688 0
-2598 -2637 1689 0
-2598 -2638 1690 0
-2598 -2639 1691 0
-2598 -2640 1692 0
-2598 -2641 1693 0
-2598 -2642 1694 0
-2598 -2643 1695 0
-2598 -2644 1696 0
-2598 -2645 1697 0
-2598 -2646 1698 0
-2598 -2647 1699 0
-2598 -2648 1700 0
-2598 -2649 1701 0
-2598 -2650 1702 0
-2598 -2651 1703 0
-2598 -2652 1704 0
-2598 -2653 1705 0
-2598 -2654 1706 0
-2598 -2655 1707 0
-2598 -2656 1708 0
-2598 -2657 1709 0
-2598 -2658 1710 0
-2598 -2659 1711 0
-2598 -2660 1712 0
-2598 -2661 1713 0
-2598 -2662 1714 0
-2598 -2663 1715 0
-2598 -2664 1716 0
-2598 -2665 1717 0
-2598 -2666 1718 0
-2598 -2667 1719 0
-2598 -2668 1720 0
-2598 -2669 1721 0
-2598 -2670 1722 0
-2598 -2671 1723 0
-2598 -2672 1724 0
-2598 -2673 1725 0
-2598 -2674 1726 0
-2598 -2675 1727 0
-2598 -2676 1728 0
-2598 -2677 1729 0
-2598 -2678 1730 0
-2598 -2679 1731 0
-2598 -2680 1732 0
-2598 -2681 1733 0
-2598 -2682 1734 0
-2598 -2683 1735 0
-2598 -2684 1736 0
-2598 -2685 1737 0
-2598 -2686 1738 0
-2598 -2687 1739 0
-2598 -2688 1740 0
-2599 -2631 1684 0
-2599 -2632 1685 0
-2599 -2633 1686 0
-2599 -2634 1687 0
-2599 -2635 1688 0
-2599 -2636 1689 0
-2599 -2637 1690 0
-2599 -2638 1691 0
-2599 -2639 1692 0
-2599 -2640 1693 0
-2599 -2641 1694 0
-2599 -2642 1695 0
-2599 -2643 1696 0
-2599 -2644 1697 0
-2599 -2645 1698 0
-2599 -2646 1699 0
-2599 -2647 1700 0
-2599 -2648 1701 0
-2599 -2649 1702 0
-2599 -2650 1703 0
-2599 -2651 1704 0
-2599 -2652 1705 0
-2599 -2653 1706 0
-2599 -2654 1707 0
-2599 -2655 1708 0
-2599 -2656 1709 0
-2599 -2657 1710 0
-2599 -2658 1711 0
-2599 -2659 1712 0
-2599 -2660 1713 0
-2599 -2661 1714 0
-2599 -2662 1715 0
-2599 -2663 1716 0
-2599 -2664 1717 0
-2599 -2665 1718 0
-2599 -2666 1719 0
-2599 -2667 1720 0
-2599 -2668 1721 0
-2599 -2669 1722 0
-2599 -2670 1723 0
-2599 -2671 1724 0
-2599 -2672 1725 0
-2599 -2673 1726 0
-2599 -2674 1727 0
-2599 -2675 1728 0
-2599 -2676 1729 0
-2599 -2677 1730 0
-2599 -2678 1731 0
-2599 -2679 1732 0
-2599 -2680 1733 0
-2599 -2681 1734 0
-2599 -2682 1735 0
-2599 -2683 1736 0
-2599 -2684 1737 0
-2599 -2685 1738 0
-2599 -2686 1739 0
-2599 -2687 1740 0
-2599 -2688 1741 0
-2600 -2631 1685 0
-2600 -2632 1686 0
-2600 -2633 1687 0
-2600 -2634 1688 0
-2600 -2635 1689 0
-2600 -2636 1690 0
-2600 -2637 1691 0
-2600 -2638 1692 0
-2600 -2639 1693 0
-2600 -2640 1694 0
-2600 -2641 1695 0
-2600 -2642 1696 0
-2600 -2643 1697 0
-2600 -2644 1698 0
-2600 -2645 1699 0
-2600 -2646 1700 0
-2600 -2647 1701 0
-2600 -2648 1702 0
-2600 -2649 1703 0
-2600 -2650 1704 0
-2600 -2651 1705 0
-2600 -2652 1706 0
-2600 -2653 1707 0
-2600 -2654 1708 0
-2600 -2655 1709 0
-2600 -2656 1710 0
-2600 -2657 1711 0
-2600 -2658 1712 0
-2600 -2659 1713 0
-2600 -2660 1714 0
-2600 -2661 1715 0
-2600 -2662 1716 0
-2600 -2663 1717 0
-2600 -2664 1718 0
-2600 -2665 1719 0
-2600 -2666 1720 0
-2600 -2667 1721 0
-2600 -2668 1722 0
-2600 -2669 1723 0
-2600 -2670 1724 0
-2600 -2671 1725 0
-2600 -2672 1726 0
-2600 -2673 1727 0
-2600 -2674 1728 0
-2600 -2675 1729 0
-2600 -2676 1730 0
-2600 -2677 1731 0
-2600 -2678 1732 0
-2600 -2679 1733 0
-2600 -2680 1734 0
-2600 -2681 1735 0
-2600 -2682 1736 0
-2600 -2683 1737 0
-2600 -2684 1738 0
-2600 -2685 1739 0
-2600 -2686 1740 0
-2600 -2687 1741 0
-2600 -2688 1742 0
-2601 -2631 1686 0
-2601 -2632 1687 0
-2601 -2633 1688 0
-2601 -2634 1689 0
-2601 -2635 1690 0
-2601 -2636 1691 0
-2601 -2637 1692 0
-2601 -2638 1693 0
-2601 -2639 1694 0
-2601 -2640 1695 0
-2601 -2641 1696 0
-2601 -2642 1697 0
-2601 -2643 1698 0
-2601 -2644 1699 0
-2601 -2645 1700 0
-2601 -2646 1701 0
-2601 -2647 1702 0
-2601 -2648 1703 0
-2601 -2649 1704 0
-2601 -2650 1705 0
-2601 -2651 1706 0
-2601 -2652 1707 0
-2601 -2653 1708 0
-2601 -2654 1709 0
-2601 -2655 1710 0
-2601 -2656 1711 0
-2601 -2657 1712 0
-2601 -2658 1713 0
-2601 -2659 1714 0
-2601 -2660 1715 0
-2601 -2661 1716 0
-2601 -2662 1717 0
-2601 -2663 1718 0
-2601 -2664 1719 0
-2601 -2665 1720 0
-2601 -2666 1721 0
-2601 -2667 1722 0
-2601 -2668 1723 0
-2601 -2669 1724 0
-2601 -2670 1725 0
-2601 -2671 1726 0
-2601 -2672 1727 0
-2601 -2673 1728 0
-2601 -2674 1729 0
-2601 -2675 1730 0
-2601 -2676 1731 0
-2601 -2677 1732 0
-2601 -2678 1733 0
-2601 -2679 1734 0
-2601 -2680 1735 0
-2601 -2681 1736 0
-2601 -2682 1737 0
-2601 -2683 1738 0
-2601 -2684 1739 0
-2601 -2685 1740 0
-2601 -2686 1741 0
-2601 -2687 1742 0
-2601 -2688 1743 0
-2602 -2631 1687 0
-2602 -2632 1688 0
-2602 -2633 1689 0
-2602 -2634 1690 0
-2602 -2635 1691 0
-2602 -2636 1692 0
-2602 -2637 1693 0
-2602 -2638 1694 0
-2602 -2639 1695 0
-2602 -2640 1696 0
-2602 -2641 1697 0
-2602 -2642 1698 0
-2602 -2643 1699 0
-2602 -2644 1700 0
-2602 -2645 1701 0
-2602 -2646 1702 0
-2602 -2647 1703 0
-2602 -2648 1704 0
-2602 -2649 1705 0
-2602 -2650 1706 0
-2602 -2651 1707 0
-2602 -2652 1708 0
-2602 -2653 1709 0
-2602 -2654 1710 0
-2602 -2655 1711 0
-2602 -2656 1712 0
-2602 -2657 1713 0
-2602 -2658 1714 0
-2602 -2659 1715 0
-2602 -2660 1716 0
-2602 -2661 1717 0
-2602 -2662 1718 0
-2602 -2663 1719 0
-2602 -2664 1720 0
-2602 -2665 1721 0
-2602 -2666 1722 0
-2602 -2667 1723 0
-2602 -2668 1724 0
-2602 -2669 1725 0
-2602 -2670 1726 0
-2602 -2671 1727 0
-2602 -2672 1728 0
-2602 -2673 1729 0
-2602 -2674 1730 0
-2602 -2675 1731 0
-2602 -2676 1732 0
-2602 -2677 1733 0
-2602 -2678 1734 0
-2602 -2679 1735 0
-2602 -2680 1736 0
-2602 -2681 1737 0
-2602 -2682 1738 0
-2602 -2683 1739 0
-2602 -2684 1740 0
-2602 -2685 1741 0
-2602 -2686 1742 0
-2602 -2687 1743 0
-2602 -2688 1744 0
-2603 -2631 1688 0
-2603 -2632 1689 0
-2603 -2633 1690 0
-2603 -2634 1691 0
-2603 -2635 1692 0
-2603 -2636 1693 0
-2603 -2637 1694 0
-2603 -2638 1695 0
-2603 -2639 1696 0
-2603 -2640 1697 0
-2603 -2641 1698 0
-2603 -2642 1699 0
-2603 -2643 1700 0
-2603 -2644 1701 0
-2603 -2645 1702 0
-2603 -2646 1703 0
-2603 -2647 1704 0
-2603 -2648 1705 0
-2603 -2649 1706 0
-2603 -2650 1707 0
-2603 -2651 1708 0
-2603 -2652 1709 0
-2603 -2653 1710 0
-2603 -2654 1711 0
-2603 -2655 1712 0
-2603 -2656 1713 0
-2603 -2657 1714 0
-2603 -2658 1715 0
-2603 -2659 1716 0
-2603 -2660 1717 0
-2603 -2661 1718 0
-2603 -2662 1719 0
-2603 -2663 1720 0
-2603 -2664 1721 0
-2603 -2665 1722 0
-2603 -2666 1723 0
-2603 -2667 1724 0
-2603 -2668 1725 0
-2603 -2669 1726 0
-2603 -2670 1727 0
-2603 -2671 1728 0
-2603 -2672 1729 0
-2603 -2673 1730 0
-2603 -2674 1731 0
-2603 -2675 1732 0
-2603 -2676 1733 0
-2603 -2677 1734 0
-2603 -2678 1735 0
-2603 -2679 1736 0
-2603 -2680 1737 0
-2603 -2681 1738 0
-2603 -2682 1739 0
-2603 -2683 1740 0
-2603 -2684 1741 0
-2603 -2685 1742 0
-2603 -2686 1743 0
-2603 -2687 1744 0
-2603 -2688 1745 0
-2604 -2631 1689 0
-2604 -2632 1690 0
-2604 -2633 1691 0
-2604 -2634 1692 0
-2604 -2635 1693 0
-2604 -2636 1694 0
-2604 -2637 1695 0
-2604 -2638 1696 0
-2604 -2639 1697 0
-2604 -2640 1698 0
-2604 -2641 1699 0
-2604 -2642 1700 0
-2604 -2643 1701 0
-2604 -2644 1702 0
-2604 -2645 1703 0
-2604 -2646 1704 0
-2604 -2647 1705 0
-2604 -2648 1706 0
-2604 -2649 1707 0
-2604 -2650 1708 0
-2604 -2651 1709 0
-2604 -2652 1710 0
-2604 -2653 1711 0
-2604 -2654 1712 0
-2604 -2655 1713 0
-2604 -2656 1714 0
-2604 -2657 1715 0
-2604 -2658 1716 0
-2604 -2659 1717 0
-2604 -2660 1718 0
-2604 -2661 1719 0
-2604 -2662 1720 0
-2604 -2663 1721 0
-2604 -2664 1722 0
-2604 -2665 1723 0
-2604 -2666 1724 0
-2604 -2667 1725 0
-2604 -2668 1726 0
-2604 -2669 1727 0
-2604 -2670 1728 0
-2604 -2671 1729 0
-2604 -2672 1730 0
-2604 -2673 1731 0
-2604 -2674 1732 0
-2604 -2675 1733 0
-2604 -2676 1734 0
-2604 -2677 1735 0
-2604 -2678 1736 0
-2604 -2679 1737 0
-2604 -2680 1738 0
-2604 -2681 1739 0
-2604 -2682 1740 0
-2604 -2683 1741 0
-2604 -2684 1742 0
-2604 -2685 1743 0
-2604 -2686 1744 0
-2604 -2687 1745 0
-2604 -2688 1746 0
-2605 -2631 1690 0
-2605 -2632 1691 0
-2605 -2633 1692 0
-2605 -2634 1693 0
-2605 -2635 1694 0
-2605 -2636 1695 0
-2605 -2637 1696 0
-2605 -2638 1697 0
-2605 -2639 1698 0
-2605 -2640 1699 0
-2605 -2641 1700 0
-2605 -2642 1701 0
-2605 -2643 1702 0
-2605 -2644 1703 0
-2605 -2645 1704 0
-2605 -2646 1705 0
-2605 -2647 1706 0
-2605 -2648 1707 0
-2605 -2649 1708 0
-2605 -2650 1709 0
-2605 -2651 1710 0
-2605 -2652 1711 0
-2605 -2653 1712 0
-2605 -2654 1713 0
-2605 -2655 1714 0
-2605 -2656 1715 0
-2605 -2657 1716 0
-2605 -2658 1717 0
-2605 -2659 1718 0
-2605 -2660 1719 0
-2605 -2661 1720 0
-2605 -2662 1721 0
-2605 -2663 1722 0
-2605 -2664 1723 0
-2605 -2665 1724 0
-2605 -2666 1725 0
-2605 -2667 1726 0
-2605 -2668 1727 0
-2605 -2669 1728 0
-2605 -2670 1729 0
-2605 -2671 1730 0
-2605 -2672 1731 0
-2605 -2673 1732 0
-2605 -2674 1733 0
-2605 -2675 1734 0
-2605 -2676 1735 0
-2605 -2677 1736 0
-2605 -2678 1737 0
-2605 -2679 1738 0
-2605 -2680 1739 0
-2605 -2681 1740 0
-2605 -2682 1741 0
-2605 -2683 1742 0
-2605 -2684 1743 0
-2605 -2685 1744 0
-2605 -2686 1745 0
-2605 -2687 1746 0
-2605 -2688 1747 0
-2606 -2631 1691 0
-2606 -2632 1692 0
-2606 -2633 1693 0
-2606 -2634 1694 0
-2606 -2635 1695 0
-2606 -2636 1696 0
-2606 -2637 1697 0
-2606 -2638 1698 0
-2606 -2639 1699 0
-2606 -2640 1700 0
-2606 -2641 1701 0
-2606 -2642 1702 0
-2606 -2643 1703 0
-2606 -2644 1704 0
-2606 -2645 1705 0
-2606 -2646 1706 0
-2606 -2647 1707 0
-2606 -2648 1708 0
-2606 -2649 1709 0
-2606 -2650 1710 0
-2606 -2651 1711 0
-2606 -2652 1712 0
-2606 -2653 1713 0
-2606 -2654 1714 0
-2606 -2655 1715 0
-2606 -2656 1716 0
-2606 -2657 1717 0
-2606 -2658 1718 0
-2606 -2659 1719 0
-2606 -2660 1720 0
-2606 -2661 1721 0
-2606 -2662 1722 0
-2606 -2663 1723 0
-2606 -2664 1724 0
-2606 -2665 1725 0
-2606 -2666 1726 0
-2606 -2667 1727 0
-2606 -2668 1728 0
-2606 -2669 1729 0
-2606 -2670 1730 0
-2606 -2671 1731 0
-2606 -2672 1732 0
-2606 -2673 1733 0
-2606 -2674 1734 0
-2606 -2675 1735 0
-2606 -2676 1736 0
-2606 -2677 1737 0
-2606 -2678 1738 0
-2606 -2679 1739 0
-2606 -2680 1740 0
-2606 -2681 1741 0
-2606 -2682 1742 0
-2606 -2683 1743 0
-2606 -2684 1744 0
-2606 -2685 1745 0
-2606 -2686 1746 0
-2606 -2687 1747 0
-2606 -2688 1748 0
-2607 -2631 1692 0
-2607 -2632 1693 0
-2607 -2633 1694 0
-2607 -2634 1695 0
-2607 -2635 1696 0
-2607 -2636 1697 0
-2607 -2637 1698 0
-2607 -2638 1699 0
-2607 -2639 1700 0
-2607 -2640 1701 0
-2607 -2641 1702 0
-2607 -2642 1703 0
-2607 -2643 1704 0
-2607 -2644 1705 0
-2607 -2645 1706 0
-2607 -2646 1707 0
-2607 -2647 1708 0
-2607 -2648 1709 0
-2607 -2649 1710 0
-2607 -2650 1711 0
-2607 -2651 1712 0
-2607 -2652 1713 0
-2607 -2653 1714 0
-2607 -2654 1715 0
-2607 -2655 1716 0
-2607 -2656 1717 0
-2607 -2657 1718 0
-2607 -2658 1719 0
-2607 -2659 1720 0
-2607 -2660 1721 0
-2607 -2661 1722 0
-2607 -2662 1723 0
-2607 -2663 1724 0
-2607 -2664 1725 0
-2607 -2665 1726 0
-2607 -2666 1727 0
-2607 -2667 1728 0
-2607 -2668 1729 0
-2607 -2669 1730 0
-2607 -2670 1731 0
-2607 -2671 1732 0
-2607 -2672 1733 0
-2607 -2673 1734 0
-2607 -2674 1735 0
-2607 -2675 1736 0
-2607 -2676 1737 0
-2607 -2677 1738 0
-2607 -2678 1739 0
-2607 -2679 1740 0
-2607 -2680 1741 0
-2607 -2681 1742 0
-2607 -2682 1743 0
-2607 -2683 1744 0
-2607 -2684 1745 0
-2607 -2685 1746 0
-2607 -2686 1747 0
-2607 -2687 1748 0
-2607 -2688 1749 0
-2608 -2631 1693 0
-2608 -2632 1694 0
-2608 -2633 1695 0
-2608 -2634 1696 0
-2608 -2635 1697 0
-2608 -2636 1698 0
-2608 -2637 1699 0
-2608 -2638 1700 0
-2608 -2639 1701 0
-2608 -2640 1702 0
-2608 -2641 1703 0
-2608 -2642 1704 0
-2608 -2643 1705 0
-2608 -2644 1706 0
-2608 -2645 1707 0
-2608 -2646 1708 0
-2608 -2647 1709 0
-2608 -2648 1710 0
-2608 -2649 1711 0
-2608 -2650 1712 0
-2608 -2651 1713 0
-2608 -2652 1714 0
-2608 -2653 1715 0
-2608 -2654 1716 0
-2608 -2655 1717 0
-2608 -2656 1718 0
-2608 -2657 1719 0
-2608 -2658 1720 0
-2608 -2659 1721 0
-2608 -2660 1722 0
-2608 -2661 1723 0
-2608 -2662 1724 0
-2608 -2663 1725 0
-2608 -2664 1726 0
-2608 -2665 1727 0
-2608 -2666 1728 0
-2608 -2667 1729 0
-2608 -2668 1730 0
-2608 -2669 1731 0
-2608 -2670 1732 0
-2608 -2671 1733 0
-2608 -2672 1734 0
-2608 -2673 1735 0
-2608 -2674 1736 0
-2608 -2675 1737 0
-2608 -2676 1738 0
-2608 -2677 1739 0
-2608 -2678 1740 0
-2608 -2679 1741 0
-2608 -2680 1742 0
-2608 -2681 1743 0
-2608 -2682 1744 0
-2608 -2683 1745 0
-2608 -2684 1746 0
-2608 -2685 1747 0
-2608 -2686 1748 0
-2608 -2687 1749 0
-2608 -2688 1750 0
-2609 -2631 1694 0
-2609 -2632 1695 0
-2609 -2633 1696 0
-2609 -2634 1697 0
-2609 -2635 1698 0
-2609 -2636 1699 0
-2609 -2637 1700 0
-2609 -2638 1701 0
-2609 -2639 1702 0
-2609 -2640 1703 0
-2609 -2641 1704 0
-2609 -2642 1705 0
-2609 -2643 1706 0
-2609 -2644 1707 0
-2609 -2645 1708 0
-2609 -2646 1709 0
-2609 -2647 1710 0
-2609 -2648 1711 0
-2609 -2649 1712 0
-2609 -2650 1713 0
-2609 -2651 1714 0
-2609 -2652 1715 0
-2609 -2653 1716 0
-2609 -2654 1717 0
-2609 -2655 1718 0
-2609 -2656 1719 0
-2609 -2657 1720 0
-2609 -2658 1721 0
-2609 -2659 1722 0
-2609 -2660 1723 0
-2609 -2661 1724 0
-2609 -2662 1725 0
-2609 -2663 1726 0
-2609 -2664 1727 0
-2609 -2665 1728 0
-2609 -2666 1729 0
-2609 -2667 1730 0
-2609 -2668 1731 0
-2609 -2669 1732 0
-2609 -2670 1733 0
-2609 -2671 1734 0
-2609 -2672 1735 0
-2609 -2673 1736 0
-2609 -2674 1737 0
-2609 -2675 1738 0
-2609 -2676 1739 0
-2609 -2677 1740 0
-2609 -2678 1741 0
-2609 -2679 1742 0
-2609 -2680 1743 0
-2609 -2681 1744 0
-2609 -2682 1745 0
-2609 -2683 1746 0
-2609 -2684 1747 0
-2609 -2685 1748 0
-2609 -2686 1749 0
-2609 -2687 1750 0
-2609 -2688 1751 0
-2610 -2631 1695 0
-2610 -2632 1696 0
-2610 -2633 1697 0
-2610 -2634 1698 0
-2610 -2635 1699 0
-2610 -2636 1700 0
-2610 -2637 1701 0
-2610 -2638 1702 0
-2610 -2639 1703 0
-2610 -2640 1704 0
-2610 -2641 1705 0
-2610 -2642 1706 0
-2610 -2643 1707 0
-2610 -2644 1708 0
-2610 -2645 1709 0
-2610 -2646 1710 0
-2610 -2647 1711 0
-2610 -2648 1712 0
-2610 -2649 1713 0
-2610 -2650 1714 0
-2610 -2651 1715 0
-2610 -2652 1716 0
-2610 -2653 1717 0
-2610 -2654 1718 0
-2610 -2655 1719 0
-2610 -2656 1720 0
-2610 -2657 1721 0
-2610 -2658 1722 0
-2610 -2659 1723 0
-2610 -2660 1724 0
-2610 -2661 1725 0
-2610 -2662 1726 0
-2610 -2663 1727 0
-2610 -2664 1728 0
-2610 -2665 1729 0
-2610 -2666 1730 0
-2610 -2667 1731 0
-2610 -2668 1732 0
-2610 -2669 1733 0
-2610 -2670 1734 0
-2610 -2671 1735 0
-2610 -2672 1736 0
-2610 -2673 1737 0
-2610 -2674 1738 0
-2610 -2675 1739 0
-2610 -2676 1740 0
-2610 -2677 1741 0
-2610 -2678 1742 0
-2610 -2679 1743 0
-2610 -2680 1744 0
-2610 -2681 1745 0
-2610 -2682 1746 0
-2610 -2683 1747 0
-2610 -2684 1748 0
-2610 -2685 1749 0
-2610 -2686 1750 0
-2610 -2687 1751 0
-2610 -2688 1752 0
-2611 -2631 1696 0
-2611 -2632 1697 0
-2611 -2633 1698 0
-2611 -2634 1699 0
-2611 -2635 1700 0
-2611 -2636 1701 0
-2611 -2637 1702 0
-2611 -2638 1703 0
-2611 -2639 1704 0
-2611 -2640 1705 0
-2611 -2641 1706 0
-2611 -2642 1707 0
-2611 -2643 1708 0
-2611 -2644 1709 0
-2611 -2645 1710 0
-2611 -2646 1711 0
-2611 -2647 1712 0
-2611 -2648 1713 0
-2611 -2649 1714 0
-2611 -2650 1715 0
-2611 -2651 1716 0
-2611 -2652 1717 0
-2611 -2653 1718 0
-2611 -2654 1719 0
-2611 -2655 1720 0
-2611 -2656 1721 0
-2611 -2657 1722 0
-2611 -2658 1723 0
-2611 -2659 1724 0
-2611 -2660 1725 0
-2611 -2661 1726 0
-2611 -2662 1727 0
-2611 -2663 1728 0
-2611 -2664 1729 0
-2611 -2665 1730 0
-2611 -2666 1731 0
-2611 -2667 1732 0
-2611 -2668 1733 0
-2611 -2669 1734 0
-2611 -2670 1735 0
-2611 -2671 1736 0
-2611 -2672 1737 0
-2611 -2673 1738 0
-2611 -2674 1739 0
-2611 -2675 1740 0
-2611 -2676 1741 0
-2611 -2677 1742 0
-2611 -2678 1743 0
-2611 -2679 1744 0
-2611 -2680 1745 0
-2611 -2681 1746 0
-2611 -2682 1747 0
-2611 -2683 1748 0
-2611 -2684 1749 0
-2611 -2685 1750 0
-2611 -2686 1751 0
-2611 -2687 1752 0
-2611 -2688 1753 0
-2612 -2631 1697 0
-2612 -2632 1698 0
-2612 -2633 1699 0
-2612 -2634 1700 0
-2612 -2635 1701 0
-2612 -2636 1702 0
-2612 -2637 1703 0
-2612 -2638 1704 0
-2612 -2639 1705 0
-2612 -2640 1706 0
-2612 -2641 1707 0
-2612 -2642 1708 0
-2612 -2643 1709 0
-2612 -2644 1710 0
-2612 -2645 1711 0
-2612 -2646 1712 0
-2612 -2647 1713 0
-2612 -2648 1714 0
-2612 -2649 1715 0
-2612 -2650 1716 0
-2612 -2651 1717 0
-2612 -2652 1718 0
-2612 -2653 1719 0
-2612 -2654 1720 0
-2612 -2655 1721 0
-2612 -2656 1722 0
-2612 -2657 1723 0
-2612 -2658 1724 0
-2612 -2659 1725 0
-2612 -2660 1726 0
-2612 -2661 1727 0
-2612 -2662 1728 0
-2612 -2663 1729 0
-2612 -2664 1730 0
-2612 -2665 1731 0
-2612 -2666 1732 0
-2612 -2667 1733 0
-2612 -2668 1734 0
-2612 -2669 1735 0
-2612 -2670 1736 0
-2612 -2671 1737 0
-2612 -2672 1738 0
-2612 -2673 1739 0
-2612 -2674 1740 0
-2612 -2675 1741 0
-2612 -2676 1742 0
-2612 -2677 1743 0
-2612 -2678 1744 0
-2612 -2679 1745 0
-2612 -2680 1746 0
-2612 -2681 1747 0
-2612 -2682 1748 0
-2612 -2683 1749 0
-2612 -2684 1750 0
-2612 -2685 1751 0
-2612 -2686 1752 0
-2612 -2687 1753 0
-2612 -2688 1754 0
-2613 -2631 1698 0
-2613 -2632 1699 0
-2613 -2633 1700 0
-2613 -2634 1701 0
-2613 -2635 1702 0
-2613 -2636 1703 0
-2613 -2637 1704 0
-2613 -2638 1705 0
-2613 -2639 1706 0
-2613 -2640 1707 0
-2613 -2641 1708 0
-2613 -2642 1709 0
-2613 -2643 1710 0
-2613 -2644 1711 0
-2613 -2645 1712 0
-2613 -2646 1713 0
-2613 -2647 1714 0
-2613 -2648 1715 0
-2613 -2649 1716 0
-2613 -2650 1717 0
-2613 -2651 1718 0
-2613 -2652 1719 0
-2613 -2653 1720 0
-2613 -2654 1721 0
-2613 -2655 1722 0
-2613 -2656 1723 0
-2613 -2657 1724 0
-2613 -2658 1725 0
-2613 -2659 1726 0
-2613 -2660 1727 0
-2613 -2661 1728 0
-2613 -2662 1729 0
-2613 -2663 1730 0
-2613 -2664 1731 0
-2613 -2665 1732 0
-2613 -2666 1733 0
-2613 -2667 1734 0
-2613 -2668 1735 0
-2613 -2669 1736 0
-2613 -2670 1737 0
-2613 -2671 1738 0
-2613 -2672 1739 0
-2613 -2673 1740 0
-2613 -2674 1741 0
-2613 -2675 1742 0
-2613 -2676 1743 0
-2613 -2677 1744 0
-2613 -2678 1745 0
-2613 -2679 1746 0
-2613 -2680 1747 0
-2613 -2681 1748 0
-2613 -2682 1749 0
-2613 -2683 1750 0
-2613 -2684 1751 0
-2613 -2685 1752 0
-2613 -2686 1753 0
-2613 -2687 1754 0
-2613 -2688 1755 0
-2614 -2631 1699 0
-2614 -2632 1700 0
-2614 -2633 1701 0
-2614 -2634 1702 0
-2614 -2635 1703 0
-2614 -2636 1704 0
-2614 -2637 1705 0
-2614 -2638 1706 0
-2614 -2639 1707 0
-2614 -2640 1708 0
-2614 -2641 1709 0
-2614 -2642 1710 0
-2614 -2643 1711 0
-2614 -2644 1712 0
-2614 -2645 1713 0
-2614 -2646 1714 0
-2614 -2647 1715 0
-2614 -2648 1716 0
-2614 -2649 1717 0
-2614 -2650 1718 0
-2614 -2651 1719 0
-2614 -2652 1720 0
-2614 -2653 1721 0
-2614 -2654 1722 0
-2614 -2655 1723 0
-2614 -2656 1724 0
-2614 -2657 1725 0
-2614 -2658 1726 0
-2614 -2659 1727 0
-2614 -2660 1728 0
-2614 -2661 1729 0
-2614 -2662 1730 0
-2614 -2663 1731 0
-2614 -2664 1732 0
-2614 -2665 1733 0
-2614 -2666 1734 0
-2614 -2667 1735 0
-2614 -2668 1736 0
-2614 -2669 1737 0
-2614 -2670 1738 0
-2614 -2671 1739 0
-2614 -2672 1740 0
-2614 -2673 1741 0
-2614 -2674 1742 0
-2614 -2675 1743 0
-2614 -2676 1744 0
-2614 -2677 1745 0
-2614 -2678 1746 0
-2614 -2679 1747 0
-2614 -2680 1748 0
-2614 -2681 1749 0
-2614 -2682 1750 0
-2614 -2683 1751 0
-2614 -2684 1752 0
-2614 -2685 1753 0
-2614 -2686 1754 0
-2614 -2687 1755 0
-2614 -2688 1756 0
-2615 -2631 1700 0
-2615 -2632 1701 0
-2615 -2633 1702 0
-2615 -2634 1703 0
-2615 -2635 1704 0
-2615 -2636 1705 0
-2615 -2637 1706 0
-2615 -2638 1707 0
-2615 -2639 1708 0
-2615 -2640 1709 0
-2615 -2641 1710 0
-2615 -2642 1711 0
-2615 -2643 1712 0
-2615 -2644 1713 0
-2615 -2645 1714 0
-2615 -2646 1715 0
-2615 -2647 1716 0
-2615 -2648 1717 0
-2615 -2649 1718 0
-2615 -2650 1719 0
-2615 -2651 1720 0
-2615 -2652 1721 0
-2615 -2653 1722 0
-2615 -2654 1723 0
-2615 -2655 1724 0
-2615 -2656 1725 0
-2615 -2657 1726 0
-2615 -2658 1727 0
-2615 -2659 1728 0
-2615 -2660 1729 0
-2615 -2661 1730 0
-2615 -2662 1731 0
-2615 -2663 1732 0
-2615 -2664 1733 0
-2615 -2665 1734 0
-2615 -2666 1735 0
-2615 -2667 1736 0
-2615 -2668 1737 0
-2615 -2669 1738 0
-2615 -2670 1739 0
-2615 -2671 1740 0
-2615 -2672 1741 0
-2615 -2673 1742 0
-2615 -2674 1743 0
-2615 -2675 1744 0
-2615 -2676 1745 0
-2615 -2677 1746 0
-2615 -2678 1747 0
-2615 -2679 1748 0
-2615 -2680 1749 0
-2615 -2681 1750 0
-2615 -2682 1751 0
-2615 -2683 1752 0
-2615 -2684 1753 0
-2615 -2685 1754 0
-2615 -2686 1755 0
-2615 -2687 1756 0
-2615 -2688 1757 0
-2616 -2631 1701 0
-2616 -2632 1702 0
-2616 -2633 1703 0
-2616 -2634 1704 0
-2616 -2635 1705 0
-2616 -2636 1706 0
-2616 -2637 1707 0
-2616 -2638 1708 0
-2616 -2639 1709 0
-2616 -2640 1710 0
-2616 -2641 1711 0
-2616 -2642 1712 0
-2616 -2643 1713 0
-2616 -2644 1714 0
-2616 -2645 1715 0
-2616 -2646 1716 0
-2616 -2647 1717 0
-2616 -2648 1718 0
-2616 -2649 1719 0
-2616 -2650 1720 0
-2616 -2651 1721 0
-2616 -2652 1722 0
-2616 -2653 1723 0
-2616 -2654 1724 0
-2616 -2655 1725 0
-2616 -2656 1726 0
-2616 -2657 1727 0
-2616 -2658 1728 0
-2616 -2659 1729 0
-2616 -2660 1730 0
-2616 -2661 1731 0
-2616 -2662 1732 0
-2616 -2663 1733 0
-2616 -2664 1734 0
-2616 -2665 1735 0
-2616 -2666 1736 0
-2616 -2667 1737 0
-2616 -2668 1738 0
-2616 -2669 1739 0
-2616 -2670 1740 0
-2616 -2671 1741 0
-2616 -2672 1742 0
-2616 -2673 1743 0
-2616 -2674 1744 0
-2616 -2675 1745 0
-2616 -2676 1746 0
-2616 -2677 1747 0
-2616 -2678 1748 0
-2616 -2679 1749 0
-2616 -2680 1750 0
-2616 -2681 1751 0
-2616 -2682 1752 0
-2616 -2683 1753 0
-2616 -2684 1754 0
-2616 -2685 1755 0
-2616 -2686 1756 0
-2616 -2687 1757 0
-2616 -2688 1758 0
-2617 -2631 1702 0
-2617 -2632 1703 0
-2617 -2633 1704 0
-2617 -2634 1705 0
-2617 -2635 1706 0
-2617 -2636 1707 0
-2617 -2637 1708 0
-2617 -2638 1709 0
-2617 -2639 1710 0
-2617 -2640 1711 0
-2617 -2641 1712 0
-2617 -2642 1713 0
-2617 -2643 1714 0
-2617 -2644 1715 0
-2617 -2645 1716 0
-2617 -2646 1717 0
-2617 -2647 1718 0
-2617 -2648 1719 0
-2617 -2649 1720 0
-2617 -2650 1721 0
-2617 -2651 1722 0
-2617 -2652 1723 0
-2617 -2653 1724 0
-2617 -2654 1725 0
-2617 -2655 1726 0
-2617 -2656 1727 0
-2617 -2657 1728 0
-2617 -2658 1729 0
-2617 -2659 1730 0
-2617 -2660 1731 0
-2617 -2661 1732 0
-2617 -2662 1733 0
-2617 -2663 1734 0
-2617 -2664 1735 0
-2617 -2665 1736 0
-2617 -2666 1737 0
-2617 -2667 1738 0
-2617 -2668 1739 0
-2617 -2669 1740 0
-2617 -2670 1741 0
-2617 -2671 1742 0
-2617 -2672 1743 0
-2617 -2673 1744 0
-2617 -2674 1745 0
-2617 -2675 1746 0
-2617 -2676 1747 0
-2617 -2677 1748 0
-2617 -2678 1749 0
-2617 -2679 1750 0
-2617 -2680 1751 0
-2617 -2681 1752 0
-2617 -2682 1753 0
-2617 -2683 1754 0
-2617 -2684 1755 0
-2617 -2685 1756 0
-2617 -2686 1757 0
-2617 -2687 1758 0
-2617 -2688 1759 0
-2618 -2631 1703 0
-2618 -2632 1704 0
-2618 -2633 1705 0
-2618 -2634 1706 0
-2618 -2635 1707 0
-2618 -2636 1708 0
-2618 -2637 1709 0
-2618 -2638 1710 0
-2618 -2639 1711 0
-2618 -2640 1712 0
-2618 -2641 1713 0
-2618 -2642 1714 0
-2618 -2643 1715 0
-2618 -2644 1716 0
-2618 -2645 1717 0
-2618 -2646 1718 0
-2618 -2647 1719 0
-2618 -2648 1720 0
-2618 -2649 1721 0
-2618 -2650 1722 0
-2618 -2651 1723 0
-2618 -2652 1724 0
-2618 -2653 1725 0
-2618 -2654 1726 0
-2618 -2655 1727 0
-2618 -2656 1728 0
-2618 -2657 1729 0
-2618 -2658 1730 0
-2618 -2659 1731 0
-2618 -2660 1732 0
-2618 -2661 1733 0
-2618 -2662 1734 0
-2618 -2663 1735 0
-2618 -2664 1736 0
-2618 -2665 1737 0
-2618 -2666 1738 0
-2618 -2667 1739 0
-2618 -2668 1740 0
-2618 -2669 1741 0
-2618 -2670 1742 0
-2618 -2671 1743 0
-2618 -2672 1744 0
-2618 -2673 1745 0
-2618 -2674 1746 0
-2618 -2675 1747 0
-2618 -2676 1748 0
-2618 -2677 1749 0
-2618 -2678 1750 0
-2618 -2679 1751 0
-2618 -2680 1752 0
-2618 -2681 1753 0
-2618 -2682 1754 0
-2618 -2683 1755 0
-2618 -2684 1756 0
-2618 -2685 1757 0
-2618 -2686 1758 0
-2618 -2687 1759 0
-2618 -2688 1760 0
-2619 -2631 1704 0
-2619 -2632 1705 0
-2619 -2633 1706 0
-2619 -2634 1707 0
-2619 -2635 1708 0
-2619 -2636 1709 0
-2619 -2637 1710 0
-2619 -2638 1711 0
-2619 -2639 1712 0
-2619 -2640 1713 0
-2619 -2641 1714 0
-2619 -2642 1715 0
-2619 -2643 1716 0
-2619 -2644 1717 0
-2619 -2645 1718 0
-2619 -2646 1719 0
-2619 -2647 1720 0
-2619 -2648 1721 0
-2619 -2649 1722 0
-2619 -2650 1723 0
-2619 -2651 1724 0
-2619 -2652 1725 0
-2619 -2653 1726 0
-2619 -2654 1727 0
-2619 -2655 1728 0
-2619 -2656 1729 0
-2619 -2657 1730 0
-2619 -2658 1731 0
-2619 -2659 1732 0
-2619 -2660 1733 0
-2619 -2661 1734 0
-2619 -2662 1735 0
-2619 -2663 1736 0
-2619 -2664 1737 0
-2619 -2665 1738 0
-2619 -2666 1739 0
-2619 -2667 1740 0
-2619 -2668 1741 0
-2619 -2669 1742 0
-2619 -2670 1743 0
-2619 -2671 1744 0
-2619 -2672 1745 0
-2619 -2673 1746 0
-2619 -2674 1747 0
-2619 -2675 1748 0
-2619 -2676 1749 0
-2619 -2677 1750 0
-2619 -2678 1751 0
-2619 -2679 1752 0
-2619 -2680 1753 0
-2619 -2681 1754 0
-2619 -2682 1755 0
-2619 -2683 1756 0
-2619 -2684 1757 0
-2619 -2685 1758 0
-2619 -2686 1759 0
-2619 -2687 1760 0
-2619 -2688 1761 0
-2620 -2631 1705 0
-2620 -2632 1706 0
-2620 -2633 1707 0
-2620 -2634 1708 0
-2620 -2635 1709 0
-2620 -2636 1710 0
-2620 -2637 1711 0
-2620 -2638 1712 0
-2620 -2639 1713 0
-2620 -2640 1714 0
-2620 -2641 1715 0
-2620 -2642 1716 0
-2620 -2643 1717 0
-2620 -2644 1718 0
-2620 -2645 1719 0
-2620 -2646 1720 0
-2620 -2647 1721 0
-2620 -2648 1722 0
-2620 -2649 1723 0
-2620 -2650 1724 0
-2620 -2651 1725 0
-2620 -2652 1726 0
-2620 -2653 1727 0
-2620 -2654 1728 0
-2620 -2655 1729 0
-2620 -2656 1730 0
-2620 -2657 1731 0
-2620 -2658 1732 0
-2620 -2659 1733 0
-2620 -2660 1734 0
-2620 -2661 1735 0
-2620 -2662 1736 0
-2620 -2663 1737 0
-2620 -2664 1738 0
-2620 -2665 1739 0
-2620 -2666 1740 0
-2620 -2667 1741 0
-2620 -2668 1742 0
-2620 -2669 1743 0
-2620 -2670 1744 0
-2620 -2671 1745 0
-2620 -2672 1746 0
-2620 -2673 1747 0
-2620 -2674 1748 0
-2620 -2675 1749 0
-2620 -2676 1750 0
-2620 -2677 1751 0
-2620 -2678 1752 0
-2620 -2679 1753 0
-2620 -2680 1754 0
-2620 -2681 1755 0
-2620 -2682 1756 0
-2620 -2683 1757 0
-2620 -2684 1758 0
-2620 -2685 1759 0
-2620 -2686 1760 0
-2620 -2687 1761 0
-2620 -2688 1762 0
-2621 -2631 1706 0
-2621 -2632 1707 0
-2621 -2633 1708 0
-2621 -2634 1709 0
-2621 -2635 1710 0
-2621 -2636 1711 0
-2621 -2637 1712 0
-2621 -2638 1713 0
-2621 -2639 1714 0
-2621 -2640 1715 0
-2621 -2641 1716 0
-2621 -2642 1717 0
-2621 -2643 1718 0
-2621 -2644 1719 0
-2621 -2645 1720 0
-2621 -2646 1721 0
-2621 -2647 1722 0
-2621 -2648 1723 0
-2621 -2649 1724 0
-2621 -2650 1725 0
-2621 -2651 1726 0
-2621 -2652 1727 0
-2621 -2653 1728 0
-2621 -2654 1729 0
-2621 -2655 1730 0
-2621 -2656 1731 0
-2621 -2657 1732 0
-2621 -2658 1733 0
-2621 -2659 1734 0
-2621 -2660 1735 0
-2621 -2661 1736 0
-2621 -2662 1737 0
-2621 -2663 1738 0
-2621 -2664 1739 0
-2621 -2665 1740 0
-2621 -2666 1741 0
-2621 -2667 1742 0
-2621 -2668 1743 0
-2621 -2669 1744 0
-2621 -2670 1745 0
-2621 -2671 1746 0
-2621 -2672 1747 0
-2621 -2673 1748 0
-2621 -2674 1749 0
-2621 -2675 1750 0
-2621 -2676 1751 0
-2621 -2677 1752 0
-2621 -2678 1753 0
-2621 -2679 1754 0
-2621 -2680 1755 0
-2621 -2681 1756 0
-2621 -2682 1757 0
-2621 -2683 1758 0
-2621 -2684 1759 0
-2621 -2685 1760 0
-2621 -2686 1761 0
-2621 -2687 1762 0
-2621 -2688 1763 0
-2622 -2631 1707 0
-2622 -2632 1708 0
-2622 -2633 1709 0
-2622 -2634 1710 0
-2622 -2635 1711 0
-2622 -2636 1712 0
-2622 -2637 1713 0
-2622 -2638 1714 0
-2622 -2639 1715 0
-2622 -2640 1716 0
-2622 -2641 1717 0
-2622 -2642 1718 0
-2622 -2643 1719 0
-2622 -2644 1720 0
-2622 -2645 1721 0
-2622 -2646 1722 0
-2622 -2647 1723 0
-2622 -2648 1724 0
-2622 -2649 1725 0
-2622 -2650 1726 0
-2622 -2651 1727 0
-2622 -2652 1728 0
-2622 -2653 1729 0
-2622 -2654 1730 0
-2622 -2655 1731 0
-2622 -2656 1732 0
-2622 -2657 1733 0
-2622 -2658 1734 0
-2622 -2659 1735 0
-2622 -2660 1736 0
-2622 -2661 1737 0
-2622 -2662 1738 0
-2622 -2663 1739 0
-2622 -2664 1740 0
-2622 -2665 1741 0
-2622 -2666 1742 0
-2622 -2667 1743 0
-2622 -2668 1744 0
-2622 -2669 1745 0
-2622 -2670 1746 0
-2622 -2671 1747 0
-2622 -2672 1748 0
-2622 -2673 1749 0
-2622 -2674 1750 0
-2622 -2675 1751 0
-2622 -2676 1752 0
-2622 -2677 1753 0
-2622 -2678 1754 0
-2622 -2679 1755 0
-2622 -2680 1756 0
-2622 -2681 1757 0
-2622 -2682 1758 0
-2622 -2683 1759 0
-2622 -2684 1760 0
-2622 -2685 1761 0
-2622 -2686 1762 0
-2622 -2687 1763 0
-2622 -2688 1764 0
-2623 -2631 1708 0
-2623 -2632 1709 0
-2623 -2633 1710 0
-2623 -2634 1711 0
-2623 -2635 1712 0
-2623 -2636 1713 0
-2623 -2637 1714 0
-2623 -2638 1715 0
-2623 -2639 1716 0
-2623 -2640 1717 0
-2623 -2641 1718 0
-2623 -2642 1719 0
-2623 -2643 1720 0
-2623 -2644 1721 0
-2623 -2645 1722 0
-2623 -2646 1723 0
-2623 -2647 1724 0
-2623 -2648 1725 0
-2623 -2649 1726 0
-2623 -2650 1727 0
-2623 -2651 1728 0
-2623 -2652 1729 0
-2623 -2653 1730 0
-2623 -2654 1731 0
-2623 -2655 1732 0
-2623 -2656 1733 0
-2623 -2657 1734 0
-2623 -2658 1735 0
-2623 -2659 1736 0
-2623 -2660 1737 0
-2623 -2661 1738 0
-2623 -2662 1739 0
-2623 -2663 1740 0
-2623 -2664 1741 0
-2623 -2665 1742 0
-2623 -2666 1743 0
-2623 -2667 1744 0
-2623 -2668 1745 0
-2623 -2669 1746 0
-2623 -2670 1747 0
-2623 -2671 1748 0
-2623 -2672 1749 0
-2623 -2673 1750 0
-2623 -2674 1751 0
-2623 -2675 1752 0
-2623 -2676 1753 0
-2623 -2677 1754 0
-2623 -2678 1755 0
-2623 -2679 1756 0
-2623 -2680 1757 0
-2623 -2681 1758 0
-2623 -2682 1759 0
-2623 -2683 1760 0
-2623 -2684 1761 0
-2623 -2685 1762 0
-2623 -2686 1763 0
-2623 -2687 1764 0
-2623 -2688 1765 0
-2624 -2631 1709 0
-2624 -2632 1710 0
-2624 -2633 1711 0
-2624 -2634 1712 0
-2624 -2635 1713 0
-2624 -2636 1714 0
-2624 -2637 1715 0
-2624 -2638 1716 0
-2624 -2639 1717 0
-2624 -2640 1718 0
-2624 -2641 1719 0
-2624 -2642 1720 0
-2624 -2643 1721 0
-2624 -2644 1722 0
-2624 -2645 1723 0
-2624 -2646 1724 0
-2624 -2647 1725 0
-2624 -2648 1726 0
-2624 -2649 1727 0
-2624 -2650 1728 0
-2624 -2651 1729 0
-2624 -2652 1730 0
-2624 -2653 1731 0
-2624 -2654 1732 0
-2624 -2655 1733 0
-2624 -2656 1734 0
-2624 -2657 1735 0
-2624 -2658 1736 0
-2624 -2659 1737 0
-2624 -2660 1738 0
-2624 -2661 1739 0
-2624 -2662 1740 0
-2624 -2663 1741 0
-2624 -2664 1742 0
-2624 -2665 1743 0
-2624 -2666 1744 0
-2624 -2667 1745 0
-2624 -2668 1746 0
-2624 -2669 1747 0
-2624 -2670 1748 0
-2624 -2671 1749 0
-2624 -2672 1750 0
-2624 -2673 1751 0
-2624 -2674 1752 0
-2624 -2675 1753 0
-2624 -2676 1754 0
-2624 -2677 1755 0
-2624 -2678 1756 0
-2624 -2679 1757 0
-2624 -2680 1758 0
-2624 -2681 1759 0
-2624 -2682 1760 0
-2624 -2683 1761 0
-2624 -2684 1762 0
-2624 -2685 1763 0
-2624 -2686 1764 0
-2624 -2687 1765 0
-2624 -2688 1766 0
-2625 -2631 1710 0
-2625 -2632 1711 0
-2625 -2633 1712 0
-2625 -2634 1713 0
-2625 -2635 1714 0
-2625 -2636 1715 0
-2625 -2637 1716 0
-2625 -2638 1717 0
-2625 -2639 1718 0
-2625 -2640 1719 0
-2625 -2641 1720 0
-2625 -2642 1721 0
-2625 -2643 1722 0
-2625 -2644 1723 0
-2625 -2645 1724 0
-2625 -2646 1725 0
-2625 -2647 1726 0
-2625 -2648 1727 0
-2625 -2649 1728 0
-2625 -2650 1729 0
-2625 -2651 1730 0
-2625 -2652 1731 0
-2625 -2653 1732 0
-2625 -2654 1733 0
-2625 -2655 1734 0
-2625 -2656 1735 0
-2625 -2657 1736 0
-2625 -2658 1737 0
-2625 -2659 1738 0
-2625 -2660 1739 0
-2625 -2661 1740 0
-2625 -2662 1741 0
-2625 -2663 1742 0
-2625 -2664 1743 0
-2625 -2665 1744 0
-2625 -2666 1745 0
-2625 -2667 1746 0
-2625 -2668 1747 0
-2625 -2669 1748 0
-2625 -2670 1749 0
-2625 -2671 1750 0
-2625 -2672 1751 0
-2625 -2673 1752 0
-2625 -2674 1753 0
-2625 -2675 1754 0
-2625 -2676 1755 0
-2625 -2677 1756 0
-2625 -2678 1757 0
-2625 -2679 1758 0
-2625 -2680 1759 0
-2625 -2681 1760 0
-2625 -2682 1761 0
-2625 -2683 1762 0
-2625 -2684 1763 0
-2625 -2685 1764 0
-2625 -2686 1765 0
-2625 -2687 1766 0
-2625 -2688 1767 0
-2626 -2631 1711 0
-2626 -2632 1712 0
-2626 -2633 1713 0
-2626 -2634 1714 0
-2626 -2635 1715 0
-2626 -2636 1716 0
-2626 -2637 1717 0
-2626 -2638 1718 0
-2626 -2639 1719 0
-2626 -2640 1720 0
-2626 -2641 1721 0
-2626 -2642 1722 0
-2626 -2643 1723 0
-2626 -2644 1724 0
-2626 -2645 1725 0
-2626 -2646 1726 0
-2626 -2647 1727 0
-2626 -2648 1728 0
-2626 -2649 1729 0
-2626 -2650 1730 0
-2626 -2651 1731 0
-2626 -2652 1732 0
-2626 -2653 1733 0
-2626 -2654 1734 0
-2626 -2655 1735 0
-2626 -2656 1736 0
-2626 -2657 1737 0
-2626 -2658 1738 0
-2626 -2659 1739 0
-2626 -2660 1740 0
-2626 -2661 1741 0
-2626 -2662 1742 0
-2626 -2663 1743 0
-2626 -2664 1744 0
-2626 -2665 1745 0
-2626 -2666 1746 0
-2626 -2667 1747 0
-2626 -2668 1748 0
-2626 -2669 1749 0
-2626 -2670 1750 0
-2626 -2671 1751 0
-2626 -2672 1752 0
-2626 -2673 1753 0
-2626 -2674 1754 0
-2626 -2675 1755 0
-2626 -2676 1756 0
-2626 -2677 1757 0
-2626 -2678 1758 0
-2626 -2679 1759 0
-2626 -2680 1760 0
-2626 -2681 1761 0
-2626 -2682 1762 0
-2626 -2683 1763 0
-2626 -2684 1764 0
-2626 -2685 1765 0
-2626 -2686 1766 0
-2626 -2687 1767 0
-2626 -2688 1768 0
-2627 -2631 1712 0
-2627 -2632 1713 0
-2627 -2633 1714 0
-2627 -2634 1715 0
-2627 -2635 1716 0
-2627 -2636 1717 0
-2627 -2637 1718 0
-2627 -2638 1719 0
-2627 -2639 1720 0
-2627 -2640 1721 0
-2627 -2641 1722 0
-2627 -2642 1723 0
-2627 -2643 1724 0
-2627 -2644 1725 0
-2627 -2645 1726 0
-2627 -2646 1727 0
-2627 -2647 1728 0
-2627 -2648 1729 0
-2627 -2649 1730 0
-2627 -2650 1731 0
-2627 -2651 1732 0
-2627 -2652 1733 0
-2627 -2653 1734 0
-2627 -2654 1735 0
-2627 -2655 1736 0
-2627 -2656 1737 0
-2627 -2657 1738 0
-2627 -2658 1739 0
-2627 -2659 1740 0
-2627 -2660 1741 0
-2627 -2661 1742 0
-2627 -2662 1743 0
-2627 -2663 1744 0
-2627 -2664 1745 0
-2627 -2665 1746 0
-2627 -2666 1747 0
-2627 -2667 1748 0
-2627 -2668 1749 0
-2627 -2669 1750 0
-2627 -2670 1751 0
-2627 -2671 1752 0
-2627 -2672 1753 0
-2627 -2673 1754 0
-2627 -2674 1755 0
-2627 -2675 1756 0
-2627 -2676 1757 0
-2627 -2677 1758 0
-2627 -2678 1759 0
-2627 -2679 1760 0
-2627 -2680 1761 0
-2627 -2681 1762 0
-2627 -2682 1763 0
-2627 -2683 1764 0
-2627 -2684 1765 0
-2627 -2685 1766 0
-2627 -2686 1767 0
-2627 -2687 1768 0
-2627 -2688 1769 0
-2628 -2631 1713 0
-2628 -2632 1714 0
-2628 -2633 1715 0
-2628 -2634 1716 0
-2628 -2635 1717 0
-2628 -2636 1718 0
-2628 -2637 1719 0
-2628 -2638 1720 0
-2628 -2639 1721 0
-2628 -2640 1722 0
-2628 -2641 1723 0
-2628 -2642 1724 0
-2628 -2643 1725 0
-2628 -2644 1726 0
-2628 -2645 1727 0
-2628 -2646 1728 0
-2628 -2647 1729 0
-2628 -2648 1730 0
-2628 -2649 1731 0
-2628 -2650 1732 0
-2628 -2651 1733 0
-2628 -2652 1734 0
-2628 -2653 1735 0
-2628 -2654 1736 0
-2628 -2655 1737 0
-2628 -2656 1738 0
-2628 -2657 1739 0
-2628 -2658 1740 0
-2628 -2659 1741 0
-2628 -2660 1742 0
-2628 -2661 1743 0
-2628 -2662 1744 0
-2628 -2663 1745 0
-2628 -2664 1746 0
-2628 -2665 1747 0
-2628 -2666 1748 0
-2628 -2667 1749 0
-2628 -2668 1750 0
-2628 -2669 1751 0
-2628 -2670 1752 0
-2628 -2671 1753 0
-2628 -2672 1754 0
-2628 -2673 1755 0
-2628 -2674 1756 0
-2628 -2675 1757 0
-2628 -2676 1758 0
-2628 -2677 1759 0
-2628 -2678 1760 0
-2628 -2679 1761 0
-2628 -2680 1762 0
-2628 -2681 1763 0
-2628 -2682 1764 0
-2628 -2683 1765 0
-2628 -2684 1766 0
-2628 -2685 1767 0
-2628 -2686 1768 0
-2628 -2687 1769 0
-2628 -2688 1770 0
-2629 -2631 1714 0
-2629 -2632 1715 0
-2629 -2633 1716 0
-2629 -2634 1717 0
-2629 -2635 1718 0
-2629 -2636 1719 0
-2629 -2637 1720 0
-2629 -2638 1721 0
-2629 -2639 1722 0
-2629 -2640 1723 0
-2629 -2641 1724 0
-2629 -2642 1725 0
-2629 -2643 1726 0
-2629 -2644 1727 0
-2629 -2645 1728 0
-2629 -2646 1729 0
-2629 -2647 1730 0
-2629 -2648 1731 0
-2629 -2649 1732 0
-2629 -2650 1733 0
-2629 -2651 1734 0
-2629 -2652 1735 0
-2629 -2653 1736 0
-2629 -2654 1737 0
-2629 -2655 1738 0
-2629 -2656 1739 0
-2629 -2657 1740 0
-2629 -2658 1741 0
-2629 -2659 1742 0
-2629 -2660 1743 0
-2629 -2661 1744 0
-2629 -2662 1745 0
-2629 -2663 1746 0
-2629 -2664 1747 0
-2629 -2665 1748 0
-2629 -2666 1749 0
-2629 -2667 1750 0
-2629 -2668 1751 0
-2629 -2669 1752 0
-2629 -2670 1753 0
-2629 -2671 1754 0
-2629 -2672 1755 0
-2629 -2673 1756 0
-2629 -2674 1757 0
-2629 -2675 1758 0
-2629 -2676 1759 0
-2629 -2677 1760 0
-2629 -2678 1761 0
-2629 -2679 1762 0
-2629 -2680 1763 0
-2629 -2681 1764 0
-2629 -2682 1765 0
-2629 -2683 1766 0
-2629 -2684 1767 0
-2629 -2685 1768 0
-2629 -2686 1769 0
-2629 -2687 1770 0
-2629 -2688 1771 0
-2630 -2631 1715 0
-2630 -2632 1716 0
-2630 -2633 1717 0
-2630 -2634 1718 0
-2630 -2635 1719 0
-2630 -2636 1720 0
-2630 -2637 1721 0
-2630 -2638 1722 0
-2630 -2639 1723 0
-2630 -2640 1724 0
-2630 -2641 1725 0
-2630 -2642 1726 0
-2630 -2643 1727 0
-2630 -2644 1728 0
-2630 -2645 1729 0
-2630 -2646 1730 0
-2630 -2647 1731 0
-2630 -2648 1732 0
-2630 -2649 1733 0
-2630 -2650 1734 0
-2630 -2651 1735 0
-2630 -2652 1736 0
-2630 -2653 1737 0
-2630 -2654 1738 0
-2630 -2655 1739 0
-2630 -2656 1740 0
-2630 -2657 1741 0
-2630 -2658 1742 0
-2630 -2659 1743 0
-2630 -2660 1744 0
-2630 -2661 1745 0
-2630 -2662 1746 0
-2630 -2663 1747 0
-2630 -2664 1748 0
-2630 -2665 1749 0
-2630 -2666 1750 0
-2630 -2667 1751 0
-2630 -2668 1752 0
-2630 -2669 1753 0
-2630 -2670 1754 0
-2630 -2671 1755 0
-2630 -2672 1756 0
-2630 -2673 1757 0
-2630 -2674 1758 0
-2630 -2675 1759 0
-2630 -2676 1760 0
-2630 -2677 1761 0
-2630 -2678 1762 0
-2630 -2679 1763 0
-2630 -2680 1764 0
-2630 -2681 1765 0
-2630 -2682 1766 0
-2630 -2683 1767 0
-2630 -2684 1768 0
-2630 -2685 1769 0
-2630 -2686 1770 0
-2630 -2687 1771 0
-2630 -2688 1772 0
-2718 2631 0
-2719 2632 0
-2720 2633 0
-2721 2634 0
-2722 2635 0
-2723 2636 0
-2724 2637 0
-2725 2638 0
-2726 2639 0
-2727 2640 0
-2728 2641 0
-2729 2642 0
-2730 2643 0
-2731 2644 0
-2732 2645 0
-2733 2646 0
-2734 2647 0
-2735 2648 0
-2736 2649 0
-2737 2650 0
-2738 2651 0
-2739 2652 0
-2740 2653 0
-2741 2654 0
-2742 2655 0
-2743 2656 0
-2744 2657 0
-2745 2658 0
-2746 2659 0
-2689 2631 0
-2690 2632 0
-2691 2633 0
-2692 2634 0
-2693 2635 0
-2694 2636 0
-2695 2637 0
-2696 2638 0
-2697 2639 0
-2698 2640 0
-2699 2641 0
-2700 2642 0
-2701 2643 0
-2702 2644 0
-2703 2645 0
-2704 2646 0
-2705 2647 0
-2706 2648 0
-2707 2649 0
-2708 2650 0
-2709 2651 0
-2710 2652 0
-2711 2653 0
-2712 2654 0
-2713 2655 0
-2714 2656 0
-2715 2657 0
-2716 2658 0
-2717 2659 0
-2689 -2718 2632 0
-2689 -2719 2633 0
-2689 -2720 2634 0
-2689 -2721 2635 0
-2689 -2722 2636 0
-2689 -2723 2637 0
-2689 -2724 2638 0
-2689 -2725 2639 0
-2689 -2726 2640 0
-2689 -2727 2641 0
-2689 -2728 2642 0
-2689 -2729 2643 0
-2689 -2730 2644 0
-2689 -2731 2645 0
-2689 -2732 2646 0
-2689 -2733 2647 0
-2689 -2734 2648 0
-2689 -2735 2649 0
-2689 -2736 2650 0
-2689 -2737 2651 0
-2689 -2738 2652 0
-2689 -2739 2653 0
-2689 -2740 2654 0
-2689 -2741 2655 0
-2689 -2742 2656 0
-2689 -2743 2657 0
-2689 -2744 2658 0
-2689 -2745 2659 0
-2689 -2746 2660 0
-2690 -2718 2633 0
-2690 -2719 2634 0
-2690 -2720 2635 0
-2690 -2721 2636 0
-2690 -2722 2637 0
-2690 -2723 2638 0
-2690 -2724 2639 0
-2690 -2725 2640 0
-2690 -2726 2641 0
-2690 -2727 2642 0
-2690 -2728 2643 0
-2690 -2729 2644 0
-2690 -2730 2645 0
-2690 -2731 2646 0
-2690 -2732 2647 0
-2690 -2733 2648 0
-2690 -2734 2649 0
-2690 -2735 2650 0
-2690 -2736 2651 0
-2690 -2737 2652 0
-2690 -2738 2653 0
-2690 -2739 2654 0
-2690 -2740 2655 0
-2690 -2741 2656 0
-2690 -2742 2657 0
-2690 -2743 2658 0
-2690 -2744 2659 0
-2690 -2745 2660 0
-2690 -2746 2661 0
-2691 -2718 2634 0
-2691 -2719 2635 0
-2691 -2720 2636 0
-2691 -2721 2637 0
-2691 -2722 2638 0
-2691 -2723 2639 0
-2691 -2724 2640 0
-2691 -2725 2641 0
-2691 -2726 2642 0
-2691 -2727 2643 0
-2691 -2728 2644 0
-2691 -2729 2645 0
-2691 -2730 2646 0
-2691 -2731 2647 0
-2691 -2732 2648 0
-2691 -2733 2649 0
-2691 -2734 2650 0
-2691 -2735 2651 0
-2691 -2736 2652 0
-2691 -2737 2653 0
-2691 -2738 2654 0
-2691 -2739 2655 0
-2691 -2740 2656 0
-2691 -2741 2657 0
-2691 -2742 2658 0
-2691 -2743 2659 0
-2691 -2744 2660 0
-2691 -2745 2661 0
-2691 -2746 2662 0
-2692 -2718 2635 0
-2692 -2719 2636 0
-2692 -2720 2637 0
-2692 -2721 2638 0
-2692 -2722 2639 0
-2692 -2723 2640 0
-2692 -2724 2641 0
-2692 -2725 2642 0
-2692 -2726 2643 0
-2692 -2727 2644 0
-2692 -2728 2645 0
-2692 -2729 2646 0
-2692 -2730 2647 0
-2692 -2731 2648 0
-2692 -2732 2649 0
-2692 -2733 2650 0
-2692 -2734 2651 0
-2692 -2735 2652 0
-2692 -2736 2653 0
-2692 -2737 2654 0
-2692 -2738 2655 0
-2692 -2739 2656 0
-2692 -2740 2657 0
-2692 -2741 2658 0
-2692 -2742 2659 0
-2692 -2743 2660 0
-2692 -2744 2661 0
-2692 -2745 2662 0
-2692 -2746 2663 0
-2693 -2718 2636 0
-2693 -2719 2637 0
-2693 -2720 2638 0
-2693 -2721 2639 0
-2693 -2722 2640 0
-2693 -2723 2641 0
-2693 -2724 2642 0
-2693 -2725 2643 0
-2693 -2726 2644 0
-2693 -2727 2645 0
-2693 -2728 2646 0
-2693 -2729 2647 0
-2693 -2730 2648 0
-2693 -2731 2649 0
-2693 -2732 2650 0
-2693 -2733 2651 0
-2693 -2734 2652 0
-2693 -2735 2653 0
-2693 -2736 2654 0
-2693 -2737 2655 0
-2693 -2738 2656 0
-2693 -2739 2657 0
-2693 -2740 2658 0
-2693 -2741 2659 0
-2693 -2742 2660 0
-2693 -2743 2661 0
-2693 -2744 2662 0
-2693 -2745 2663 0
-2693 -2746 2664 0
-2694 -2718 2637 0
-2694 -2719 2638 0
-2694 -2720 2639 0
-2694 -2721 2640 0
-2694 -2722 2641 0
-2694 -2723 2642 0
-2694 -2724 2643 0
-2694 -2725 2644 0
-2694 -2726 2645 0
-2694 -2727 2646 0
-2694 -2728 2647 0
-2694 -2729 2648 0
-2694 -2730 2649 0
-2694 -2731 2650 0
-2694 -2732 2651 0
-2694 -2733 2652 0
-2694 -2734 2653 0
-2694 -2735 2654 0
-2694 -2736 2655 0
-2694 -2737 2656 0
-2694 -2738 2657 0
-2694 -2739 2658 0
-2694 -2740 2659 0
-2694 -2741 2660 0
-2694 -2742 2661 0
-2694 -2743 2662 0
-2694 -2744 2663 0
-2694 -2745 2664 0
-2694 -2746 2665 0
-2695 -2718 2638 0
-2695 -2719 2639 0
-2695 -2720 2640 0
-2695 -2721 2641 0
-2695 -2722 2642 0
-2695 -2723 2643 0
-2695 -2724 2644 0
-2695 -2725 2645 0
-2695 -2726 2646 0
-2695 -2727 2647 0
-2695 -2728 2648 0
-2695 -2729 2649 0
-2695 -2730 2650 0
-2695 -2731 2651 0
-2695 -2732 2652 0
-2695 -2733 2653 0
-2695 -2734 2654 0
-2695 -2735 2655 0
-2695 -2736 2656 0
-2695 -2737 2657 0
-2695 -2738 2658 0
-2695 -2739 2659 0
-2695 -2740 2660 0
-2695 -2741 2661 0
-2695 -2742 2662 0
-2695 -2743 2663 0
-2695 -2744 2664 0
-2695 -2745 2665 0
-2695 -2746 2666 0
-2696 -2718 2639 0
-2696 -2719 2640 0
-2696 -2720 2641 0
-2696 -2721 2642 0
-2696 -2722 2643 0
-2696 -2723 2644 0
-2696 -2724 2645 0
-2696 -2725 2646 0
-2696 -2726 2647 0
-2696 -2727 2648 0
-2696 -2728 2649 0
-2696 -2729 2650 0
-2696 -2730 2651 0
-2696 -2731 2652 0
-2696 -2732 2653 0
-2696 -2733 2654 0
-2696 -2734 2655 0
-2696 -2735 2656 0
-2696 -2736 2657 0
-2696 -2737 2658 0
-2696 -2738 2659 0
-2696 -2739 2660 0
-2696 -2740 2661 0
-2696 -2741 2662 0
-2696 -2742 2663 0
-2696 -2743 2664 0
-2696 -2744 2665 0
-2696 -2745 2666 0
-2696 -2746 2667 0
-2697 -2718 2640 0
-2697 -2719 2641 0
-2697 -2720 2642 0
-2697 -2721 2643 0
-2697 -2722 2644 0
-2697 -2723 2645 0
-2697 -2724 2646 0
-2697 -2725 2647 0
-2697 -2726 2648 0
-2697 -2727 2649 0
-2697 -2728 2650 0
-2697 -2729 2651 0
-2697 -2730 2652 0
-2697 -2731 2653 0
-2697 -2732 2654 0
-2697 -2733 2655 0
-2697 -2734 2656 0
-2697 -2735 2657 0
-2697 -2736 2658 0
-2697 -2737 2659 0
-2697 -2738 2660 0
-2697 -2739 2661 0
-2697 -2740 2662 0
-2697 -2741 2663 0
-2697 -2742 2664 0
-2697 -2743 2665 0
-2697 -2744 2666 0
-2697 -2745 2667 0
-2697 -2746 2668 0
-2698 -2718 2641 0
-2698 -2719 2642 0
-2698 -2720 2643 0
-2698 -2721 2644 0
-2698 -2722 2645 0
-2698 -2723 2646 0
-2698 -2724 2647 0
-2698 -2725 2648 0
-2698 -2726 2649 0
-2698 -2727 2650 0
-2698 -2728 2651 0
-2698 -2729 2652 0
-2698 -2730 2653 0
-2698 -2731 2654 0
-2698 -2732 2655 0
-2698 -2733 2656 0
-2698 -2734 2657 0
-2698 -2735 2658 0
-2698 -2736 2659 0
-2698 -2737 2660 0
-2698 -2738 2661 0
-2698 -2739 2662 0
-2698 -2740 2663 0
-2698 -2741 2664 0
-2698 -2742 2665 0
-2698 -2743 2666 0
-2698 -2744 2667 0
-2698 -2745 2668 0
-2698 -2746 2669 0
-2699 -2718 2642 0
-2699 -2719 2643 0
-2699 -2720 2644 0
-2699 -2721 2645 0
-2699 -2722 2646 0
-2699 -2723 2647 0
-2699 -2724 2648 0
-2699 -2725 2649 0
-2699 -2726 2650 0
-2699 -2727 2651 0
-2699 -2728 2652 0
-2699 -2729 2653 0
-2699 -2730 2654 0
-2699 -2731 2655 0
-2699 -2732 2656 0
-2699 -2733 2657 0
-2699 -2734 2658 0
-2699 -2735 2659 0
-2699 -2736 2660 0
-2699 -2737 2661 0
-2699 -2738 2662 0
-2699 -2739 2663 0
-2699 -2740 2664 0
-2699 -2741 2665 0
-2699 -2742 2666 0
-2699 -2743 2667 0
-2699 -2744 2668 0
-2699 -2745 2669 0
-2699 -2746 2670 0
-2700 -2718 2643 0
-2700 -2719 2644 0
-2700 -2720 2645 0
-2700 -2721 2646 0
-2700 -2722 2647 0
-2700 -2723 2648 0
-2700 -2724 2649 0
-2700 -2725 2650 0
-2700 -2726 2651 0
-2700 -2727 2652 0
-2700 -2728 2653 0
-2700 -2729 2654 0
-2700 -2730 2655 0
-2700 -2731 2656 0
-2700 -2732 2657 0
-2700 -2733 2658 0
-2700 -2734 2659 0
-2700 -2735 2660 0
-2700 -2736 2661 0
-2700 -2737 2662 0
-2700 -2738 2663 0
-2700 -2739 2664 0
-2700 -2740 2665 0
-2700 -2741 2666 0
-2700 -2742 2667 0
-2700 -2743 2668 0
-2700 -2744 2669 0
-2700 -2745 2670 0
-2700 -2746 2671 0
-2701 -2718 2644 0
-2701 -2719 2645 0
-2701 -2720 2646 0
-2701 -2721 2647 0
-2701 -2722 2648 0
-2701 -2723 2649 0
-2701 -2724 2650 0
-2701 -2725 2651 0
-2701 -2726 2652 0
-2701 -2727 2653 0
-2701 -2728 2654 0
-2701 -2729 2655 0
-2701 -2730 2656 0
-2701 -2731 2657 0
-2701 -2732 2658 0
-2701 -2733 2659 0
-2701 -2734 2660 0
-2701 -2735 2661 0
-2701 -2736 2662 0
-2701 -2737 2663 0
-2701 -2738 2664 0
-2701 -2739 2665 0
-2701 -2740 2666 0
-2701 -2741 2667 0
-2701 -2742 2668 0
-2701 -2743 2669 0
-2701 -2744 2670 0
-2701 -2745 2671 0
-2701 -2746 2672 0
-2702 -2718 2645 0
-2702 -2719 2646 0
-2702 -2720 2647 0
-2702 -2721 2648 0
-2702 -2722 2649 0
-2702 -2723 2650 0
-2702 -2724 2651 0
-2702 -2725 2652 0
-2702 -2726 2653 0
-2702 -2727 2654 0
-2702 -2728 2655 0
-2702 -2729 2656 0
-2702 -2730 2657 0
-2702 -2731 2658 0
-2702 -2732 2659 0
-2702 -2733 2660 0
-2702 -2734 2661 0
-2702 -2735 2662 0
-2702 -2736 2663 0
-2702 -2737 2664 0
-2702 -2738 2665 0
-2702 -2739 2666 0
-2702 -2740 2667 0
-2702 -2741 2668 0
-2702 -2742 2669 0
-2702 -2743 2670 0
-2702 -2744 2671 0
-2702 -2745 2672 0
-2702 -2746 2673 0
-2703 -2718 2646 0
-2703 -2719 2647 0
-2703 -2720 2648 0
-2703 -2721 2649 0
-2703 -2722 2650 0
-2703 -2723 2651 0
-2703 -2724 2652 0
-2703 -2725 2653 0
-2703 -2726 2654 0
-2703 -2727 2655 0
-2703 -2728 2656 0
-2703 -2729 2657 0
-2703 -2730 2658 0
-2703 -2731 2659 0
-2703 -2732 2660 0
-2703 -2733 2661 0
-2703 -2734 2662 0
-2703 -2735 2663 0
-2703 -2736 2664 0
-2703 -2737 2665 0
-2703 -2738 2666 0
-2703 -2739 2667 0
-2703 -2740 2668 0
-2703 -2741 2669 0
-2703 -2742 2670 0
-2703 -2743 2671 0
-2703 -2744 2672 0
-2703 -2745 2673 0
-2703 -2746 2674 0
-2704 -2718 2647 0
-2704 -2719 2648 0
-2704 -2720 2649 0
-2704 -2721 2650 0
-2704 -2722 2651 0
-2704 -2723 2652 0
-2704 -2724 2653 0
-2704 -2725 2654 0
-2704 -2726 2655 0
-2704 -2727 2656 0
-2704 -2728 2657 0
-2704 -2729 2658 0
-2704 -2730 2659 0
-2704 -2731 2660 0
-2704 -2732 2661 0
-2704 -2733 2662 0
-2704 -2734 2663 0
-2704 -2735 2664 0
-2704 -2736 2665 0
-2704 -2737 2666 0
-2704 -2738 2667 0
-2704 -2739 2668 0
-2704 -2740 2669 0
-2704 -2741 2670 0
-2704 -2742 2671 0
-2704 -2743 2672 0
-2704 -2744 2673 0
-2704 -2745 2674 0
-2704 -2746 2675 0
-2705 -2718 2648 0
-2705 -2719 2649 0
-2705 -2720 2650 0
-2705 -2721 2651 0
-2705 -2722 2652 0
-2705 -2723 2653 0
-2705 -2724 2654 0
-2705 -2725 2655 0
-2705 -2726 2656 0
-2705 -2727 2657 0
-2705 -2728 2658 0
-2705 -2729 2659 0
-2705 -2730 2660 0
-2705 -2731 2661 0
-2705 -2732 2662 0
-2705 -2733 2663 0
-2705 -2734 2664 0
-2705 -2735 2665 0
-2705 -2736 2666 0
-2705 -2737 2667 0
-2705 -2738 2668 0
-2705 -2739 2669 0
-2705 -2740 2670 0
-2705 -2741 2671 0
-2705 -2742 2672 0
-2705 -2743 2673 0
-2705 -2744 2674 0
-2705 -2745 2675 0
-2705 -2746 2676 0
-2706 -2718 2649 0
-2706 -2719 2650 0
-2706 -2720 2651 0
-2706 -2721 2652 0
-2706 -2722 2653 0
-2706 -2723 2654 0
-2706 -2724 2655 0
-2706 -2725 2656 0
-2706 -2726 2657 0
-2706 -2727 2658 0
-2706 -2728 2659 0
-2706 -2729 2660 0
-2706 -2730 2661 0
-2706 -2731 2662 0
-2706 -2732 2663 0
-2706 -2733 2664 0
-2706 -2734 2665 0
-2706 -2735 2666 0
-2706 -2736 2667 0
-2706 -2737 2668 0
-2706 -2738 2669 0
-2706 -2739 2670 0
-2706 -2740 2671 0
-2706 -2741 2672 0
-2706 -2742 2673 0
-2706 -2743 2674 0
-2706 -2744 2675 0
-2706 -2745 2676 0
-2706 -2746 2677 0
-2707 -2718 2650 0
-2707 -2719 2651 0
-2707 -2720 2652 0
-2707 -2721 2653 0
-2707 -2722 2654 0
-2707 -2723 2655 0
-2707 -2724 2656 0
-2707 -2725 2657 0
-2707 -2726 2658 0
-2707 -2727 2659 0
-2707 -2728 2660 0
-2707 -2729 2661 0
-2707 -2730 2662 0
-2707 -2731 2663 0
-2707 -2732 2664 0
-2707 -2733 2665 0
-2707 -2734 2666 0
-2707 -2735 2667 0
-2707 -2736 2668 0
-2707 -2737 2669 0
-2707 -2738 2670 0
-2707 -2739 2671 0
-2707 -2740 2672 0
-2707 -2741 2673 0
-2707 -2742 2674 0
-2707 -2743 2675 0
-2707 -2744 2676 0
-2707 -2745 2677 0
-2707 -2746 2678 0
-2708 -2718 2651 0
-2708 -2719 2652 0
-2708 -2720 2653 0
-2708 -2721 2654 0
-2708 -2722 2655 0
-2708 -2723 2656 0
-2708 -2724 2657 0
-2708 -2725 2658 0
-2708 -2726 2659 0
-2708 -2727 2660 0
-2708 -2728 2661 0
-2708 -2729 2662 0
-2708 -2730 2663 0
-2708 -2731 2664 0
-2708 -2732 2665 0
-2708 -2733 2666 0
-2708 -2734 2667 0
-2708 -2735 2668 0
-2708 -2736 2669 0
-2708 -2737 2670 0
-2708 -2738 2671 0
-2708 -2739 2672 0
-2708 -2740 2673 0
-2708 -2741 2674 0
-2708 -2742 2675 0
-2708 -2743 2676 0
-2708 -2744 2677 0
-2708 -2745 2678 0
-2708 -2746 2679 0
-2709 -2718 2652 0
-2709 -2719 2653 0
-2709 -2720 2654 0
-2709 -2721 2655 0
-2709 -2722 2656 0
-2709 -2723 2657 0
-2709 -2724 2658 0
-2709 -2725 2659 0
-2709 -2726 2660 0
-2709 -2727 2661 0
-2709 -2728 2662 0
-2709 -2729 2663 0
-2709 -2730 2664 0
-2709 -2731 2665 0
-2709 -2732 2666 0
-2709 -2733 2667 0
-2709 -2734 2668 0
-2709 -2735 2669 0
-2709 -2736 2670 0
-2709 -2737 2671 0
-2709 -2738 2672 0
-2709 -2739 2673 0
-2709 -2740 2674 0
-2709 -2741 2675 0
-2709 -2742 2676 0
-2709 -2743 2677 0
-2709 -2744 2678 0
-2709 -2745 2679 0
-2709 -2746 2680 0
-2710 -2718 2653 0
-2710 -2719 2654 0
-2710 -2720 2655 0
-2710 -2721 2656 0
-2710 -2722 2657 0
-2710 -2723 2658 0
-2710 -2724 2659 0
-2710 -2725 2660 0
-2710 -2726 2661 0
-2710 -2727 2662 0
-2710 -2728 2663 0
-2710 -2729 2664 0
-2710 -2730 2665 0
-2710 -2731 2666 0
-2710 -2732 2667 0
-2710 -2733 2668 0
-2710 -2734 2669 0
-2710 -2735 2670 0
-2710 -2736 2671 0
-2710 -2737 2672 0
-2710 -2738 2673 0
-2710 -2739 2674 0
-2710 -2740 2675 0
-2710 -2741 2676 0
-2710 -2742 2677 0
-2710 -2743 2678 0
-2710 -2744 2679 0
-2710 -2745 2680 0
-2710 -2746 2681 0
-2711 -2718 2654 0
-2711 -2719 2655 0
-2711 -2720 2656 0
-2711 -2721 2657 0
-2711 -2722 2658 0
-2711 -2723 2659 0
-2711 -2724 2660 0
-2711 -2725 2661 0
-2711 -2726 2662 0
-2711 -2727 2663 0
-2711 -2728 2664 0
-2711 -2729 2665 0
-2711 -2730 2666 0
-2711 -2731 2667 0
-2711 -2732 2668 0
-2711 -2733 2669 0
-2711 -2734 2670 0
-2711 -2735 2671 0
-2711 -2736 2672 0
-2711 -2737 2673 0
-2711 -2738 2674 0
-2711 -2739 2675 0
-2711 -2740 2676 0
-2711 -2741 2677 0
-2711 -2742 2678 0
-2711 -2743 2679 0
-2711 -2744 2680 0
-2711 -2745 2681 0
-2711 -2746 2682 0
-2712 -2718 2655 0
-2712 -2719 2656 0
-2712 -2720 2657 0
-2712 -2721 2658 0
-2712 -2722 2659 0
-2712 -2723 2660 0
-2712 -2724 2661 0
-2712 -2725 2662 0
-2712 -2726 2663 0
-2712 -2727 2664 0
-2712 -2728 2665 0
-2712 -2729 2666 0
-2712 -2730 2667 0
-2712 -2731 2668 0
-2712 -2732 2669 0
-2712 -2733 2670 0
-2712 -2734 2671 0
-2712 -2735 2672 0
-2712 -2736 2673 0
-2712 -2737 2674 0
-2712 -2738 2675 0
-2712 -2739 2676 0
-2712 -2740 2677 0
-2712 -2741 2678 0
-2712 -2742 2679 0
-2712 -2743 2680 0
-2712 -2744 2681 0
-2712 -2745 2682 0
-2712 -2746 2683 0
-2713 -2718 2656 0
-2713 -2719 2657 0
-2713 -2720 2658 0
-2713 -2721 2659 0
-2713 -2722 2660 0
-2713 -2723 2661 0
-2713 -2724 2662 0
-2713 -2725 2663 0
-2713 -2726 2664 0
-2713 -2727 2665 0
-2713 -2728 2666 0
-2713 -2729 2667 0
-2713 -2730 2668 0
-2713 -2731 2669 0
-2713 -2732 2670 0
-2713 -2733 2671 0
-2713 -2734 2672 0
-2713 -2735 2673 0
-2713 -2736 2674 0
-2713 -2737 2675 0
-2713 -2738 2676 0
-2713 -2739 2677 0
-2713 -2740 2678 0
-2713 -2741 2679 0
-2713 -2742 2680 0
-2713 -2743 2681 0
-2713 -2744 2682 0
-2713 -2745 2683 0
-2713 -2746 2684 0
-2714 -2718 2657 0
-2714 -2719 2658 0
-2714 -2720 2659 0
-2714 -2721 2660 0
-2714 -2722 2661 0
-2714 -2723 2662 0
-2714 -2724 2663 0
-2714 -2725 2664 0
-2714 -2726 2665 0
-2714 -2727 2666 0
-2714 -2728 2667 0
-2714 -2729 2668 0
-2714 -2730 2669 0
-2714 -2731 2670 0
-2714 -2732 2671 0
-2714 -2733 2672 0
-2714 -2734 2673 0
-2714 -2735 2674 0
-2714 -2736 2675 0
-2714 -2737 2676 0
-2714 -2738 2677 0
-2714 -2739 2678 0
-2714 -2740 2679 0
-2714 -2741 2680 0
-2714 -2742 2681 0
-2714 -2743 2682 0
-2714 -2744 2683 0
-2714 -2745 2684 0
-2714 -2746 2685 0
-2715 -2718 2658 0
-2715 -2719 2659 0
-2715 -2720 2660 0
-2715 -2721 2661 0
-2715 -2722 2662 0
-2715 -2723 2663 0
-2715 -2724 2664 0
-2715 -2725 2665 0
-2715 -2726 2666 0
-2715 -2727 2667 0
-2715 -2728 2668 0
-2715 -2729 2669 0
-2715 -2730 2670 0
-2715 -2731 2671 0
-2715 -2732 2672 0
-2715 -2733 2673 0
-2715 -2734 2674 0
-2715 -2735 2675 0
-2715 -2736 2676 0
-2715 -2737 2677 0
-2715 -2738 2678 0
-2715 -2739 2679 0
-2715 -2740 2680 0
-2715 -2741 2681 0
-2715 -2742 2682 0
-2715 -2743 2683 0
-2715 -2744 2684 0
-2715 -2745 2685 0
-2715 -2746 2686 0
-2716 -2718 2659 0
-2716 -2719 2660 0
-2716 -2720 2661 0
-2716 -2721 2662 0
-2716 -2722 2663 0
-2716 -2723 2664 0
-2716 -2724 2665 0
-2716 -2725 2666 0
-2716 -2726 2667 0
-2716 -2727 2668 0
-2716 -2728 2669 0
-2716 -2729 2670 0
-2716 -2730 2671 0
-2716 -2731 2672 0
-2716 -2732 2673 0
-2716 -2733 2674 0
-2716 -2734 2675 0
-2716 -2735 2676 0
-2716 -2736 2677 0
-2716 -2737 2678 0
-2716 -2738 2679 0
-2716 -2739 2680 0
-2716 -2740 2681 0
-2716 -2741 2682 0
-2716 -2742 2683 0
-2716 -2743 2684 0
-2716 -2744 2685 0
-2716 -2745 2686 0
-2716 -2746 2687 0
-2717 -2718 2660 0
-2717 -2719 2661 0
-2717 -2720 2662 0
-2717 -2721 2663 0
-2717 -2722 2664 0
-2717 -2723 2665 0
-2717 -2724 2666 0
-2717 -2725 2667 0
-2717 -2726 2668 0
-2717 -2727 2669 0
-2717 -2728 2670 0
-2717 -2729 2671 0
-2717 -2730 2672 0
-2717 -2731 2673 0
-2717 -2732 2674 0
-2717 -2733 2675 0
-2717 -2734 2676 0
-2717 -2735 2677 0
-2717 -2736 2678 0
-2717 -2737 2679 0
-2717 -2738 2680 0
-2717 -2739 2681 0
-2717 -2740 2682 0
-2717 -2741 2683 0
-2717 -2742 2684 0
-2717 -2743 2685 0
-2717 -2744 2686 0
-2717 -2745 2687 0
-2717 -2746 2688 0
-2762 2718 0
-2763 2719 0
-2764 2720 0
-2765 2721 0
-2766 2722 0
-2767 2723 0
-2768 2724 0
-2769 2725 0
-2770 2726 0
-2771 2727 0
-2772 2728 0
-2773 2729 0
-2774 2730 0
-2775 2731 0
-2747 2718 0
-2748 2719 0
-2749 2720 0
-2750 2721 0
-2751 2722 0
-2752 2723 0
-2753 2724 0
-2754 2725 0
-2755 2726 0
-2756 2727 0
-2757 2728 0
-2758 2729 0
-2759 2730 0
-2760 2731 0
-2761 2732 0
-2747 -2762 2719 0
-2747 -2763 2720 0
-2747 -2764 2721 0
-2747 -2765 2722 0
-2747 -2766 2723 0
-2747 -2767 2724 0
-2747 -2768 2725 0
-2747 -2769 2726 0
-2747 -2770 2727 0
-2747 -2771 2728 0
-2747 -2772 2729 0
-2747 -2773 2730 0
-2747 -2774 2731 0
-2747 -2775 2732 0
-2748 -2762 2720 0
-2748 -2763 2721 0
-2748 -2764 2722 0
-2748 -2765 2723 0
-2748 -2766 2724 0
-2748 -2767 2725 0
-2748 -2768 2726 0
-2748 -2769 2727 0
-2748 -2770 2728 0
-2748 -2771 2729 0
-2748 -2772 2730 0
-2748 -2773 2731 0
-2748 -2774 2732 0
-2748 -2775 2733 0
-2749 -2762 2721 0
-2749 -2763 2722 0
-2749 -2764 2723 0
-2749 -2765 2724 0
-2749 -2766 2725 0
-2749 -2767 2726 0
-2749 -2768 2727 0
-2749 -2769 2728 0
-2749 -2770 2729 0
-2749 -2771 2730 0
-2749 -2772 2731 0
-2749 -2773 2732 0
-2749 -2774 2733 0
-2749 -2775 2734 0
-2750 -2762 2722 0
-2750 -2763 2723 0
-2750 -2764 2724 0
-2750 -2765 2725 0
-2750 -2766 2726 0
-2750 -2767 2727 0
-2750 -2768 2728 0
-2750 -2769 2729 0
-2750 -2770 2730 0
-2750 -2771 2731 0
-2750 -2772 2732 0
-2750 -2773 2733 0
-2750 -2774 2734 0
-2750 -2775 2735 0
-2751 -2762 2723 0
-2751 -2763 2724 0
-2751 -2764 2725 0
-2751 -2765 2726 0
-2751 -2766 2727 0
-2751 -2767 2728 0
-2751 -2768 2729 0
-2751 -2769 2730 0
-2751 -2770 2731 0
-2751 -2771 2732 0
-2751 -2772 2733 0
-2751 -2773 2734 0
-2751 -2774 2735 0
-2751 -2775 2736 0
-2752 -2762 2724 0
-2752 -2763 2725 0
-2752 -2764 2726 0
-2752 -2765 2727 0
-2752 -2766 2728 0
-2752 -2767 2729 0
-2752 -2768 2730 0
-2752 -2769 2731 0
-2752 -2770 2732 0
-2752 -2771 2733 0
-2752 -2772 2734 0
-2752 -2773 2735 0
-2752 -2774 2736 0
-2752 -2775 2737 0
-2753 -2762 2725 0
-2753 -2763 2726 0
-2753 -2764 2727 0
-2753 -2765 2728 0
-2753 -2766 2729 0
-2753 -2767 2730 0
-2753 -2768 2731 0
-2753 -2769 2732 0
-2753 -2770 2733 0
-2753 -2771 2734 0
-2753 -2772 2735 0
-2753 -2773 2736 0
-2753 -2774 2737 0
-2753 -2775 2738 0
-2754 -2762 2726 0
-2754 -2763 2727 0
-2754 -2764 2728 0
-2754 -2765 2729 0
-2754 -2766 2730 0
-2754 -2767 2731 0
-2754 -2768 2732 0
-2754 -2769 2733 0
-2754 -2770 2734 0
-2754 -2771 2735 0
-2754 -2772 2736 0
-2754 -2773 2737 0
-2754 -2774 2738 0
-2754 -2775 2739 0
-2755 -2762 2727 0
-2755 -2763 2728 0
-2755 -2764 2729 0
-2755 -2765 2730 0
-2755 -2766 2731 0
-2755 -2767 2732 0
-2755 -2768 2733 0
-2755 -2769 2734 0
-2755 -2770 2735 0
-2755 -2771 2736 0
-2755 -2772 2737 0
-2755 -2773 2738 0
-2755 -2774 2739 0
-2755 -2775 2740 0
-2756 -2762 2728 0
-2756 -2763 2729 0
-2756 -2764 2730 0
-2756 -2765 2731 0
-2756 -2766 2732 0
-2756 -2767 2733 0
-2756 -2768 2734 0
-2756 -2769 2735 0
-2756 -2770 2736 0
-2756 -2771 2737 0
-2756 -2772 2738 0
-2756 -2773 2739 0
-2756 -2774 2740 0
-2756 -2775 2741 0
-2757 -2762 2729 0
-2757 -2763 2730 0
-2757 -2764 2731 0
-2757 -2765 2732 0
-2757 -2766 2733 0
-2757 -2767 2734 0
-2757 -2768 2735 0
-2757 -2769 2736 0
-2757 -2770 2737 0
-2757 -2771 2738 0
-2757 -2772 2739 0
-2757 -2773 2740 0
-2757 -2774 2741 0
-2757 -2775 2742 0
-2758 -2762 2730 0
-2758 -2763 2731 0
-2758 -2764 2732 0
-2758 -2765 2733 0
-2758 -2766 2734 0
-2758 -2767 2735 0
-2758 -2768 2736 0
-2758 -2769 2737 0
-2758 -2770 2738 0
-2758 -2771 2739 0
-2758 -2772 2740 0
-2758 -2773 2741 0
-2758 -2774 2742 0
-2758 -2775 2743 0
-2759 -2762 2731 0
-2759 -2763 2732 0
-2759 -2764 2733 0
-2759 -2765 2734 0
-2759 -2766 2735 0
-2759 -2767 2736 0
-2759 -2768 2737 0
-2759 -2769 2738 0
-2759 -2770 2739 0
-2759 -2771 2740 0
-2759 -2772 2741 0
-2759 -2773 2742 0
-2759 -2774 2743 0
-2759 -2775 2744 0
-2760 -2762 2732 0
-2760 -2763 2733 0
-2760 -2764 2734 0
-2760 -2765 2735 0
-2760 -2766 2736 0
-2760 -2767 2737 0
-2760 -2768 2738 0
-2760 -2769 2739 0
-2760 -2770 2740 0
-2760 -2771 2741 0
-2760 -2772 2742 0
-2760 -2773 2743 0
-2760 -2774 2744 0
-2760 -2775 2745 0
-2761 -2762 2733 0
-2761 -2763 2734 0
-2761 -2764 2735 0
-2761 -2765 2736 0
-2761 -2766 2737 0
-2761 -2767 2738 0
-2761 -2768 2739 0
-2761 -2769 2740 0
-2761 -2770 2741 0
-2761 -2771 2742 0
-2761 -2772 2743 0
-2761 -2773 2744 0
-2761 -2774 2745 0
-2761 -2775 2746 0
-2783 2762 0
-2784 2763 0
-2785 2764 0
-2786 2765 0
-2787 2766 0
-2788 2767 0
-2789 2768 0
-2776 2762 0
-2777 2763 0
-2778 2764 0
-2779 2765 0
-2780 2766 0
-2781 2767 0
-2782 2768 0
-2776 -2783 2763 0
-2776 -2784 2764 0
-2776 -2785 2765 0
-2776 -2786 2766 0
-2776 -2787 2767 0
-2776 -2788 2768 0
-2776 -2789 2769 0
-2777 -2783 2764 0
-2777 -2784 2765 0
-2777 -2785 2766 0
-2777 -2786 2767 0
-2777 -2787 2768 0
-2777 -2788 2769 0
-2777 -2789 2770 0
-2778 -2783 2765 0
-2778 -2784 2766 0
-2778 -2785 2767 0
-2778 -2786 2768 0
-2778 -2787 2769 0
-2778 -2788 2770 0
-2778 -2789 2771 0
-2779 -2783 2766 0
-2779 -2784 2767 0
-2779 -2785 2768 0
-2779 -2786 2769 0
-2779 -2787 2770 0
-2779 -2788 2771 0
-2779 -2789 2772 0
-2780 -2783 2767 0
-2780 -2784 2768 0
-2780 -2785 2769 0
-2780 -2786 2770 0
-2780 -2787 2771 0
-2780 -2788 2772 0
-2780 -2789 2773 0
-2781 -2783 2768 0
-2781 -2784 2769 0
-2781 -2785 2770 0
-2781 -2786 2771 0
-2781 -2787 2772 0
-2781 -2788 2773 0
-2781 -2789 2774 0
-2782 -2783 2769 0
-2782 -2784 2770 0
-2782 -2785 2771 0
-2782 -2786 2772 0
-2782 -2787 2773 0
-2782 -2788 2774 0
-2782 -2789 2775 0
-2794 2783 0
-2795 2784 0
-2796 2785 0
-2790 2783 0
-2791 2784 0
-2792 2785 0
-2793 2786 0
-2790 -2794 2784 0
-2790 -2795 2785 0
-2790 -2796 2786 0
-2791 -2794 2785 0
-2791 -2795 2786 0
-2791 -2796 2787 0
-2792 -2794 2786 0
-2792 -2795 2787 0
-2792 -2796 2788 0
-2793 -2794 2787 0
-2793 -2795 2788 0
-2793 -2796 2789 0
-332 2794 0
-2797 2794 0
-2798 2795 0
-2797 -332 2795 0
-2798 -332 2796 0
-331 2797 0
-330 2797 0
-330 -331 2798 0
-2801 2790 0
-2802 2791 0
-2799 2790 0
-2800 2791 0
-2799 -2801 2791 0
-2799 -2802 2792 0
-2800 -2801 2792 0
-2800 -2802 2793 0
-329 2801 0
-328 2801 0
-328 -329 2802 0
-327 2799 0
-326 2799 0
-326 -327 2800 0
-2807 2776 0
-2808 2777 0
-2809 2778 0
-2803 2776 0
-2804 2777 0
-2805 2778 0
-2806 2779 0
-2803 -2807 2777 0
-2803 -2808 2778 0
-2803 -2809 2779 0
-2804 -2807 2778 0
-2804 -2808 2779 0
-2804 -2809 2780 0
-2805 -2807 2779 0
-2805 -2808 2780 0
-2805 -2809 2781 0
-2806 -2807 2780 0
-2806 -2808 2781 0
-2806 -2809 2782 0
-325 2807 0
-2810 2807 0
-2811 2808 0
-2810 -325 2808 0
-2811 -325 2809 0
-324 2810 0
-323 2810 0
-323 -324 2811 0
-2814 2803 0
-2815 2804 0
-2812 2803 0
-2813 2804 0
-2812 -2814 2804 0
-2812 -2815 2805 0
-2813 -2814 2805 0
-2813 -2815 2806 0
-322 2814 0
-321 2814 0
-321 -322 2815 0
-320 2812 0
-319 2812 0
-319 -320 2813 0
-2824 2747 0
-2825 2748 0
-2826 2749 0
-2827 2750 0
-2828 2751 0
-2829 2752 0
-2830 2753 0
-2816 2747 0
-2817 2748 0
-2818 2749 0
-2819 2750 0
-2820 2751 0
-2821 2752 0
-2822 2753 0
-2823 2754 0
-2816 -2824 2748 0
-2816 -2825 2749 0
-2816 -2826 2750 0
-2816 -2827 2751 0
-2816 -2828 2752 0
-2816 -2829 2753 0
-2816 -2830 2754 0
-2817 -2824 2749 0
-2817 -2825 2750 0
-2817 -2826 2751 0
-2817 -2827 2752 0
-2817 -2828 2753 0
-2817 -2829 2754 0
-2817 -2830 2755 0
-2818 -2824 2750 0
-2818 -2825 2751 0
-2818 -2826 2752 0
-2818 -2827 2753 0
-2818 -2828 2754 0
-2818 -2829 2755 0
-2818 -2830 2756 0
-2819 -2824 2751 0
-2819 -2825 2752 0
-2819 -2826 2753 0
-2819 -2827 2754 0
-2819 -2828 2755 0
-2819 -2829 2756 0
-2819 -2830 2757 0
-2820 -2824 2752 0
-2820 -2825 2753 0
-2820 -2826 2754 0
-2820 -2827 2755 0
-2820 -2828 2756 0
-2820 -2829 2757 0
-2820 -2830 2758 0
-2821 -2824 2753 0
-2821 -2825 2754 0
-2821 -2826 2755 0
-2821 -2827 2756 0
-2821 -2828 2757 0
-2821 -2829 2758 0
-2821 -2830 2759 0
-2822 -2824 2754 0
-2822 -2825 2755 0
-2822 -2826 2756 0
-2822 -2827 2757 0
-2822 -2828 2758 0
-2822 -2829 2759 0
-2822 -2830 2760 0
-2823 -2824 2755 0
-2823 -2825 2756 0
-2823 -2826 2757 0
-2823 -2827 2758 0
-2823 -2828 2759 0
-2823 -2829 2760 0
-2823 -2830 2761 0
-2835 2824 0
-2836 2825 0
-2837 2826 0
-2831 2824 0
-2832 2825 0
-2833 2826 0
-2834 2827 0
-2831 -2835 2825 0
-2831 -2836 2826 0
-2831 -2837 2827 0
-2832 -2835 2826 0
-2832 -2836 2827 0
-2832 -2837 2828 0
-2833 -2835 2827 0
-2833 -2836 2828 0
-2833 -2837 2829 0
-2834 -2835 2828 0
-2834 -2836 2829 0
-2834 -2837 2830 0
-318 2835 0
-2838 2835 0
-2839 2836 0
-2838 -318 2836 0
-2839 -318 2837 0
-317 2838 0
-316 2838 0
-316 -317 2839 0
-2842 2831 0
-2843 2832 0
-2840 2831 0
-2841 2832 0
-2840 -2842 2832 0
-2840 -2843 2833 0
-2841 -2842 2833 0
-2841 -2843 2834 0
-315 2842 0
-314 2842 0
-314 -315 2843 0
-313 2840 0
-312 2840 0
-312 -313 2841 0
-2848 2816 0
-2849 2817 0
-2850 2818 0
-2851 2819 0
-2844 2816 0
-2845 2817 0
-2846 2818 0
-2847 2819 0
-2844 -2848 2817 0
-2844 -2849 2818 0
-2844 -2850 2819 0
-2844 -2851 2820 0
-2845 -2848 2818 0
-2845 -2849 2819 0
-2845 -2850 2820 0
-2845 -2851 2821 0
-2846 -2848 2819 0
-2846 -2849 2820 0
-2846 -2850 2821 0
-2846 -2851 2822 0
-2847 -2848 2820 0
-2847 -2849 2821 0
-2847 -2850 2822 0
-2847 -2851 2823 0
-2854 2848 0
-2855 2849 0
-2852 2848 0
-2853 2849 0
-2852 -2854 2849 0
-2852 -2855 2850 0
-2853 -2854 2850 0
-2853 -2855 2851 0
-311 2854 0
-310 2854 0
-310 -311 2855 0
-309 2852 0
-308 2852 0
-308 -309 2853 0
-2858 2844 0
-2859 2845 0
-2856 2844 0
-2857 2845 0
-2856 -2858 2845 0
-2856 -2859 2846 0
-2857 -2858 2846 0
-2857 -2859 2847 0
-307 2858 0
-306 2858 0
-306 -307 2859 0
-305 2856 0
-304 2856 0
-304 -305 2857 0
-2875 2689 0
-2876 2690 0
-2877 2691 0
-2878 2692 0
-2879 2693 0
-2880 2694 0
-2881 2695 0
-2882 2696 0
-2883 2697 0
-2884 2698 0
-2885 2699 0
-2886 2700 0
-2887 2701 0
-2888 2702 0
-2860 2689 0
-2861 2690 0
-2862 2691 0
-2863 2692 0
-2864 2693 0
-2865 2694 0
-2866 2695 0
-2867 2696 0
-2868 2697 0
-2869 2698 0
-2870 2699 0
-2871 2700 0
-2872 2701 0
-2873 2702 0
-2874 2703 0
-2860 -2875 2690 0
-2860 -2876 2691 0
-2860 -2877 2692 0
-2860 -2878 2693 0
-2860 -2879 2694 0
-2860 -2880 2695 0
-2860 -2881 2696 0
-2860 -2882 2697 0
-2860 -2883 2698 0
-2860 -2884 2699 0
-2860 -2885 2700 0
-2860 -2886 2701 0
-2860 -2887 2702 0
-2860 -2888 2703 0
-2861 -2875 2691 0
-2861 -2876 2692 0
-2861 -2877 2693 0
-2861 -2878 2694 0
-2861 -2879 2695 0
-2861 -2880 2696 0
-2861 -2881 2697 0
-2861 -2882 2698 0
-2861 -2883 2699 0
-2861 -2884 2700 0
-2861 -2885 2701 0
-2861 -2886 2702 0
-2861 -2887 2703 0
-2861 -2888 2704 0
-2862 -2875 2692 0
-2862 -2876 2693 0
-2862 -2877 2694 0
-2862 -2878 2695 0
-2862 -2879 2696 0
-2862 -2880 2697 0
-2862 -2881 2698 0
-2862 -2882 2699 0
-2862 -2883 2700 0
-2862 -2884 2701 0
-2862 -2885 2702 0
-2862 -2886 2703 0
-2862 -2887 2704 0
-2862 -2888 2705 0
-2863 -2875 2693 0
-2863 -2876 2694 0
-2863 -2877 2695 0
-2863 -2878 2696 0
-2863 -2879 2697 0
-2863 -2880 2698 0
-2863 -2881 2699 0
-2863 -2882 2700 0
-2863 -2883 2701 0
-2863 -2884 2702 0
-2863 -2885 2703 0
-2863 -2886 2704 0
-2863 -2887 2705 0
-2863 -2888 2706 0
-2864 -2875 2694 0
-2864 -2876 2695 0
-2864 -2877 2696 0
-2864 -2878 2697 0
-2864 -2879 2698 0
-2864 -2880 2699 0
-2864 -2881 2700 0
-2864 -2882 2701 0
-2864 -2883 2702 0
-2864 -2884 2703 0
-2864 -2885 2704 0
-2864 -2886 2705 0
-2864 -2887 2706 0
-2864 -2888 2707 0
-2865 -2875 2695 0
-2865 -2876 2696 0
-2865 -2877 2697 0
-2865 -2878 2698 0
-2865 -2879 2699 0
-2865 -2880 2700 0
-2865 -2881 2701 0
-2865 -2882 2702 0
-2865 -2883 2703 0
-2865 -2884 2704 0
-2865 -2885 2705 0
-2865 -2886 2706 0
-2865 -2887 2707 0
-2865 -2888 2708 0
-2866 -2875 2696 0
-2866 -2876 2697 0
-2866 -2877 2698 0
-2866 -2878 2699 0
-2866 -2879 2700 0
-2866 -2880 2701 0
-2866 -2881 2702 0
-2866 -2882 2703 0
-2866 -2883 2704 0
-2866 -2884 2705 0
-2866 -2885 2706 0
-2866 -2886 2707 0
-2866 -2887 2708 0
-2866 -2888 2709 0
-2867 -2875 2697 0
-2867 -2876 2698 0
-2867 -2877 2699 0
-2867 -2878 2700 0
-2867 -2879 2701 0
-2867 -2880 2702 0
-2867 -2881 2703 0
-2867 -2882 2704 0
-2867 -2883 2705 0
-2867 -2884 2706 0
-2867 -2885 2707 0
-2867 -2886 2708 0
-2867 -2887 2709 0
-2867 -2888 2710 0
-2868 -2875 2698 0
-2868 -2876 2699 0
-2868 -2877 2700 0
-2868 -2878 2701 0
-2868 -2879 2702 0
-2868 -2880 2703 0
-2868 -2881 2704 0
-2868 -2882 2705 0
-2868 -2883 2706 0
-2868 -2884 2707 0
-2868 -2885 2708 0
-2868 -2886 2709 0
-2868 -2887 2710 0
-2868 -2888 2711 0
-2869 -2875 2699 0
-2869 -2876 2700 0
-2869 -2877 2701 0
-2869 -2878 2702 0
-2869 -2879 2703 0
-2869 -2880 2704 0
-2869 -2881 2705 0
-2869 -2882 2706 0
-2869 -2883 2707 0
-2869 -2884 2708 0
-2869 -2885 2709 0
-2869 -2886 2710 0
-2869 -2887 2711 0
-2869 -2888 2712 0
-2870 -2875 2700 0
-2870 -2876 2701 0
-2870 -2877 2702 0
-2870 -2878 2703 0
-2870 -2879 2704 0
-2870 -2880 2705 0
-2870 -2881 2706 0
-2870 -2882 2707 0
-2870 -2883 2708 0
-2870 -2884 2709 0
-2870 -2885 2710 0
-2870 -2886 2711 0
-2870 -2887 2712 0
-2870 -2888 2713 0
-2871 -2875 2701 0
-2871 -2876 2702 0
-2871 -2877 2703 0
-2871 -2878 2704 0
-2871 -2879 2705 0
-2871 -2880 2706 0
-2871 -2881 2707 0
-2871 -2882 2708 0
-2871 -2883 2709 0
-2871 -2884 2710 0
-2871 -2885 2711 0
-2871 -2886 2712 0
-2871 -2887 2713 0
-2871 -2888 2714 0
-2872 -2875 2702 0
-2872 -2876 2703 0
-2872 -2877 2704 0
-2872 -2878 2705 0
-2872 -2879 2706 0
-2872 -2880 2707 0
-2872 -2881 2708 0
-2872 -2882 2709 0
-2872 -2883 2710 0
-2872 -2884 2711 0
-2872 -2885 2712 0
-2872 -2886 2713 0
-2872 -2887 2714 0
-2872 -2888 2715 0
-2873 -2875 2703 0
-2873 -2876 2704 0
-2873 -2877 2705 0
-2873 -2878 2706 0
-2873 -2879 2707 0
-2873 -2880 2708 0
-2873 -2881 2709 0
-2873 -2882 2710 0
-2873 -2883 2711 0
-2873 -2884 2712 0
-2873 -2885 2713 0
-2873 -2886 2714 0
-2873 -2887 2715 0
-2873 -2888 2716 0
-2874 -2875 2704 0
-2874 -2876 2705 0
-2874 -2877 2706 0
-2874 -2878 2707 0
-2874 -2879 2708 0
-2874 -2880 2709 0
-2874 -2881 2710 0
-2874 -2882 2711 0
-2874 -2883 2712 0
-2874 -2884 2713 0
-2874 -2885 2714 0
-2874 -2886 2715 0
-2874 -2887 2716 0
-2874 -2888 2717 0
-2896 2875 0
-2897 2876 0
-2898 2877 0
-2899 2878 0
-2900 2879 0
-2901 2880 0
-2902 2881 0
-2889 2875 0
-2890 2876 0
-2891 2877 0
-2892 2878 0
-2893 2879 0
-2894 2880 0
-2895 2881 0
-2889 -2896 2876 0
-2889 -2897 2877 0
-2889 -2898 2878 0
-2889 -2899 2879 0
-2889 -2900 2880 0
-2889 -2901 2881 0
-2889 -2902 2882 0
-2890 -2896 2877 0
-2890 -2897 2878 0
-2890 -2898 2879 0
-2890 -2899 2880 0
-2890 -2900 2881 0
-2890 -2901 2882 0
-2890 -2902 2883 0
-2891 -2896 2878 0
-2891 -2897 2879 0
-2891 -2898 2880 0
-2891 -2899 2881 0
-2891 -2900 2882 0
-2891 -2901 2883 0
-2891 -2902 2884 0
-2892 -2896 2879 0
-2892 -2897 2880 0
-2892 -2898 2881 0
-2892 -2899 2882 0
-2892 -2900 2883 0
-2892 -2901 2884 0
-2892 -2902 2885 0
-2893 -2896 2880 0
-2893 -2897 2881 0
-2893 -2898 2882 0
-2893 -2899 2883 0
-2893 -2900 2884 0
-2893 -2901 2885 0
-2893 -2902 2886 0
-2894 -2896 2881 0
-2894 -2897 2882 0
-2894 -2898 2883 0
-2894 -2899 2884 0
-2894 -2900 2885 0
-2894 -2901 2886 0
-2894 -2902 2887 0
-2895 -2896 2882 0
-2895 -2897 2883 0
-2895 -2898 2884 0
-2895 -2899 2885 0
-2895 -2900 2886 0
-2895 -2901 2887 0
-2895 -2902 2888 0
-2907 2896 0
-2908 2897 0
-2909 2898 0
-2903 2896 0
-2904 2897 0
-2905 2898 0
-2906 2899 0
-2903 -2907 2897 0
-2903 -2908 2898 0
-2903 -2909 2899 0
-2904 -2907 2898 0
-2904 -2908 2899 0
-2904 -2909 2900 0
-2905 -2907 2899 0
-2905 -2908 2900 0
-2905 -2909 2901 0
-2906 -2907 2900 0
-2906 -2908 2901 0
-2906 -2909 2902 0
-303 2907 0
-2910 2907 0
-2911 2908 0
-2910 -303 2908 0
-2911 -303 2909 0
-302 2910 0
-301 2910 0
-301 -302 2911 0
-2914 2903 0
-2915 2904 0
-2912 2903 0
-2913 2904 0
-2912 -2914 2904 0
-2912 -2915 2905 0
-2913 -2914 2905 0
-2913 -2915 2906 0
-300 2914 0
-299 2914 0
-299 -300 2915 0
-298 2912 0
-297 2912 0
-297 -298 2913 0
-2920 2889 0
-2921 2890 0
-2922 2891 0
-2916 2889 0
-2917 2890 0
-2918 2891 0
-2919 2892 0
-2916 -2920 2890 0
-2916 -2921 2891 0
-2916 -2922 2892 0
-2917 -2920 2891 0
-2917 -2921 2892 0
-2917 -2922 2893 0
-2918 -2920 2892 0
-2918 -2921 2893 0
-2918 -2922 2894 0
-2919 -2920 2893 0
-2919 -2921 2894 0
-2919 -2922 2895 0
-296 2920 0
-2923 2920 0
-2924 2921 0
-2923 -296 2921 0
-2924 -296 2922 0
-295 2923 0
-294 2923 0
-294 -295 2924 0
-2927 2916 0
-2928 2917 0
-2925 2916 0
-2926 2917 0
-2925 -2927 2917 0
-2925 -2928 2918 0
-2926 -2927 2918 0
-2926 -2928 2919 0
-293 2927 0
-292 2927 0
-292 -293 2928 0
-291 2925 0
-290 2925 0
-290 -291 2926 0
-2937 2860 0
-2938 2861 0
-2939 2862 0
-2940 2863 0
-2941 2864 0
-2942 2865 0
-2943 2866 0
-2929 2860 0
-2930 2861 0
-2931 2862 0
-2932 2863 0
-2933 2864 0
-2934 2865 0
-2935 2866 0
-2936 2867 0
-2929 -2937 2861 0
-2929 -2938 2862 0
-2929 -2939 2863 0
-2929 -2940 2864 0
-2929 -2941 2865 0
-2929 -2942 2866 0
-2929 -2943 2867 0
-2930 -2937 2862 0
-2930 -2938 2863 0
-2930 -2939 2864 0
-2930 -2940 2865 0
-2930 -2941 2866 0
-2930 -2942 2867 0
-2930 -2943 2868 0
-2931 -2937 2863 0
-2931 -2938 2864 0
-2931 -2939 2865 0
-2931 -2940 2866 0
-2931 -2941 2867 0
-2931 -2942 2868 0
-2931 -2943 2869 0
-2932 -2937 2864 0
-2932 -2938 2865 0
-2932 -2939 2866 0
-2932 -2940 2867 0
-2932 -2941 2868 0
-2932 -2942 2869 0
-2932 -2943 2870 0
-2933 -2937 2865 0
-2933 -2938 2866 0
-2933 -2939 2867 0
-2933 -2940 2868 0
-2933 -2941 2869 0
-2933 -2942 2870 0
-2933 -2943 2871 0
-2934 -2937 2866 0
-2934 -2938 2867 0
-2934 -2939 2868 0
-2934 -2940 2869 0
-2934 -2941 2870 0
-2934 -2942 2871 0
-2934 -2943 2872 0
-2935 -2937 2867 0
-2935 -2938 2868 0
-2935 -2939 2869 0
-2935 -2940 2870 0
-2935 -2941 2871 0
-2935 -2942 2872 0
-2935 -2943 2873 0
-2936 -2937 2868 0
-2936 -2938 2869 0
-2936 -2939 2870 0
-2936 -2940 2871 0
-2936 -2941 2872 0
-2936 -2942 2873 0
-2936 -2943 2874 0
-2948 2937 0
-2949 2938 0
-2950 2939 0
-2944 2937 0
-2945 2938 0
-2946 2939 0
-2947 2940 0
-2944 -2948 2938 0
-2944 -2949 2939 0
-2944 -2950 2940 0
-2945 -2948 2939 0
-2945 -2949 2940 0
-2945 -2950 2941 0
-2946 -2948 2940 0
-2946 -2949 2941 0
-2946 -2950 2942 0
-2947 -2948 2941 0
-2947 -2949 2942 0
-2947 -2950 2943 0
-289 2948 0
-2951 2948 0
-2952 2949 0
-2951 -289 2949 0
-2952 -289 2950 0
-288 2951 0
-287 2951 0
-287 -288 2952 0
-2955 2944 0
-2956 2945 0
-2953 2944 0
-2954 2945 0
-2953 -2955 2945 0
-2953 -2956 2946 0
-2954 -2955 2946 0
-2954 -2956 2947 0
-286 2955 0
-285 2955 0
-285 -286 2956 0
-284 2953 0
-283 2953 0
-283 -284 2954 0
-2961 2929 0
-2962 2930 0
-2963 2931 0
-2964 2932 0
-2957 2929 0
-2958 2930 0
-2959 2931 0
-2960 2932 0
-2957 -2961 2930 0
-2957 -2962 2931 0
-2957 -2963 2932 0
-2957 -2964 2933 0
-2958 -2961 2931 0
-2958 -2962 2932 0
-2958 -2963 2933 0
-2958 -2964 2934 0
-2959 -2961 2932 0
-2959 -2962 2933 0
-2959 -2963 2934 0
-2959 -2964 2935 0
-2960 -2961 2933 0
-2960 -2962 2934 0
-2960 -2963 2935 0
-2960 -2964 2936 0
-2967 2961 0
-2968 2962 0
-2965 2961 0
-2966 2962 0
-2965 -2967 2962 0
-2965 -2968 2963 0
-2966 -2967 2963 0
-2966 -2968 2964 0
-282 2967 0
-281 2967 0
-281 -282 2968 0
-280 2965 0
-279 2965 0
-279 -280 2966 0
-2971 2957 0
-2972 2958 0
-2969 2957 0
-2970 2958 0
-2969 -2971 2958 0
-2969 -2972 2959 0
-2970 -2971 2959 0
-2970 -2972 2960 0
-278 2971 0
-277 2971 0
-277 -278 2972 0
-276 2969 0
-275 2969 0
-275 -276 2970 0
-3002 2573 0
-3003 2574 0
-3004 2575 0
-3005 2576 0
-3006 2577 0
-3007 2578 0
-3008 2579 0
-3009 2580 0
-3010 2581 0
-3011 2582 0
-3012 2583 0
-3013 2584 0
-3014 2585 0
-3015 2586 0
-3016 2587 0
-3017 2588 0
-3018 2589 0
-3019 2590 0
-3020 2591 0
-3021 2592 0
-3022 2593 0
-3023 2594 0
-3024 2595 0
-3025 2596 0
-3026 2597 0
-3027 2598 0
-3028 2599 0
-3029 2600 0
-3030 2601 0
-2973 2573 0
-2974 2574 0
-2975 2575 0
-2976 2576 0
-2977 2577 0
-2978 2578 0
-2979 2579 0
-2980 2580 0
-2981 2581 0
-2982 2582 0
-2983 2583 0
-2984 2584 0
-2985 2585 0
-2986 2586 0
-2987 2587 0
-2988 2588 0
-2989 2589 0
-2990 2590 0
-2991 2591 0
-2992 2592 0
-2993 2593 0
-2994 2594 0
-2995 2595 0
-2996 2596 0
-2997 2597 0
-2998 2598 0
-2999 2599 0
-3000 2600 0
-3001 2601 0
-2973 -3002 2574 0
-2973 -3003 2575 0
-2973 -3004 2576 0
-2973 -3005 2577 0
-2973 -3006 2578 0
-2973 -3007 2579 0
-2973 -3008 2580 0
-2973 -3009 2581 0
-2973 -3010 2582 0
-2973 -3011 2583 0
-2973 -3012 2584 0
-2973 -3013 2585 0
-2973 -3014 2586 0
-2973 -3015 2587 0
-2973 -3016 2588 0
-2973 -3017 2589 0
-2973 -3018 2590 0
-2973 -3019 2591 0
-2973 -3020 2592 0
-2973 -3021 2593 0
-2973 -3022 2594 0
-2973 -3023 2595 0
-2973 -3024 2596 0
-2973 -3025 2597 0
-2973 -3026 2598 0
-2973 -3027 2599 0
-2973 -3028 2600 0
-2973 -3029 2601 0
-2973 -3030 2602 0
-2974 -3002 2575 0
-2974 -3003 2576 0
-2974 -3004 2577 0
-2974 -3005 2578 0
-2974 -3006 2579 0
-2974 -3007 2580 0
-2974 -3008 2581 0
-2974 -3009 2582 0
-2974 -3010 2583 0
-2974 -3011 2584 0
-2974 -3012 2585 0
-2974 -3013 2586 0
-2974 -3014 2587 0
-2974 -3015 2588 0
-2974 -3016 2589 0
-2974 -3017 2590 0
-2974 -3018 2591 0
-2974 -3019 2592 0
-2974 -3020 2593 0
-2974 -3021 2594 0
-2974 -3022 2595 0
-2974 -3023 2596 0
-2974 -3024 2597 0
-2974 -3025 2598 0
-2974 -3026 2599 0
-2974 -3027 2600 0
-2974 -3028 2601 0
-2974 -3029 2602 0
-2974 -3030 2603 0
-2975 -3002 2576 0
-2975 -3003 2577 0
-2975 -3004 2578 0
-2975 -3005 2579 0
-2975 -3006 2580 0
-2975 -3007 2581 0
-2975 -3008 2582 0
-2975 -3009 2583 0
-2975 -3010 2584 0
-2975 -3011 2585 0
-2975 -3012 2586 0
-2975 -3013 2587 0
-2975 -3014 2588 0
-2975 -3015 2589 0
-2975 -3016 2590 0
-2975 -3017 2591 0
-2975 -3018 2592 0
-2975 -3019 2593 0
-2975 -3020 2594 0
-2975 -3021 2595 0
-2975 -3022 2596 0
-2975 -3023 2597 0
-2975 -3024 2598 0
-2975 -3025 2599 0
-2975 -3026 2600 0
-2975 -3027 2601 0
-2975 -3028 2602 0
-2975 -3029 2603 0
-2975 -3030 2604 0
-2976 -3002 2577 0
-2976 -3003 2578 0
-2976 -3004 2579 0
-2976 -3005 2580 0
-2976 -3006 2581 0
-2976 -3007 2582 0
-2976 -3008 2583 0
-2976 -3009 2584 0
-2976 -3010 2585 0
-2976 -3011 2586 0
-2976 -3012 2587 0
-2976 -3013 2588 0
-2976 -3014 2589 0
-2976 -3015 2590 0
-2976 -3016 2591 0
-2976 -3017 2592 0
-2976 -3018 2593 0
-2976 -3019 2594 0
-2976 -3020 2595 0
-2976 -3021 2596 0
-2976 -3022 2597 0
-2976 -3023 2598 0
-2976 -3024 2599 0
-2976 -3025 2600 0
-2976 -3026 2601 0
-2976 -3027 2602 0
-2976 -3028 2603 0
-2976 -3029 2604 0
-2976 -3030 2605 0
-2977 -3002 2578 0
-2977 -3003 2579 0
-2977 -3004 2580 0
-2977 -3005 2581 0
-2977 -3006 2582 0
-2977 -3007 2583 0
-2977 -3008 2584 0
-2977 -3009 2585 0
-2977 -3010 2586 0
-2977 -3011 2587 0
-2977 -3012 2588 0
-2977 -3013 2589 0
-2977 -3014 2590 0
-2977 -3015 2591 0
-2977 -3016 2592 0
-2977 -3017 2593 0
-2977 -3018 2594 0
-2977 -3019 2595 0
-2977 -3020 2596 0
-2977 -3021 2597 0
-2977 -3022 2598 0
-2977 -3023 2599 0
-2977 -3024 2600 0
-2977 -3025 2601 0
-2977 -3026 2602 0
-2977 -3027 2603 0
-2977 -3028 2604 0
-2977 -3029 2605 0
-2977 -3030 2606 0
-2978 -3002 2579 0
-2978 -3003 2580 0
-2978 -3004 2581 0
-2978 -3005 2582 0
-2978 -3006 2583 0
-2978 -3007 2584 0
-2978 -3008 2585 0
-2978 -3009 2586 0
-2978 -3010 2587 0
-2978 -3011 2588 0
-2978 -3012 2589 0
-2978 -3013 2590 0
-2978 -3014 2591 0
-2978 -3015 2592 0
-2978 -3016 2593 0
-2978 -3017 2594 0
-2978 -3018 2595 0
-2978 -3019 2596 0
-2978 -3020 2597 0
-2978 -3021 2598 0
-2978 -3022 2599 0
-2978 -3023 2600 0
-2978 -3024 2601 0
-2978 -3025 2602 0
-2978 -3026 2603 0
-2978 -3027 2604 0
-2978 -3028 2605 0
-2978 -3029 2606 0
-2978 -3030 2607 0
-2979 -3002 2580 0
-2979 -3003 2581 0
-2979 -3004 2582 0
-2979 -3005 2583 0
-2979 -3006 2584 0
-2979 -3007 2585 0
-2979 -3008 2586 0
-2979 -3009 2587 0
-2979 -3010 2588 0
-2979 -3011 2589 0
-2979 -3012 2590 0
-2979 -3013 2591 0
-2979 -3014 2592 0
-2979 -3015 2593 0
-2979 -3016 2594 0
-2979 -3017 2595 0
-2979 -3018 2596 0
-2979 -3019 2597 0
-2979 -3020 2598 0
-2979 -3021 2599 0
-2979 -3022 2600 0
-2979 -3023 2601 0
-2979 -3024 2602 0
-2979 -3025 2603 0
-2979 -3026 2604 0
-2979 -3027 2605 0
-2979 -3028 2606 0
-2979 -3029 2607 0
-2979 -3030 2608 0
-2980 -3002 2581 0
-2980 -3003 2582 0
-2980 -3004 2583 0
-2980 -3005 2584 0
-2980 -3006 2585 0
-2980 -3007 2586 0
-2980 -3008 2587 0
-2980 -3009 2588 0
-2980 -3010 2589 0
-2980 -3011 2590 0
-2980 -3012 2591 0
-2980 -3013 2592 0
-2980 -3014 2593 0
-2980 -3015 2594 0
-2980 -3016 2595 0
-2980 -3017 2596 0
-2980 -3018 2597 0
-2980 -3019 2598 0
-2980 -3020 2599 0
-2980 -3021 2600 0
-2980 -3022 2601 0
-2980 -3023 2602 0
-2980 -3024 2603 0
-2980 -3025 2604 0
-2980 -3026 2605 0
-2980 -3027 2606 0
-2980 -3028 2607 0
-2980 -3029 2608 0
-2980 -3030 2609 0
-2981 -3002 2582 0
-2981 -3003 2583 0
-2981 -3004 2584 0
-2981 -3005 2585 0
-2981 -3006 2586 0
-2981 -3007 2587 0
-2981 -3008 2588 0
-2981 -3009 2589 0
-2981 -3010 2590 0
-2981 -3011 2591 0
-2981 -3012 2592 0
-2981 -3013 2593 0
-2981 -3014 2594 0
-2981 -3015 2595 0
-2981 -3016 2596 0
-2981 -3017 2597 0
-2981 -3018 2598 0
-2981 -3019 2599 0
-2981 -3020 2600 0
-2981 -3021 2601 0
-2981 -3022 2602 0
-2981 -3023 2603 0
-2981 -3024 2604 0
-2981 -3025 2605 0
-2981 -3026 2606 0
-2981 -3027 2607 0
-2981 -3028 2608 0
-2981 -3029 2609 0
-2981 -3030 2610 0
-2982 -3002 2583 0
-2982 -3003 2584 0
-2982 -3004 2585 0
-2982 -3005 2586 0
-2982 -3006 2587 0
-2982 -3007 2588 0
-2982 -3008 2589 0
-2982 -3009 2590 0
-2982 -3010 2591 0
-2982 -3011 2592 0
-2982 -3012 2593 0
-2982 -3013 2594 0
-2982 -3014 2595 0
-2982 -3015 2596 0
-2982 -3016 2597 0
-2982 -3017 2598 0
-2982 -3018 2599 0
-2982 -3019 2600 0
-2982 -3020 2601 0
-2982 -3021 2602 0
-2982 -3022 2603 0
-2982 -3023 2604 0
-2982 -3024 2605 0
-2982 -3025 2606 0
-2982 -3026 2607 0
-2982 -3027 2608 0
-2982 -3028 2609 0
-2982 -3029 2610 0
-2982 -3030 2611 0
-2983 -3002 2584 0
-2983 -3003 2585 0
-2983 -3004 2586 0
-2983 -3005 2587 0
-2983 -3006 2588 0
-2983 -3007 2589 0
-2983 -3008 2590 0
-2983 -3009 2591 0
-2983 -3010 2592 0
-2983 -3011 2593 0
-2983 -3012 2594 0
-2983 -3013 2595 0
-2983 -3014 2596 0
-2983 -3015 2597 0
-2983 -3016 2598 0
-2983 -3017 2599 0
-2983 -3018 2600 0
-2983 -3019 2601 0
-2983 -3020 2602 0
-2983 -3021 2603 0
-2983 -3022 2604 0
-2983 -3023 2605 0
-2983 -3024 2606 0
-2983 -3025 2607 0
-2983 -3026 2608 0
-2983 -3027 2609 0
-2983 -3028 2610 0
-2983 -3029 2611 0
-2983 -3030 2612 0
-2984 -3002 2585 0
-2984 -3003 2586 0
-2984 -3004 2587 0
-2984 -3005 2588 0
-2984 -3006 2589 0
-2984 -3007 2590 0
-2984 -3008 2591 0
-2984 -3009 2592 0
-2984 -3010 2593 0
-2984 -3011 2594 0
-2984 -3012 2595 0
-2984 -3013 2596 0
-2984 -3014 2597 0
-2984 -3015 2598 0
-2984 -3016 2599 0
-2984 -3017 2600 0
-2984 -3018 2601 0
-2984 -3019 2602 0
-2984 -3020 2603 0
-2984 -3021 2604 0
-2984 -3022 2605 0
-2984 -3023 2606 0
-2984 -3024 2607 0
-2984 -3025 2608 0
-2984 -3026 2609 0
-2984 -3027 2610 0
-2984 -3028 2611 0
-2984 -3029 2612 0
-2984 -3030 2613 0
-2985 -3002 2586 0
-2985 -3003 2587 0
-2985 -3004 2588 0
-2985 -3005 2589 0
-2985 -3006 2590 0
-2985 -3007 2591 0
-2985 -3008 2592 0
-2985 -3009 2593 0
-2985 -3010 2594 0
-2985 -3011 2595 0
-2985 -3012 2596 0
-2985 -3013 2597 0
-2985 -3014 2598 0
-2985 -3015 2599 0
-2985 -3016 2600 0
-2985 -3017 2601 0
-2985 -3018 2602 0
-2985 -3019 2603 0
-2985 -3020 2604 0
-2985 -3021 2605 0
-2985 -3022 2606 0
-2985 -3023 2607 0
-2985 -3024 2608 0
-2985 -3025 2609 0
-2985 -3026 2610 0
-2985 -3027 2611 0
-2985 -3028 2612 0
-2985 -3029 2613 0
-2985 -3030 2614 0
-2986 -3002 2587 0
-2986 -3003 2588 0
-2986 -3004 2589 0
-2986 -3005 2590 0
-2986 -3006 2591 0
-2986 -3007 2592 0
-2986 -3008 2593 0
-2986 -3009 2594 0
-2986 -3010 2595 0
-2986 -3011 2596 0
-2986 -3012 2597 0
-2986 -3013 2598 0
-2986 -3014 2599 0
-2986 -3015 2600 0
-2986 -3016 2601 0
-2986 -3017 2602 0
-2986 -3018 2603 0
-2986 -3019 2604 0
-2986 -3020 2605 0
-2986 -3021 2606 0
-2986 -3022 2607 0
-2986 -3023 2608 0
-2986 -3024 2609 0
-2986 -3025 2610 0
-2986 -3026 2611 0
-2986 -3027 2612 0
-2986 -3028 2613 0
-2986 -3029 2614 0
-2986 -3030 2615 0
-2987 -3002 2588 0
-2987 -3003 2589 0
-2987 -3004 2590 0
-2987 -3005 2591 0
-2987 -3006 2592 0
-2987 -3007 2593 0
-2987 -3008 2594 0
-2987 -3009 2595 0
-2987 -3010 2596 0
-2987 -3011 2597 0
-2987 -3012 2598 0
-2987 -3013 2599 0
-2987 -3014 2600 0
-2987 -3015 2601 0
-2987 -3016 2602 0
-2987 -3017 2603 0
-2987 -3018 2604 0
-2987 -3019 2605 0
-2987 -3020 2606 0
-2987 -3021 2607 0
-2987 -3022 2608 0
-2987 -3023 2609 0
-2987 -3024 2610 0
-2987 -3025 2611 0
-2987 -3026 2612 0
-2987 -3027 2613 0
-2987 -3028 2614 0
-2987 -3029 2615 0
-2987 -3030 2616 0
-2988 -3002 2589 0
-2988 -3003 2590 0
-2988 -3004 2591 0
-2988 -3005 2592 0
-2988 -3006 2593 0
-2988 -3007 2594 0
-2988 -3008 2595 0
-2988 -3009 2596 0
-2988 -3010 2597 0
-2988 -3011 2598 0
-2988 -3012 2599 0
-2988 -3013 2600 0
-2988 -3014 2601 0
-2988 -3015 2602 0
-2988 -3016 2603 0
-2988 -3017 2604 0
-2988 -3018 2605 0
-2988 -3019 2606 0
-2988 -3020 2607 0
-2988 -3021 2608 0
-2988 -3022 2609 0
-2988 -3023 2610 0
-2988 -3024 2611 0
-2988 -3025 2612 0
-2988 -3026 2613 0
-2988 -3027 2614 0
-2988 -3028 2615 0
-2988 -3029 2616 0
-2988 -3030 2617 0
-2989 -3002 2590 0
-2989 -3003 2591 0
-2989 -3004 2592 0
-2989 -3005 2593 0
-2989 -3006 2594 0
-2989 -3007 2595 0
-2989 -3008 2596 0
-2989 -3009 2597 0
-2989 -3010 2598 0
-2989 -3011 2599 0
-2989 -3012 2600 0
-2989 -3013 2601 0
-2989 -3014 2602 0
-2989 -3015 2603 0
-2989 -3016 2604 0
-2989 -3017 2605 0
-2989 -3018 2606 0
-2989 -3019 2607 0
-2989 -3020 2608 0
-2989 -3021 2609 0
-2989 -3022 2610 0
-2989 -3023 2611 0
-2989 -3024 2612 0
-2989 -3025 2613 0
-2989 -3026 2614 0
-2989 -3027 2615 0
-2989 -3028 2616 0
-2989 -3029 2617 0
-2989 -3030 2618 0
-2990 -3002 2591 0
-2990 -3003 2592 0
-2990 -3004 2593 0
-2990 -3005 2594 0
-2990 -3006 2595 0
-2990 -3007 2596 0
-2990 -3008 2597 0
-2990 -3009 2598 0
-2990 -3010 2599 0
-2990 -3011 2600 0
-2990 -3012 2601 0
-2990 -3013 2602 0
-2990 -3014 2603 0
-2990 -3015 2604 0
-2990 -3016 2605 0
-2990 -3017 2606 0
-2990 -3018 2607 0
-2990 -3019 2608 0
-2990 -3020 2609 0
-2990 -3021 2610 0
-2990 -3022 2611 0
-2990 -3023 2612 0
-2990 -3024 2613 0
-2990 -3025 2614 0
-2990 -3026 2615 0
-2990 -3027 2616 0
-2990 -3028 2617 0
-2990 -3029 2618 0
-2990 -3030 2619 0
-2991 -3002 2592 0
-2991 -3003 2593 0
-2991 -3004 2594 0
-2991 -3005 2595 0
-2991 -3006 2596 0
-2991 -3007 2597 0
-2991 -3008 2598 0
-2991 -3009 2599 0
-2991 -3010 2600 0
-2991 -3011 2601 0
-2991 -3012 2602 0
-2991 -3013 2603 0
-2991 -3014 2604 0
-2991 -3015 2605 0
-2991 -3016 2606 0
-2991 -3017 2607 0
-2991 -3018 2608 0
-2991 -3019 2609 0
-2991 -3020 2610 0
-2991 -3021 2611 0
-2991 -3022 2612 0
-2991 -3023 2613 0
-2991 -3024 2614 0
-2991 -3025 2615 0
-2991 -3026 2616 0
-2991 -3027 2617 0
-2991 -3028 2618 0
-2991 -3029 2619 0
-2991 -3030 2620 0
-2992 -3002 2593 0
-2992 -3003 2594 0
-2992 -3004 2595 0
-2992 -3005 2596 0
-2992 -3006 2597 0
-2992 -3007 2598 0
-2992 -3008 2599 0
-2992 -3009 2600 0
-2992 -3010 2601 0
-2992 -3011 2602 0
-2992 -3012 2603 0
-2992 -3013 2604 0
-2992 -3014 2605 0
-2992 -3015 2606 0
-2992 -3016 2607 0
-2992 -3017 2608 0
-2992 -3018 2609 0
-2992 -3019 2610 0
-2992 -3020 2611 0
-2992 -3021 2612 0
-2992 -3022 2613 0
-2992 -3023 2614 0
-2992 -3024 2615 0
-2992 -3025 2616 0
-2992 -3026 2617 0
-2992 -3027 2618 0
-2992 -3028 2619 0
-2992 -3029 2620 0
-2992 -3030 2621 0
-2993 -3002 2594 0
-2993 -3003 2595 0
-2993 -3004 2596 0
-2993 -3005 2597 0
-2993 -3006 2598 0
-2993 -3007 2599 0
-2993 -3008 2600 0
-2993 -3009 2601 0
-2993 -3010 2602 0
-2993 -3011 2603 0
-2993 -3012 2604 0
-2993 -3013 2605 0
-2993 -3014 2606 0
-2993 -3015 2607 0
-2993 -3016 2608 0
-2993 -3017 2609 0
-2993 -3018 2610 0
-2993 -3019 2611 0
-2993 -3020 2612 0
-2993 -3021 2613 0
-2993 -3022 2614 0
-2993 -3023 2615 0
-2993 -3024 2616 0
-2993 -3025 2617 0
-2993 -3026 2618 0
-2993 -3027 2619 0
-2993 -3028 2620 0
-2993 -3029 2621 0
-2993 -3030 2622 0
-2994 -3002 2595 0
-2994 -3003 2596 0
-2994 -3004 2597 0
-2994 -3005 2598 0
-2994 -3006 2599 0
-2994 -3007 2600 0
-2994 -3008 2601 0
-2994 -3009 2602 0
-2994 -3010 2603 0
-2994 -3011 2604 0
-2994 -3012 2605 0
-2994 -3013 2606 0
-2994 -3014 2607 0
-2994 -3015 2608 0
-2994 -3016 2609 0
-2994 -3017 2610 0
-2994 -3018 2611 0
-2994 -3019 2612 0
-2994 -3020 2613 0
-2994 -3021 2614 0
-2994 -3022 2615 0
-2994 -3023 2616 0
-2994 -3024 2617 0
-2994 -3025 2618 0
-2994 -3026 2619 0
-2994 -3027 2620 0
-2994 -3028 2621 0
-2994 -3029 2622 0
-2994 -3030 2623 0
-2995 -3002 2596 0
-2995 -3003 2597 0
-2995 -3004 2598 0
-2995 -3005 2599 0
-2995 -3006 2600 0
-2995 -3007 2601 0
-2995 -3008 2602 0
-2995 -3009 2603 0
-2995 -3010 2604 0
-2995 -3011 2605 0
-2995 -3012 2606 0
-2995 -3013 2607 0
-2995 -3014 2608 0
-2995 -3015 2609 0
-2995 -3016 2610 0
-2995 -3017 2611 0
-2995 -3018 2612 0
-2995 -3019 2613 0
-2995 -3020 2614 0
-2995 -3021 2615 0
-2995 -3022 2616 0
-2995 -3023 2617 0
-2995 -3024 2618 0
-2995 -3025 2619 0
-2995 -3026 2620 0
-2995 -3027 2621 0
-2995 -3028 2622 0
-2995 -3029 2623 0
-2995 -3030 2624 0
-2996 -3002 2597 0
-2996 -3003 2598 0
-2996 -3004 2599 0
-2996 -3005 2600 0
-2996 -3006 2601 0
-2996 -3007 2602 0
-2996 -3008 2603 0
-2996 -3009 2604 0
-2996 -3010 2605 0
-2996 -3011 2606 0
-2996 -3012 2607 0
-2996 -3013 2608 0
-2996 -3014 2609 0
-2996 -3015 2610 0
-2996 -3016 2611 0
-2996 -3017 2612 0
-2996 -3018 2613 0
-2996 -3019 2614 0
-2996 -3020 2615 0
-2996 -3021 2616 0
-2996 -3022 2617 0
-2996 -3023 2618 0
-2996 -3024 2619 0
-2996 -3025 2620 0
-2996 -3026 2621 0
-2996 -3027 2622 0
-2996 -3028 2623 0
-2996 -3029 2624 0
-2996 -3030 2625 0
-2997 -3002 2598 0
-2997 -3003 2599 0
-2997 -3004 2600 0
-2997 -3005 2601 0
-2997 -3006 2602 0
-2997 -3007 2603 0
-2997 -3008 2604 0
-2997 -3009 2605 0
-2997 -3010 2606 0
-2997 -3011 2607 0
-2997 -3012 2608 0
-2997 -3013 2609 0
-2997 -3014 2610 0
-2997 -3015 2611 0
-2997 -3016 2612 0
-2997 -3017 2613 0
-2997 -3018 2614 0
-2997 -3019 2615 0
-2997 -3020 2616 0
-2997 -3021 2617 0
-2997 -3022 2618 0
-2997 -3023 2619 0
-2997 -3024 2620 0
-2997 -3025 2621 0
-2997 -3026 2622 0
-2997 -3027 2623 0
-2997 -3028 2624 0
-2997 -3029 2625 0
-2997 -3030 2626 0
-2998 -3002 2599 0
-2998 -3003 2600 0
-2998 -3004 2601 0
-2998 -3005 2602 0
-2998 -3006 2603 0
-2998 -3007 2604 0
-2998 -3008 2605 0
-2998 -3009 2606 0
-2998 -3010 2607 0
-2998 -3011 2608 0
-2998 -3012 2609 0
-2998 -3013 2610 0
-2998 -3014 2611 0
-2998 -3015 2612 0
-2998 -3016 2613 0
-2998 -3017 2614 0
-2998 -3018 2615 0
-2998 -3019 2616 0
-2998 -3020 2617 0
-2998 -3021 2618 0
-2998 -3022 2619 0
-2998 -3023 2620 0
-2998 -3024 2621 0
-2998 -3025 2622 0
-2998 -3026 2623 0
-2998 -3027 2624 0
-2998 -3028 2625 0
-2998 -3029 2626 0
-2998 -3030 2627 0
-2999 -3002 2600 0
-2999 -3003 2601 0
-2999 -3004 2602 0
-2999 -3005 2603 0
-2999 -3006 2604 0
-2999 -3007 2605 0
-2999 -3008 2606 0
-2999 -3009 2607 0
-2999 -3010 2608 0
-2999 -3011 2609 0
-2999 -3012 2610 0
-2999 -3013 2611 0
-2999 -3014 2612 0
-2999 -3015 2613 0
-2999 -3016 2614 0
-2999 -3017 2615 0
-2999 -3018 2616 0
-2999 -3019 2617 0
-2999 -3020 2618 0
-2999 -3021 2619 0
-2999 -3022 2620 0
-2999 -3023 2621 0
-2999 -3024 2622 0
-2999 -3025 2623 0
-2999 -3026 2624 0
-2999 -3027 2625 0
-2999 -3028 2626 0
-2999 -3029 2627 0
-2999 -3030 2628 0
-3000 -3002 2601 0
-3000 -3003 2602 0
-3000 -3004 2603 0
-3000 -3005 2604 0
-3000 -3006 2605 0
-3000 -3007 2606 0
-3000 -3008 2607 0
-3000 -3009 2608 0
-3000 -3010 2609 0
-3000 -3011 2610 0
-3000 -3012 2611 0
-3000 -3013 2612 0
-3000 -3014 2613 0
-3000 -3015 2614 0
-3000 -3016 2615 0
-3000 -3017 2616 0
-3000 -3018 2617 0
-3000 -3019 2618 0
-3000 -3020 2619 0
-3000 -3021 2620 0
-3000 -3022 2621 0
-3000 -3023 2622 0
-3000 -3024 2623 0
-3000 -3025 2624 0
-3000 -3026 2625 0
-3000 -3027 2626 0
-3000 -3028 2627 0
-3000 -3029 2628 0
-3000 -3030 2629 0
-3001 -3002 2602 0
-3001 -3003 2603 0
-3001 -3004 2604 0
-3001 -3005 2605 0
-3001 -3006 2606 0
-3001 -3007 2607 0
-3001 -3008 2608 0
-3001 -3009 2609 0
-3001 -3010 2610 0
-3001 -3011 2611 0
-3001 -3012 2612 0
-3001 -3013 2613 0
-3001 -3014 2614 0
-3001 -3015 2615 0
-3001 -3016 2616 0
-3001 -3017 2617 0
-3001 -3018 2618 0
-3001 -3019 2619 0
-3001 -3020 2620 0
-3001 -3021 2621 0
-3001 -3022 2622 0
-3001 -3023 2623 0
-3001 -3024 2624 0
-3001 -3025 2625 0
-3001 -3026 2626 0
-3001 -3027 2627 0
-3001 -3028 2628 0
-3001 -3029 2629 0
-3001 -3030 2630 0
-3046 3002 0
-3047 3003 0
-3048 3004 0
-3049 3005 0
-3050 3006 0
-3051 3007 0
-3052 3008 0
-3053 3009 0
-3054 3010 0
-3055 3011 0
-3056 3012 0
-3057 3013 0
-3058 3014 0
-3059 3015 0
-3031 3002 0
-3032 3003 0
-3033 3004 0
-3034 3005 0
-3035 3006 0
-3036 3007 0
-3037 3008 0
-3038 3009 0
-3039 3010 0
-3040 3011 0
-3041 3012 0
-3042 3013 0
-3043 3014 0
-3044 3015 0
-3045 3016 0
-3031 -3046 3003 0
-3031 -3047 3004 0
-3031 -3048 3005 0
-3031 -3049 3006 0
-3031 -3050 3007 0
-3031 -3051 3008 0
-3031 -3052 3009 0
-3031 -3053 3010 0
-3031 -3054 3011 0
-3031 -3055 3012 0
-3031 -3056 3013 0
-3031 -3057 3014 0
-3031 -3058 3015 0
-3031 -3059 3016 0
-3032 -3046 3004 0
-3032 -3047 3005 0
-3032 -3048 3006 0
-3032 -3049 3007 0
-3032 -3050 3008 0
-3032 -3051 3009 0
-3032 -3052 3010 0
-3032 -3053 3011 0
-3032 -3054 3012 0
-3032 -3055 3013 0
-3032 -3056 3014 0
-3032 -3057 3015 0
-3032 -3058 3016 0
-3032 -3059 3017 0
-3033 -3046 3005 0
-3033 -3047 3006 0
-3033 -3048 3007 0
-3033 -3049 3008 0
-3033 -3050 3009 0
-3033 -3051 3010 0
-3033 -3052 3011 0
-3033 -3053 3012 0
-3033 -3054 3013 0
-3033 -3055 3014 0
-3033 -3056 3015 0
-3033 -3057 3016 0
-3033 -3058 3017 0
-3033 -3059 3018 0
-3034 -3046 3006 0
-3034 -3047 3007 0
-3034 -3048 3008 0
-3034 -3049 3009 0
-3034 -3050 3010 0
-3034 -3051 3011 0
-3034 -3052 3012 0
-3034 -3053 3013 0
-3034 -3054 3014 0
-3034 -3055 3015 0
-3034 -3056 3016 0
-3034 -3057 3017 0
-3034 -3058 3018 0
-3034 -3059 3019 0
-3035 -3046 3007 0
-3035 -3047 3008 0
-3035 -3048 3009 0
-3035 -3049 3010 0
-3035 -3050 3011 0
-3035 -3051 3012 0
-3035 -3052 3013 0
-3035 -3053 3014 0
-3035 -3054 3015 0
-3035 -3055 3016 0
-3035 -3056 3017 0
-3035 -3057 3018 0
-3035 -3058 3019 0
-3035 -3059 3020 0
-3036 -3046 3008 0
-3036 -3047 3009 0
-3036 -3048 3010 0
-3036 -3049 3011 0
-3036 -3050 3012 0
-3036 -3051 3013 0
-3036 -3052 3014 0
-3036 -3053 3015 0
-3036 -3054 3016 0
-3036 -3055 3017 0
-3036 -3056 3018 0
-3036 -3057 3019 0
-3036 -3058 3020 0
-3036 -3059 3021 0
-3037 -3046 3009 0
-3037 -3047 3010 0
-3037 -3048 3011 0
-3037 -3049 3012 0
-3037 -3050 3013 0
-3037 -3051 3014 0
-3037 -3052 3015 0
-3037 -3053 3016 0
-3037 -3054 3017 0
-3037 -3055 3018 0
-3037 -3056 3019 0
-3037 -3057 3020 0
-3037 -3058 3021 0
-3037 -3059 3022 0
-3038 -3046 3010 0
-3038 -3047 3011 0
-3038 -3048 3012 0
-3038 -3049 3013 0
-3038 -3050 3014 0
-3038 -3051 3015 0
-3038 -3052 3016 0
-3038 -3053 3017 0
-3038 -3054 3018 0
-3038 -3055 3019 0
-3038 -3056 3020 0
-3038 -3057 3021 0
-3038 -3058 3022 0
-3038 -3059 3023 0
-3039 -3046 3011 0
-3039 -3047 3012 0
-3039 -3048 3013 0
-3039 -3049 3014 0
-3039 -3050 3015 0
-3039 -3051 3016 0
-3039 -3052 3017 0
-3039 -3053 3018 0
-3039 -3054 3019 0
-3039 -3055 3020 0
-3039 -3056 3021 0
-3039 -3057 3022 0
-3039 -3058 3023 0
-3039 -3059 3024 0
-3040 -3046 3012 0
-3040 -3047 3013 0
-3040 -3048 3014 0
-3040 -3049 3015 0
-3040 -3050 3016 0
-3040 -3051 3017 0
-3040 -3052 3018 0
-3040 -3053 3019 0
-3040 -3054 3020 0
-3040 -3055 3021 0
-3040 -3056 3022 0
-3040 -3057 3023 0
-3040 -3058 3024 0
-3040 -3059 3025 0
-3041 -3046 3013 0
-3041 -3047 3014 0
-3041 -3048 3015 0
-3041 -3049 3016 0
-3041 -3050 3017 0
-3041 -3051 3018 0
-3041 -3052 3019 0
-3041 -3053 3020 0
-3041 -3054 3021 0
-3041 -3055 3022 0
-3041 -3056 3023 0
-3041 -3057 3024 0
-3041 -3058 3025 0
-3041 -3059 3026 0
-3042 -3046 3014 0
-3042 -3047 3015 0
-3042 -3048 3016 0
-3042 -3049 3017 0
-3042 -3050 3018 0
-3042 -3051 3019 0
-3042 -3052 3020 0
-3042 -3053 3021 0
-3042 -3054 3022 0
-3042 -3055 3023 0
-3042 -3056 3024 0
-3042 -3057 3025 0
-3042 -3058 3026 0
-3042 -3059 3027 0
-3043 -3046 3015 0
-3043 -3047 3016 0
-3043 -3048 3017 0
-3043 -3049 3018 0
-3043 -3050 3019 0
-3043 -3051 3020 0
-3043 -3052 3021 0
-3043 -3053 3022 0
-3043 -3054 3023 0
-3043 -3055 3024 0
-3043 -3056 3025 0
-3043 -3057 3026 0
-3043 -3058 3027 0
-3043 -3059 3028 0
-3044 -3046 3016 0
-3044 -3047 3017 0
-3044 -3048 3018 0
-3044 -3049 3019 0
-3044 -3050 3020 0
-3044 -3051 3021 0
-3044 -3052 3022 0
-3044 -3053 3023 0
-3044 -3054 3024 0
-3044 -3055 3025 0
-3044 -3056 3026 0
-3044 -3057 3027 0
-3044 -3058 3028 0
-3044 -3059 3029 0
-3045 -3046 3017 0
-3045 -3047 3018 0
-3045 -3048 3019 0
-3045 -3049 3020 0
-3045 -3050 3021 0
-3045 -3051 3022 0
-3045 -3052 3023 0
-3045 -3053 3024 0
-3045 -3054 3025 0
-3045 -3055 3026 0
-3045 -3056 3027 0
-3045 -3057 3028 0
-3045 -3058 3029 0
-3045 -3059 3030 0
-3067 3046 0
-3068 3047 0
-3069 3048 0
-3070 3049 0
-3071 3050 0
-3072 3051 0
-3073 3052 0
-3060 3046 0
-3061 3047 0
-3062 3048 0
-3063 3049 0
-3064 3050 0
-3065 3051 0
-3066 3052 0
-3060 -3067 3047 0
-3060 -3068 3048 0
-3060 -3069 3049 0
-3060 -3070 3050 0
-3060 -3071 3051 0
-3060 -3072 3052 0
-3060 -3073 3053 0
-3061 -3067 3048 0
-3061 -3068 3049 0
-3061 -3069 3050 0
-3061 -3070 3051 0
-3061 -3071 3052 0
-3061 -3072 3053 0
-3061 -3073 3054 0
-3062 -3067 3049 0
-3062 -3068 3050 0
-3062 -3069 3051 0
-3062 -3070 3052 0
-3062 -3071 3053 0
-3062 -3072 3054 0
-3062 -3073 3055 0
-3063 -3067 3050 0
-3063 -3068 3051 0
-3063 -3069 3052 0
-3063 -3070 3053 0
-3063 -3071 3054 0
-3063 -3072 3055 0
-3063 -3073 3056 0
-3064 -3067 3051 0
-3064 -3068 3052 0
-3064 -3069 3053 0
-3064 -3070 3054 0
-3064 -3071 3055 0
-3064 -3072 3056 0
-3064 -3073 3057 0
-3065 -3067 3052 0
-3065 -3068 3053 0
-3065 -3069 3054 0
-3065 -3070 3055 0
-3065 -3071 3056 0
-3065 -3072 3057 0
-3065 -3073 3058 0
-3066 -3067 3053 0
-3066 -3068 3054 0
-3066 -3069 3055 0
-3066 -3070 3056 0
-3066 -3071 3057 0
-3066 -3072 3058 0
-3066 -3073 3059 0
-3078 3067 0
-3079 3068 0
-3080 3069 0
-3074 3067 0
-3075 3068 0
-3076 3069 0
-3077 3070 0
-3074 -3078 3068 0
-3074 -3079 3069 0
-3074 -3080 3070 0
-3075 -3078 3069 0
-3075 -3079 3070 0
-3075 -3080 3071 0
-3076 -3078 3070 0
-3076 -3079 3071 0
-3076 -3080 3072 0
-3077 -3078 3071 0
-3077 -3079 3072 0
-3077 -3080 3073 0
-274 3078 0
-3081 3078 0
-3082 3079 0
-3081 -274 3079 0
-3082 -274 3080 0
-273 3081 0
-272 3081 0
-272 -273 3082 0
-3085 3074 0
-3086 3075 0
-3083 3074 0
-3084 3075 0
-3083 -3085 3075 0
-3083 -3086 3076 0
-3084 -3085 3076 0
-3084 -3086 3077 0
-271 3085 0
-270 3085 0
-270 -271 3086 0
-269 3083 0
-268 3083 0
-268 -269 3084 0
-3091 3060 0
-3092 3061 0
-3093 3062 0
-3087 3060 0
-3088 3061 0
-3089 3062 0
-3090 3063 0
-3087 -3091 3061 0
-3087 -3092 3062 0
-3087 -3093 3063 0
-3088 -3091 3062 0
-3088 -3092 3063 0
-3088 -3093 3064 0
-3089 -3091 3063 0
-3089 -3092 3064 0
-3089 -3093 3065 0
-3090 -3091 3064 0
-3090 -3092 3065 0
-3090 -3093 3066 0
-267 3091 0
-3094 3091 0
-3095 3092 0
-3094 -267 3092 0
-3095 -267 3093 0
-266 3094 0
-265 3094 0
-265 -266 3095 0
-3098 3087 0
-3099 3088 0
-3096 3087 0
-3097 3088 0
-3096 -3098 3088 0
-3096 -3099 3089 0
-3097 -3098 3089 0
-3097 -3099 3090 0
-264 3098 0
-263 3098 0
-263 -264 3099 0
-262 3096 0
-261 3096 0
-261 -262 3097 0
-3108 3031 0
-3109 3032 0
-3110 3033 0
-3111 3034 0
-3112 3035 0
-3113 3036 0
-3114 3037 0
-3100 3031 0
-3101 3032 0
-3102 3033 0
-3103 3034 0
-3104 3035 0
-3105 3036 0
-3106 3037 0
-3107 3038 0
-3100 -3108 3032 0
-3100 -3109 3033 0
-3100 -3110 3034 0
-3100 -3111 3035 0
-3100 -3112 3036 0
-3100 -3113 3037 0
-3100 -3114 3038 0
-3101 -3108 3033 0
-3101 -3109 3034 0
-3101 -3110 3035 0
-3101 -3111 3036 0
-3101 -3112 3037 0
-3101 -3113 3038 0
-3101 -3114 3039 0
-3102 -3108 3034 0
-3102 -3109 3035 0
-3102 -3110 3036 0
-3102 -3111 3037 0
-3102 -3112 3038 0
-3102 -3113 3039 0
-3102 -3114 3040 0
-3103 -3108 3035 0
-3103 -3109 3036 0
-3103 -3110 3037 0
-3103 -3111 3038 0
-3103 -3112 3039 0
-3103 -3113 3040 0
-3103 -3114 3041 0
-3104 -3108 3036 0
-3104 -3109 3037 0
-3104 -3110 3038 0
-3104 -3111 3039 0
-3104 -3112 3040 0
-3104 -3113 3041 0
-3104 -3114 3042 0
-3105 -3108 3037 0
-3105 -3109 3038 0
-3105 -3110 3039 0
-3105 -3111 3040 0
-3105 -3112 3041 0
-3105 -3113 3042 0
-3105 -3114 3043 0
-3106 -3108 3038 0
-3106 -3109 3039 0
-3106 -3110 3040 0
-3106 -3111 3041 0
-3106 -3112 3042 0
-3106 -3113 3043 0
-3106 -3114 3044 0
-3107 -3108 3039 0
-3107 -3109 3040 0
-3107 -3110 3041 0
-3107 -3111 3042 0
-3107 -3112 3043 0
-3107 -3113 3044 0
-3107 -3114 3045 0
-3119 3108 0
-3120 3109 0
-3121 3110 0
-3115 3108 0
-3116 3109 0
-3117 3110 0
-3118 3111 0
-3115 -3119 3109 0
-3115 -3120 3110 0
-3115 -3121 3111 0
-3116 -3119 3110 0
-3116 -3120 3111 0
-3116 -3121 3112 0
-3117 -3119 3111 0
-3117 -3120 3112 0
-3117 -3121 3113 0
-3118 -3119 3112 0
-3118 -3120 3113 0
-3118 -3121 3114 0
-260 3119 0
-3122 3119 0
-3123 3120 0
-3122 -260 3120 0
-3123 -260 3121 0
-259 3122 0
-258 3122 0
-258 -259 3123 0
-3126 3115 0
-3127 3116 0
-3124 3115 0
-3125 3116 0
-3124 -3126 3116 0
-3124 -3127 3117 0
-3125 -3126 3117 0
-3125 -3127 3118 0
-257 3126 0
-256 3126 0
-256 -257 3127 0
-255 3124 0
-254 3124 0
-254 -255 3125 0
-3132 3100 0
-3133 3101 0
-3134 3102 0
-3135 3103 0
-3128 3100 0
-3129 3101 0
-3130 3102 0
-3131 3103 0
-3128 -3132 3101 0
-3128 -3133 3102 0
-3128 -3134 3103 0
-3128 -3135 3104 0
-3129 -3132 3102 0
-3129 -3133 3103 0
-3129 -3134 3104 0
-3129 -3135 3105 0
-3130 -3132 3103 0
-3130 -3133 3104 0
-3130 -3134 3105 0
-3130 -3135 3106 0
-3131 -3132 3104 0
-3131 -3133 3105 0
-3131 -3134 3106 0
-3131 -3135 3107 0
-3138 3132 0
-3139 3133 0
-3136 3132 0
-3137 3133 0
-3136 -3138 3133 0
-3136 -3139 3134 0
-3137 -3138 3134 0
-3137 -3139 3135 0
-253 3138 0
-252 3138 0
-252 -253 3139 0
-251 3136 0
-250 3136 0
-250 -251 3137 0
-3142 3128 0
-3143 3129 0
-3140 3128 0
-3141 3129 0
-3140 -3142 3129 0
-3140 -3143 3130 0
-3141 -3142 3130 0
-3141 -3143 3131 0
-249 3142 0
-248 3142 0
-248 -249 3143 0
-247 3140 0
-246 3140 0
-246 -247 3141 0
-3159 2973 0
-3160 2974 0
-3161 2975 0
-3162 2976 0
-3163 2977 0
-3164 2978 0
-3165 2979 0
-3166 2980 0
-3167 2981 0
-3168 2982 0
-3169 2983 0
-3170 2984 0
-3171 2985 0
-3172 2986 0
-3144 2973 0
-3145 2974 0
-3146 2975 0
-3147 2976 0
-3148 2977 0
-3149 2978 0
-3150 2979 0
-3151 2980 0
-3152 2981 0
-3153 2982 0
-3154 2983 0
-3155 2984 0
-3156 2985 0
-3157 2986 0
-3158 2987 0
-3144 -3159 2974 0
-3144 -3160 2975 0
-3144 -3161 2976 0
-3144 -3162 2977 0
-3144 -3163 2978 0
-3144 -3164 2979 0
-3144 -3165 2980 0
-3144 -3166 2981 0
-3144 -3167 2982 0
-3144 -3168 2983 0
-3144 -3169 2984 0
-3144 -3170 2985 0
-3144 -3171 2986 0
-3144 -3172 2987 0
-3145 -3159 2975 0
-3145 -3160 2976 0
-3145 -3161 2977 0
-3145 -3162 2978 0
-3145 -3163 2979 0
-3145 -3164 2980 0
-3145 -3165 2981 0
-3145 -3166 2982 0
-3145 -3167 2983 0
-3145 -3168 2984 0
-3145 -3169 2985 0
-3145 -3170 2986 0
-3145 -3171 2987 0
-3145 -3172 2988 0
-3146 -3159 2976 0
-3146 -3160 2977 0
-3146 -3161 2978 0
-3146 -3162 2979 0
-3146 -3163 2980 0
-3146 -3164 2981 0
-3146 -3165 2982 0
-3146 -3166 2983 0
-3146 -3167 2984 0
-3146 -3168 2985 0
-3146 -3169 2986 0
-3146 -3170 2987 0
-3146 -3171 2988 0
-3146 -3172 2989 0
-3147 -3159 2977 0
-3147 -3160 2978 0
-3147 -3161 2979 0
-3147 -3162 2980 0
-3147 -3163 2981 0
-3147 -3164 2982 0
-3147 -3165 2983 0
-3147 -3166 2984 0
-3147 -3167 2985 0
-3147 -3168 2986 0
-3147 -3169 2987 0
-3147 -3170 2988 0
-3147 -3171 2989 0
-3147 -3172 2990 0
-3148 -3159 2978 0
-3148 -3160 2979 0
-3148 -3161 2980 0
-3148 -3162 2981 0
-3148 -3163 2982 0
-3148 -3164 2983 0
-3148 -3165 2984 0
-3148 -3166 2985 0
-3148 -3167 2986 0
-3148 -3168 2987 0
-3148 -3169 2988 0
-3148 -3170 2989 0
-3148 -3171 2990 0
-3148 -3172 2991 0
-3149 -3159 2979 0
-3149 -3160 2980 0
-3149 -3161 2981 0
-3149 -3162 2982 0
-3149 -3163 2983 0
-3149 -3164 2984 0
-3149 -3165 2985 0
-3149 -3166 2986 0
-3149 -3167 2987 0
-3149 -3168 2988 0
-3149 -3169 2989 0
-3149 -3170 2990 0
-3149 -3171 2991 0
-3149 -3172 2992 0
-3150 -3159 2980 0
-3150 -3160 2981 0
-3150 -3161 2982 0
-3150 -3162 2983 0
-3150 -3163 2984 0
-3150 -3164 2985 0
-3150 -3165 2986 0
-3150 -3166 2987 0
-3150 -3167 2988 0
-3150 -3168 2989 0
-3150 -3169 2990 0
-3150 -3170 2991 0
-3150 -3171 2992 0
-3150 -3172 2993 0
-3151 -3159 2981 0
-3151 -3160 2982 0
-3151 -3161 2983 0
-3151 -3162 2984 0
-3151 -3163 2985 0
-3151 -3164 2986 0
-3151 -3165 2987 0
-3151 -3166 2988 0
-3151 -3167 2989 0
-3151 -3168 2990 0
-3151 -3169 2991 0
-3151 -3170 2992 0
-3151 -3171 2993 0
-3151 -3172 2994 0
-3152 -3159 2982 0
-3152 -3160 2983 0
-3152 -3161 2984 0
-3152 -3162 2985 0
-3152 -3163 2986 0
-3152 -3164 2987 0
-3152 -3165 2988 0
-3152 -3166 2989 0
-3152 -3167 2990 0
-3152 -3168 2991 0
-3152 -3169 2992 0
-3152 -3170 2993 0
-3152 -3171 2994 0
-3152 -3172 2995 0
-3153 -3159 2983 0
-3153 -3160 2984 0
-3153 -3161 2985 0
-3153 -3162 2986 0
-3153 -3163 2987 0
-3153 -3164 2988 0
-3153 -3165 2989 0
-3153 -3166 2990 0
-3153 -3167 2991 0
-3153 -3168 2992 0
-3153 -3169 2993 0
-3153 -3170 2994 0
-3153 -3171 2995 0
-3153 -3172 2996 0
-3154 -3159 2984 0
-3154 -3160 2985 0
-3154 -3161 2986 0
-3154 -3162 2987 0
-3154 -3163 2988 0
-3154 -3164 2989 0
-3154 -3165 2990 0
-3154 -3166 2991 0
-3154 -3167 2992 0
-3154 -3168 2993 0
-3154 -3169 2994 0
-3154 -3170 2995 0
-3154 -3171 2996 0
-3154 -3172 2997 0
-3155 -3159 2985 0
-3155 -3160 2986 0
-3155 -3161 2987 0
-3155 -3162 2988 0
-3155 -3163 2989 0
-3155 -3164 2990 0
-3155 -3165 2991 0
-3155 -3166 2992 0
-3155 -3167 2993 0
-3155 -3168 2994 0
-3155 -3169 2995 0
-3155 -3170 2996 0
-3155 -3171 2997 0
-3155 -3172 2998 0
-3156 -3159 2986 0
-3156 -3160 2987 0
-3156 -3161 2988 0
-3156 -3162 2989 0
-3156 -3163 2990 0
-3156 -3164 2991 0
-3156 -3165 2992 0
-3156 -3166 2993 0
-3156 -3167 2994 0
-3156 -3168 2995 0
-3156 -3169 2996 0
-3156 -3170 2997 0
-3156 -3171 2998 0
-3156 -3172 2999 0
-3157 -3159 2987 0
-3157 -3160 2988 0
-3157 -3161 2989 0
-3157 -3162 2990 0
-3157 -3163 2991 0
-3157 -3164 2992 0
-3157 -3165 2993 0
-3157 -3166 2994 0
-3157 -3167 2995 0
-3157 -3168 2996 0
-3157 -3169 2997 0
-3157 -3170 2998 0
-3157 -3171 2999 0
-3157 -3172 3000 0
-3158 -3159 2988 0
-3158 -3160 2989 0
-3158 -3161 2990 0
-3158 -3162 2991 0
-3158 -3163 2992 0
-3158 -3164 2993 0
-3158 -3165 2994 0
-3158 -3166 2995 0
-3158 -3167 2996 0
-3158 -3168 2997 0
-3158 -3169 2998 0
-3158 -3170 2999 0
-3158 -3171 3000 0
-3158 -3172 3001 0
-3180 3159 0
-3181 3160 0
-3182 3161 0
-3183 3162 0
-3184 3163 0
-3185 3164 0
-3186 3165 0
-3173 3159 0
-3174 3160 0
-3175 3161 0
-3176 3162 0
-3177 3163 0
-3178 3164 0
-3179 3165 0
-3173 -3180 3160 0
-3173 -3181 3161 0
-3173 -3182 3162 0
-3173 -3183 3163 0
-3173 -3184 3164 0
-3173 -3185 3165 0
-3173 -3186 3166 0
-3174 -3180 3161 0
-3174 -3181 3162 0
-3174 -3182 3163 0
-3174 -3183 3164 0
-3174 -3184 3165 0
-3174 -3185 3166 0
-3174 -3186 3167 0
-3175 -3180 3162 0
-3175 -3181 3163 0
-3175 -3182 3164 0
-3175 -3183 3165 0
-3175 -3184 3166 0
-3175 -3185 3167 0
-3175 -3186 3168 0
-3176 -3180 3163 0
-3176 -3181 3164 0
-3176 -3182 3165 0
-3176 -3183 3166 0
-3176 -3184 3167 0
-3176 -3185 3168 0
-3176 -3186 3169 0
-3177 -3180 3164 0
-3177 -3181 3165 0
-3177 -3182 3166 0
-3177 -3183 3167 0
-3177 -3184 3168 0
-3177 -3185 3169 0
-3177 -3186 3170 0
-3178 -3180 3165 0
-3178 -3181 3166 0
-3178 -3182 3167 0
-3178 -3183 3168 0
-3178 -3184 3169 0
-3178 -3185 3170 0
-3178 -3186 3171 0
-3179 -3180 3166 0
-3179 -3181 3167 0
-3179 -3182 3168 0
-3179 -3183 3169 0
-3179 -3184 3170 0
-3179 -3185 3171 0
-3179 -3186 3172 0
-3191 3180 0
-3192 3181 0
-3193 3182 0
-3187 3180 0
-3188 3181 0
-3189 3182 0
-3190 3183 0
-3187 -3191 3181 0
-3187 -3192 3182 0
-3187 -3193 3183 0
-3188 -3191 3182 0
-3188 -3192 3183 0
-3188 -3193 3184 0
-3189 -3191 3183 0
-3189 -3192 3184 0
-3189 -3193 3185 0
-3190 -3191 3184 0
-3190 -3192 3185 0
-3190 -3193 3186 0
-245 3191 0
-3194 3191 0
-3195 3192 0
-3194 -245 3192 0
-3195 -245 3193 0
-244 3194 0
-243 3194 0
-243 -244 3195 0
-3198 3187 0
-3199 3188 0
-3196 3187 0
-3197 3188 0
-3196 -3198 3188 0
-3196 -3199 3189 0
-3197 -3198 3189 0
-3197 -3199 3190 0
-242 3198 0
-241 3198 0
-241 -242 3199 0
-240 3196 0
-239 3196 0
-239 -240 3197 0
-3204 3173 0
-3205 3174 0
-3206 3175 0
-3200 3173 0
-3201 3174 0
-3202 3175 0
-3203 3176 0
-3200 -3204 3174 0
-3200 -3205 3175 0
-3200 -3206 3176 0
-3201 -3204 3175 0
-3201 -3205 3176 0
-3201 -3206 3177 0
-3202 -3204 3176 0
-3202 -3205 3177 0
-3202 -3206 3178 0
-3203 -3204 3177 0
-3203 -3205 3178 0
-3203 -3206 3179 0
-238 3204 0
-3207 3204 0
-3208 3205 0
-3207 -238 3205 0
-3208 -238 3206 0
-237 3207 0
-236 3207 0
-236 -237 3208 0
-3211 3200 0
-3212 3201 0
-3209 3200 0
-3210 3201 0
-3209 -3211 3201 0
-3209 -3212 3202 0
-3210 -3211 3202 0
-3210 -3212 3203 0
-235 3211 0
-234 3211 0
-234 -235 3212 0
-233 3209 0
-232 3209 0
-232 -233 3210 0
-3221 3144 0
-3222 3145 0
-3223 3146 0
-3224 3147 0
-3225 3148 0
-3226 3149 0
-3227 3150 0
-3213 3144 0
-3214 3145 0
-3215 3146 0
-3216 3147 0
-3217 3148 0
-3218 3149 0
-3219 3150 0
-3220 3151 0
-3213 -3221 3145 0
-3213 -3222 3146 0
-3213 -3223 3147 0
-3213 -3224 3148 0
-3213 -3225 3149 0
-3213 -3226 3150 0
-3213 -3227 3151 0
-3214 -3221 3146 0
-3214 -3222 3147 0
-3214 -3223 3148 0
-3214 -3224 3149 0
-3214 -3225 3150 0
-3214 -3226 3151 0
-3214 -3227 3152 0
-3215 -3221 3147 0
-3215 -3222 3148 0
-3215 -3223 3149 0
-3215 -3224 3150 0
-3215 -3225 3151 0
-3215 -3226 3152 0
-3215 -3227 3153 0
-3216 -3221 3148 0
-3216 -3222 3149 0
-3216 -3223 3150 0
-3216 -3224 3151 0
-3216 -3225 3152 0
-3216 -3226 3153 0
-3216 -3227 3154 0
-3217 -3221 3149 0
-3217 -3222 3150 0
-3217 -3223 3151 0
-3217 -3224 3152 0
-3217 -3225 3153 0
-3217 -3226 3154 0
-3217 -3227 3155 0
-3218 -3221 3150 0
-3218 -3222 3151 0
-3218 -3223 3152 0
-3218 -3224 3153 0
-3218 -3225 3154 0
-3218 -3226 3155 0
-3218 -3227 3156 0
-3219 -3221 3151 0
-3219 -3222 3152 0
-3219 -3223 3153 0
-3219 -3224 3154 0
-3219 -3225 3155 0
-3219 -3226 3156 0
-3219 -3227 3157 0
-3220 -3221 3152 0
-3220 -3222 3153 0
-3220 -3223 3154 0
-3220 -3224 3155 0
-3220 -3225 3156 0
-3220 -3226 3157 0
-3220 -3227 3158 0
-3232 3221 0
-3233 3222 0
-3234 3223 0
-3228 3221 0
-3229 3222 0
-3230 3223 0
-3231 3224 0
-3228 -3232 3222 0
-3228 -3233 3223 0
-3228 -3234 3224 0
-3229 -3232 3223 0
-3229 -3233 3224 0
-3229 -3234 3225 0
-3230 -3232 3224 0
-3230 -3233 3225 0
-3230 -3234 3226 0
-3231 -3232 3225 0
-3231 -3233 3226 0
-3231 -3234 3227 0
-231 3232 0
-3235 3232 0
-3236 3233 0
-3235 -231 3233 0
-3236 -231 3234 0
-230 3235 0
-229 3235 0
-229 -230 3236 0
-3239 3228 0
-3240 3229 0
-3237 3228 0
-3238 3229 0
-3237 -3239 3229 0
-3237 -3240 3230 0
-3238 -3239 3230 0
-3238 -3240 3231 0
-228 3239 0
-227 3239 0
-227 -228 3240 0
-226 3237 0
-225 3237 0
-225 -226 3238 0
-3245 3213 0
-3246 3214 0
-3247 3215 0
-3248 3216 0
-3241 3213 0
-3242 3214 0
-3243 3215 0
-3244 3216 0
-3241 -3245 3214 0
-3241 -3246 3215 0
-3241 -3247 3216 0
-3241 -3248 3217 0
-3242 -3245 3215 0
-3242 -3246 3216 0
-3242 -3247 3217 0
-3242 -3248 3218 0
-3243 -3245 3216 0
-3243 -3246 3217 0
-3243 -3247 3218 0
-3243 -3248 3219 0
-3244 -3245 3217 0
-3244 -3246 3218 0
-3244 -3247 3219 0
-3244 -3248 3220 0
-3251 3245 0
-3252 3246 0
-3249 3245 0
-3250 3246 0
-3249 -3251 3246 0
-3249 -3252 3247 0
-3250 -3251 3247 0
-3250 -3252 3248 0
1424 3251 0
1302 3251 0
1302 1424 3252 0
1180 3249 0
1058 3249 0
1058 1180 3250 0
-3255 3241 0
-3256 3242 0
-3253 3241 0
-3254 3242 0
-3253 -3255 3242 0
-3253 -3256 3243 0
-3254 -3255 3243 0
-3254 -3256 3244 0
936 3255 0
814 3255 0
814 936 3256 0
692 3253 0
570 3253 0
570 692 3254 0
-1440 0
