p cnf 4648 13182
-1 -2 -3 0
-1 -2 -4 0
-1 -3 -4 0
-2 -3 -4 0
2 3 4 0
1 3 4 0
1 2 4 0
1 2 3 0
-5 -6 -7 0
-5 -6 -8 0
-5 -7 -8 0
-6 -7 -8 0
6 7 8 0
5 7 8 0
5 6 8 0
5 6 7 0
-9 -10 -11 0
-9 -10 -12 0
-9 -11 -12 0
-10 -11 -12 0
10 11 12 0
9 11 12 0
9 10 12 0
9 10 11 0
-13 -14 -15 0
-13 -14 -16 0
-13 -15 -16 0
-14 -15 -16 0
14 15 16 0
13 15 16 0
13 14 16 0
13 14 15 0
-17 -18 -19 0
-17 -18 -20 0
-17 -19 -20 0
-18 -19 -20 0
18 19 20 0
17 19 20 0
17 18 20 0
17 18 19 0
-21 -22 -23 0
-21 -22 -24 0
-21 -23 -24 0
-22 -23 -24 0
22 23 24 0
21 23 24 0
21 22 24 0
21 22 23 0
-25 -26 -27 0
-25 -26 -28 0
-25 -27 -28 0
-26 -27 -28 0
26 27 28 0
25 27 28 0
25 26 28 0
25 26 27 0
-29 -30 -31 0
-29 -30 -32 0
-29 -31 -32 0
-30 -31 -32 0
30 31 32 0
29 31 32 0
29 30 32 0
29 30 31 0
-10 -25 -33 0
-10 -25 -34 0
-10 -25 -35 0
-10 -25 -36 0
-10 -33 -34 0
-10 -33 -35 0
-10 -33 -36 0
-10 -34 -35 0
-10 -34 -36 0
-10 -35 -36 0
-25 -33 -34 0
-25 -33 -35 0
-25 -33 -36 0
-25 -34 -35 0
-25 -34 -36 0
-25 -35 -36 0
-33 -34 -35 0
-33 -34 -36 0
-33 -35 -36 0
-34 -35 -36 0
25 33 34 35 36 0
10 33 34 35 36 0
10 25 34 35 36 0
10 25 33 35 36 0
10 25 33 34 36 0
10 25 33 34 35 0
-14 -29 -37 0
-14 -29 -38 0
-14 -29 -39 0
-14 -29 -40 0
-14 -37 -38 0
-14 -37 -39 0
-14 -37 -40 0
-14 -38 -39 0
-14 -38 -40 0
-14 -39 -40 0
-29 -37 -38 0
-29 -37 -39 0
-29 -37 -40 0
-29 -38 -39 0
-29 -38 -40 0
-29 -39 -40 0
-37 -38 -39 0
-37 -38 -40 0
-37 -39 -40 0
-38 -39 -40 0
29 37 38 39 40 0
14 37 38 39 40 0
14 29 38 39 40 0
14 29 37 39 40 0
14 29 37 38 40 0
14 29 37 38 39 0
-1 -18 -41 0
-1 -18 -42 0
-1 -18 -43 0
-1 -18 -44 0
-1 -41 -42 0
-1 -41 -43 0
-1 -41 -44 0
-1 -42 -43 0
-1 -42 -44 0
-1 -43 -44 0
-18 -41 -42 0
-18 -41 -43 0
-18 -41 -44 0
-18 -42 -43 0
-18 -42 -44 0
-18 -43 -44 0
-41 -42 -43 0
-41 -42 -44 0
-41 -43 -44 0
-42 -43 -44 0
18 41 42 43 44 0
1 41 42 43 44 0
1 18 42 43 44 0
1 18 41 43 44 0
1 18 41 42 44 0
1 18 41 42 43 0
-5 -22 -45 0
-5 -22 -46 0
-5 -22 -47 0
-5 -22 -48 0
-5 -45 -46 0
-5 -45 -47 0
-5 -45 -48 0
-5 -46 -47 0
-5 -46 -48 0
-5 -47 -48 0
-22 -45 -46 0
-22 -45 -47 0
-22 -45 -48 0
-22 -46 -47 0
-22 -46 -48 0
-22 -47 -48 0
-45 -46 -47 0
-45 -46 -48 0
-45 -47 -48 0
-46 -47 -48 0
22 45 46 47 48 0
5 45 46 47 48 0
5 22 46 47 48 0
5 22 45 47 48 0
5 22 45 46 48 0
5 22 45 46 47 0
-9 -26 -49 0
-9 -26 -50 0
-9 -26 -51 0
-9 -26 -52 0
-9 -49 -50 0
-9 -49 -51 0
-9 -49 -52 0
-9 -50 -51 0
-9 -50 -52 0
-9 -51 -52 0
-26 -49 -50 0
-26 -49 -51 0
-26 -49 -52 0
-26 -50 -51 0
-26 -50 -52 0
-26 -51 -52 0
-49 -50 -51 0
-49 -50 -52 0
-49 -51 -52 0
-50 -51 -52 0
26 49 50 51 52 0
9 49 50 51 52 0
9 26 50 51 52 0
9 26 49 51 52 0
9 26 49 50 52 0
9 26 49 50 51 0
-13 -30 -53 0
-13 -30 -54 0
-13 -30 -55 0
-13 -30 -56 0
-13 -53 -54 0
-13 -53 -55 0
-13 -53 -56 0
-13 -54 -55 0
-13 -54 -56 0
-13 -55 -56 0
-30 -53 -54 0
-30 -53 -55 0
-30 -53 -56 0
-30 -54 -55 0
-30 -54 -56 0
-30 -55 -56 0
-53 -54 -55 0
-53 -54 -56 0
-53 -55 -56 0
-54 -55 -56 0
30 53 54 55 56 0
13 53 54 55 56 0
13 30 54 55 56 0
13 30 53 55 56 0
13 30 53 54 56 0
13 30 53 54 55 0
-2 -17 -57 0
-2 -17 -58 0
-2 -17 -59 0
-2 -17 -60 0
-2 -57 -58 0
-2 -57 -59 0
-2 -57 -60 0
-2 -58 -59 0
-2 -58 -60 0
-2 -59 -60 0
-17 -57 -58 0
-17 -57 -59 0
-17 -57 -60 0
-17 -58 -59 0
-17 -58 -60 0
-17 -59 -60 0
-57 -58 -59 0
-57 -58 -60 0
-57 -59 -60 0
-58 -59 -60 0
17 57 58 59 60 0
2 57 58 59 60 0
2 17 58 59 60 0
2 17 57 59 60 0
2 17 57 58 60 0
2 17 57 58 59 0
-6 -21 -61 0
-6 -21 -62 0
-6 -21 -63 0
-6 -21 -64 0
-6 -61 -62 0
-6 -61 -63 0
-6 -61 -64 0
-6 -62 -63 0
-6 -62 -64 0
-6 -63 -64 0
-21 -61 -62 0
-21 -61 -63 0
-21 -61 -64 0
-21 -62 -63 0
-21 -62 -64 0
-21 -63 -64 0
-61 -62 -63 0
-61 -62 -64 0
-61 -63 -64 0
-62 -63 -64 0
21 61 62 63 64 0
6 61 62 63 64 0
6 21 62 63 64 0
6 21 61 63 64 0
6 21 61 62 64 0
6 21 61 62 63 0
-8 -31 -42 0
-8 -31 -57 0
-8 -31 -65 0
-8 -31 -66 0
-8 -31 -67 0
-8 -31 -68 0
-8 -42 -57 0
-8 -42 -65 0
-8 -42 -66 0
-8 -42 -67 0
-8 -42 -68 0
-8 -57 -65 0
-8 -57 -66 0
-8 -57 -67 0
-8 -57 -68 0
-8 -65 -66 0
-8 -65 -67 0
-8 -65 -68 0
-8 -66 -67 0
-8 -66 -68 0
-8 -67 -68 0
-31 -42 -57 0
-31 -42 -65 0
-31 -42 -66 0
-31 -42 -67 0
-31 -42 -68 0
-31 -57 -65 0
-31 -57 -66 0
-31 -57 -67 0
-31 -57 -68 0
-31 -65 -66 0
-31 -65 -67 0
-31 -65 -68 0
-31 -66 -67 0
-31 -66 -68 0
-31 -67 -68 0
-42 -57 -65 0
-42 -57 -66 0
-42 -57 -67 0
-42 -57 -68 0
-42 -65 -66 0
-42 -65 -67 0
-42 -65 -68 0
-42 -66 -67 0
-42 -66 -68 0
-42 -67 -68 0
-57 -65 -66 0
-57 -65 -67 0
-57 -65 -68 0
-57 -66 -67 0
-57 -66 -68 0
-57 -67 -68 0
-65 -66 -67 0
-65 -66 -68 0
-65 -67 -68 0
-66 -67 -68 0
31 42 57 65 66 67 68 0
8 42 57 65 66 67 68 0
8 31 57 65 66 67 68 0
8 31 42 65 66 67 68 0
8 31 42 57 66 67 68 0
8 31 42 57 65 67 68 0
8 31 42 57 65 66 68 0
8 31 42 57 65 66 67 0
-3 -12 -46 0
-3 -12 -61 0
-3 -12 -69 0
-3 -12 -70 0
-3 -12 -71 0
-3 -12 -72 0
-3 -46 -61 0
-3 -46 -69 0
-3 -46 -70 0
-3 -46 -71 0
-3 -46 -72 0
-3 -61 -69 0
-3 -61 -70 0
-3 -61 -71 0
-3 -61 -72 0
-3 -69 -70 0
-3 -69 -71 0
-3 -69 -72 0
-3 -70 -71 0
-3 -70 -72 0
-3 -71 -72 0
-12 -46 -61 0
-12 -46 -69 0
-12 -46 -70 0
-12 -46 -71 0
-12 -46 -72 0
-12 -61 -69 0
-12 -61 -70 0
-12 -61 -71 0
-12 -61 -72 0
-12 -69 -70 0
-12 -69 -71 0
-12 -69 -72 0
-12 -70 -71 0
-12 -70 -72 0
-12 -71 -72 0
-46 -61 -69 0
-46 -61 -70 0
-46 -61 -71 0
-46 -61 -72 0
-46 -69 -70 0
-46 -69 -71 0
-46 -69 -72 0
-46 -70 -71 0
-46 -70 -72 0
-46 -71 -72 0
-61 -69 -70 0
-61 -69 -71 0
-61 -69 -72 0
-61 -70 -71 0
-61 -70 -72 0
-61 -71 -72 0
-69 -70 -71 0
-69 -70 -72 0
-69 -71 -72 0
-70 -71 -72 0
12 46 61 69 70 71 72 0
3 46 61 69 70 71 72 0
3 12 61 69 70 71 72 0
3 12 46 69 70 71 72 0
3 12 46 61 70 71 72 0
3 12 46 61 69 71 72 0
3 12 46 61 69 70 72 0
3 12 46 61 69 70 71 0
-7 -16 -33 0
-7 -16 -50 0
-7 -16 -73 0
-7 -16 -74 0
-7 -16 -75 0
-7 -16 -76 0
-7 -33 -50 0
-7 -33 -73 0
-7 -33 -74 0
-7 -33 -75 0
-7 -33 -76 0
-7 -50 -73 0
-7 -50 -74 0
-7 -50 -75 0
-7 -50 -76 0
-7 -73 -74 0
-7 -73 -75 0
-7 -73 -76 0
-7 -74 -75 0
-7 -74 -76 0
-7 -75 -76 0
-16 -33 -50 0
-16 -33 -73 0
-16 -33 -74 0
-16 -33 -75 0
-16 -33 -76 0
-16 -50 -73 0
-16 -50 -74 0
-16 -50 -75 0
-16 -50 -76 0
-16 -73 -74 0
-16 -73 -75 0
-16 -73 -76 0
-16 -74 -75 0
-16 -74 -76 0
-16 -75 -76 0
-33 -50 -73 0
-33 -50 -74 0
-33 -50 -75 0
-33 -50 -76 0
-33 -73 -74 0
-33 -73 -75 0
-33 -73 -76 0
-33 -74 -75 0
-33 -74 -76 0
-33 -75 -76 0
-50 -73 -74 0
-50 -73 -75 0
-50 -73 -76 0
-50 -74 -75 0
-50 -74 -76 0
-50 -75 -76 0
-73 -74 -75 0
-73 -74 -76 0
-73 -75 -76 0
-74 -75 -76 0
16 33 50 73 74 75 76 0
7 33 50 73 74 75 76 0
7 16 50 73 74 75 76 0
7 16 33 73 74 75 76 0
7 16 33 50 74 75 76 0
7 16 33 50 73 75 76 0
7 16 33 50 73 74 76 0
7 16 33 50 73 74 75 0
-11 -20 -37 0
-11 -20 -54 0
-11 -20 -77 0
-11 -20 -78 0
-11 -20 -79 0
-11 -20 -80 0
-11 -37 -54 0
-11 -37 -77 0
-11 -37 -78 0
-11 -37 -79 0
-11 -37 -80 0
-11 -54 -77 0
-11 -54 -78 0
-11 -54 -79 0
-11 -54 -80 0
-11 -77 -78 0
-11 -77 -79 0
-11 -77 -80 0
-11 -78 -79 0
-11 -78 -80 0
-11 -79 -80 0
-20 -37 -54 0
-20 -37 -77 0
-20 -37 -78 0
-20 -37 -79 0
-20 -37 -80 0
-20 -54 -77 0
-20 -54 -78 0
-20 -54 -79 0
-20 -54 -80 0
-20 -77 -78 0
-20 -77 -79 0
-20 -77 -80 0
-20 -78 -79 0
-20 -78 -80 0
-20 -79 -80 0
-37 -54 -77 0
-37 -54 -78 0
-37 -54 -79 0
-37 -54 -80 0
-37 -77 -78 0
-37 -77 -79 0
-37 -77 -80 0
-37 -78 -79 0
-37 -78 -80 0
-37 -79 -80 0
-54 -77 -78 0
-54 -77 -79 0
-54 -77 -80 0
-54 -78 -79 0
-54 -78 -80 0
-54 -79 -80 0
-77 -78 -79 0
-77 -78 -80 0
-77 -79 -80 0
-78 -79 -80 0
20 37 54 77 78 79 80 0
11 37 54 77 78 79 80 0
11 20 54 77 78 79 80 0
11 20 37 77 78 79 80 0
11 20 37 54 78 79 80 0
11 20 37 54 77 79 80 0
11 20 37 54 77 78 80 0
11 20 37 54 77 78 79 0
-15 -24 -41 0
-15 -24 -58 0
-15 -24 -81 0
-15 -24 -82 0
-15 -24 -83 0
-15 -24 -84 0
-15 -41 -58 0
-15 -41 -81 0
-15 -41 -82 0
-15 -41 -83 0
-15 -41 -84 0
-15 -58 -81 0
-15 -58 -82 0
-15 -58 -83 0
-15 -58 -84 0
-15 -81 -82 0
-15 -81 -83 0
-15 -81 -84 0
-15 -82 -83 0
-15 -82 -84 0
-15 -83 -84 0
-24 -41 -58 0
-24 -41 -81 0
-24 -41 -82 0
-24 -41 -83 0
-24 -41 -84 0
-24 -58 -81 0
-24 -58 -82 0
-24 -58 -83 0
-24 -58 -84 0
-24 -81 -82 0
-24 -81 -83 0
-24 -81 -84 0
-24 -82 -83 0
-24 -82 -84 0
-24 -83 -84 0
-41 -58 -81 0
-41 -58 -82 0
-41 -58 -83 0
-41 -58 -84 0
-41 -81 -82 0
-41 -81 -83 0
-41 -81 -84 0
-41 -82 -83 0
-41 -82 -84 0
-41 -83 -84 0
-58 -81 -82 0
-58 -81 -83 0
-58 -81 -84 0
-58 -82 -83 0
-58 -82 -84 0
-58 -83 -84 0
-81 -82 -83 0
-81 -82 -84 0
-81 -83 -84 0
-82 -83 -84 0
24 41 58 81 82 83 84 0
15 41 58 81 82 83 84 0
15 24 58 81 82 83 84 0
15 24 41 81 82 83 84 0
15 24 41 58 82 83 84 0
15 24 41 58 81 83 84 0
15 24 41 58 81 82 84 0
15 24 41 58 81 82 83 0
-19 -28 -45 0
-19 -28 -62 0
-19 -28 -85 0
-19 -28 -86 0
-19 -28 -87 0
-19 -28 -88 0
-19 -45 -62 0
-19 -45 -85 0
-19 -45 -86 0
-19 -45 -87 0
-19 -45 -88 0
-19 -62 -85 0
-19 -62 -86 0
-19 -62 -87 0
-19 -62 -88 0
-19 -85 -86 0
-19 -85 -87 0
-19 -85 -88 0
-19 -86 -87 0
-19 -86 -88 0
-19 -87 -88 0
-28 -45 -62 0
-28 -45 -85 0
-28 -45 -86 0
-28 -45 -87 0
-28 -45 -88 0
-28 -62 -85 0
-28 -62 -86 0
-28 -62 -87 0
-28 -62 -88 0
-28 -85 -86 0
-28 -85 -87 0
-28 -85 -88 0
-28 -86 -87 0
-28 -86 -88 0
-28 -87 -88 0
-45 -62 -85 0
-45 -62 -86 0
-45 -62 -87 0
-45 -62 -88 0
-45 -85 -86 0
-45 -85 -87 0
-45 -85 -88 0
-45 -86 -87 0
-45 -86 -88 0
-45 -87 -88 0
-62 -85 -86 0
-62 -85 -87 0
-62 -85 -88 0
-62 -86 -87 0
-62 -86 -88 0
-62 -87 -88 0
-85 -86 -87 0
-85 -86 -88 0
-85 -87 -88 0
-86 -87 -88 0
28 45 62 85 86 87 88 0
19 45 62 85 86 87 88 0
19 28 62 85 86 87 88 0
19 28 45 85 86 87 88 0
19 28 45 62 86 87 88 0
19 28 45 62 85 87 88 0
19 28 45 62 85 86 88 0
19 28 45 62 85 86 87 0
-23 -32 -34 0
-23 -32 -49 0
-23 -32 -89 0
-23 -32 -90 0
-23 -32 -91 0
-23 -32 -92 0
-23 -34 -49 0
-23 -34 -89 0
-23 -34 -90 0
-23 -34 -91 0
-23 -34 -92 0
-23 -49 -89 0
-23 -49 -90 0
-23 -49 -91 0
-23 -49 -92 0
-23 -89 -90 0
-23 -89 -91 0
-23 -89 -92 0
-23 -90 -91 0
-23 -90 -92 0
-23 -91 -92 0
-32 -34 -49 0
-32 -34 -89 0
-32 -34 -90 0
-32 -34 -91 0
-32 -34 -92 0
-32 -49 -89 0
-32 -49 -90 0
-32 -49 -91 0
-32 -49 -92 0
-32 -89 -90 0
-32 -89 -91 0
-32 -89 -92 0
-32 -90 -91 0
-32 -90 -92 0
-32 -91 -92 0
-34 -49 -89 0
-34 -49 -90 0
-34 -49 -91 0
-34 -49 -92 0
-34 -89 -90 0
-34 -89 -91 0
-34 -89 -92 0
-34 -90 -91 0
-34 -90 -92 0
-34 -91 -92 0
-49 -89 -90 0
-49 -89 -91 0
-49 -89 -92 0
-49 -90 -91 0
-49 -90 -92 0
-49 -91 -92 0
-89 -90 -91 0
-89 -90 -92 0
-89 -91 -92 0
-90 -91 -92 0
32 34 49 89 90 91 92 0
23 34 49 89 90 91 92 0
23 32 49 89 90 91 92 0
23 32 34 89 90 91 92 0
23 32 34 49 90 91 92 0
23 32 34 49 89 91 92 0
23 32 34 49 89 90 92 0
23 32 34 49 89 90 91 0
-4 -27 -38 0
-4 -27 -53 0
-4 -27 -93 0
-4 -27 -94 0
-4 -27 -95 0
-4 -27 -96 0
-4 -38 -53 0
-4 -38 -93 0
-4 -38 -94 0
-4 -38 -95 0
-4 -38 -96 0
-4 -53 -93 0
-4 -53 -94 0
-4 -53 -95 0
-4 -53 -96 0
-4 -93 -94 0
-4 -93 -95 0
-4 -93 -96 0
-4 -94 -95 0
-4 -94 -96 0
-4 -95 -96 0
-27 -38 -53 0
-27 -38 -93 0
-27 -38 -94 0
-27 -38 -95 0
-27 -38 -96 0
-27 -53 -93 0
-27 -53 -94 0
-27 -53 -95 0
-27 -53 -96 0
-27 -93 -94 0
-27 -93 -95 0
-27 -93 -96 0
-27 -94 -95 0
-27 -94 -96 0
-27 -95 -96 0
-38 -53 -93 0
-38 -53 -94 0
-38 -53 -95 0
-38 -53 -96 0
-38 -93 -94 0
-38 -93 -95 0
-38 -93 -96 0
-38 -94 -95 0
-38 -94 -96 0
-38 -95 -96 0
-53 -93 -94 0
-53 -93 -95 0
-53 -93 -96 0
-53 -94 -95 0
-53 -94 -96 0
-53 -95 -96 0
-93 -94 -95 0
-93 -94 -96 0
-93 -95 -96 0
-94 -95 -96 0
27 38 53 93 94 95 96 0
4 38 53 93 94 95 96 0
4 27 53 93 94 95 96 0
4 27 38 93 94 95 96 0
4 27 38 53 94 95 96 0
4 27 38 53 93 95 96 0
4 27 38 53 93 94 96 0
4 27 38 53 93 94 95 0
-40 -63 -74 0
-40 -63 -89 0
-40 -63 -97 0
-40 -63 -98 0
-40 -63 -99 0
-40 -63 -100 0
-40 -74 -89 0
-40 -74 -97 0
-40 -74 -98 0
-40 -74 -99 0
-40 -74 -100 0
-40 -89 -97 0
-40 -89 -98 0
-40 -89 -99 0
-40 -89 -100 0
-40 -97 -98 0
-40 -97 -99 0
-40 -97 -100 0
-40 -98 -99 0
-40 -98 -100 0
-40 -99 -100 0
-63 -74 -89 0
-63 -74 -97 0
-63 -74 -98 0
-63 -74 -99 0
-63 -74 -100 0
-63 -89 -97 0
-63 -89 -98 0
-63 -89 -99 0
-63 -89 -100 0
-63 -97 -98 0
-63 -97 -99 0
-63 -97 -100 0
-63 -98 -99 0
-63 -98 -100 0
-63 -99 -100 0
-74 -89 -97 0
-74 -89 -98 0
-74 -89 -99 0
-74 -89 -100 0
-74 -97 -98 0
-74 -97 -99 0
-74 -97 -100 0
-74 -98 -99 0
-74 -98 -100 0
-74 -99 -100 0
-89 -97 -98 0
-89 -97 -99 0
-89 -97 -100 0
-89 -98 -99 0
-89 -98 -100 0
-89 -99 -100 0
-97 -98 -99 0
-97 -98 -100 0
-97 -99 -100 0
-98 -99 -100 0
63 74 89 97 98 99 100 0
40 74 89 97 98 99 100 0
40 63 89 97 98 99 100 0
40 63 74 97 98 99 100 0
40 63 74 89 98 99 100 0
40 63 74 89 97 99 100 0
40 63 74 89 97 98 100 0
40 63 74 89 97 98 99 0
-35 -44 -78 0
-35 -44 -93 0
-35 -44 -101 0
-35 -44 -102 0
-35 -44 -103 0
-35 -44 -104 0
-35 -78 -93 0
-35 -78 -101 0
-35 -78 -102 0
-35 -78 -103 0
-35 -78 -104 0
-35 -93 -101 0
-35 -93 -102 0
-35 -93 -103 0
-35 -93 -104 0
-35 -101 -102 0
-35 -101 -103 0
-35 -101 -104 0
-35 -102 -103 0
-35 -102 -104 0
-35 -103 -104 0
-44 -78 -93 0
-44 -78 -101 0
-44 -78 -102 0
-44 -78 -103 0
-44 -78 -104 0
-44 -93 -101 0
-44 -93 -102 0
-44 -93 -103 0
-44 -93 -104 0
-44 -101 -102 0
-44 -101 -103 0
-44 -101 -104 0
-44 -102 -103 0
-44 -102 -104 0
-44 -103 -104 0
-78 -93 -101 0
-78 -93 -102 0
-78 -93 -103 0
-78 -93 -104 0
-78 -101 -102 0
-78 -101 -103 0
-78 -101 -104 0
-78 -102 -103 0
-78 -102 -104 0
-78 -103 -104 0
-93 -101 -102 0
-93 -101 -103 0
-93 -101 -104 0
-93 -102 -103 0
-93 -102 -104 0
-93 -103 -104 0
-101 -102 -103 0
-101 -102 -104 0
-101 -103 -104 0
-102 -103 -104 0
44 78 93 101 102 103 104 0
35 78 93 101 102 103 104 0
35 44 93 101 102 103 104 0
35 44 78 101 102 103 104 0
35 44 78 93 102 103 104 0
35 44 78 93 101 103 104 0
35 44 78 93 101 102 104 0
35 44 78 93 101 102 103 0
-39 -48 -65 0
-39 -48 -82 0
-39 -48 -105 0
-39 -48 -106 0
-39 -48 -107 0
-39 -48 -108 0
-39 -65 -82 0
-39 -65 -105 0
-39 -65 -106 0
-39 -65 -107 0
-39 -65 -108 0
-39 -82 -105 0
-39 -82 -106 0
-39 -82 -107 0
-39 -82 -108 0
-39 -105 -106 0
-39 -105 -107 0
-39 -105 -108 0
-39 -106 -107 0
-39 -106 -108 0
-39 -107 -108 0
-48 -65 -82 0
-48 -65 -105 0
-48 -65 -106 0
-48 -65 -107 0
-48 -65 -108 0
-48 -82 -105 0
-48 -82 -106 0
-48 -82 -107 0
-48 -82 -108 0
-48 -105 -106 0
-48 -105 -107 0
-48 -105 -108 0
-48 -106 -107 0
-48 -106 -108 0
-48 -107 -108 0
-65 -82 -105 0
-65 -82 -106 0
-65 -82 -107 0
-65 -82 -108 0
-65 -105 -106 0
-65 -105 -107 0
-65 -105 -108 0
-65 -106 -107 0
-65 -106 -108 0
-65 -107 -108 0
-82 -105 -106 0
-82 -105 -107 0
-82 -105 -108 0
-82 -106 -107 0
-82 -106 -108 0
-82 -107 -108 0
-105 -106 -107 0
-105 -106 -108 0
-105 -107 -108 0
-106 -107 -108 0
48 65 82 105 106 107 108 0
39 65 82 105 106 107 108 0
39 48 82 105 106 107 108 0
39 48 65 105 106 107 108 0
39 48 65 82 106 107 108 0
39 48 65 82 105 107 108 0
39 48 65 82 105 106 108 0
39 48 65 82 105 106 107 0
-43 -52 -69 0
-43 -52 -86 0
-43 -52 -109 0
-43 -52 -110 0
-43 -52 -111 0
-43 -52 -112 0
-43 -69 -86 0
-43 -69 -109 0
-43 -69 -110 0
-43 -69 -111 0
-43 -69 -112 0
-43 -86 -109 0
-43 -86 -110 0
-43 -86 -111 0
-43 -86 -112 0
-43 -109 -110 0
-43 -109 -111 0
-43 -109 -112 0
-43 -110 -111 0
-43 -110 -112 0
-43 -111 -112 0
-52 -69 -86 0
-52 -69 -109 0
-52 -69 -110 0
-52 -69 -111 0
-52 -69 -112 0
-52 -86 -109 0
-52 -86 -110 0
-52 -86 -111 0
-52 -86 -112 0
-52 -109 -110 0
-52 -109 -111 0
-52 -109 -112 0
-52 -110 -111 0
-52 -110 -112 0
-52 -111 -112 0
-69 -86 -109 0
-69 -86 -110 0
-69 -86 -111 0
-69 -86 -112 0
-69 -109 -110 0
-69 -109 -111 0
-69 -109 -112 0
-69 -110 -111 0
-69 -110 -112 0
-69 -111 -112 0
-86 -109 -110 0
-86 -109 -111 0
-86 -109 -112 0
-86 -110 -111 0
-86 -110 -112 0
-86 -111 -112 0
-109 -110 -111 0
-109 -110 -112 0
-109 -111 -112 0
-110 -111 -112 0
52 69 86 109 110 111 112 0
43 69 86 109 110 111 112 0
43 52 86 109 110 111 112 0
43 52 69 109 110 111 112 0
43 52 69 86 110 111 112 0
43 52 69 86 109 111 112 0
43 52 69 86 109 110 112 0
43 52 69 86 109 110 111 0
-47 -56 -73 0
-47 -56 -90 0
-47 -56 -113 0
-47 -56 -114 0
-47 -56 -115 0
-47 -56 -116 0
-47 -73 -90 0
-47 -73 -113 0
-47 -73 -114 0
-47 -73 -115 0
-47 -73 -116 0
-47 -90 -113 0
-47 -90 -114 0
-47 -90 -115 0
-47 -90 -116 0
-47 -113 -114 0
-47 -113 -115 0
-47 -113 -116 0
-47 -114 -115 0
-47 -114 -116 0
-47 -115 -116 0
-56 -73 -90 0
-56 -73 -113 0
-56 -73 -114 0
-56 -73 -115 0
-56 -73 -116 0
-56 -90 -113 0
-56 -90 -114 0
-56 -90 -115 0
-56 -90 -116 0
-56 -113 -114 0
-56 -113 -115 0
-56 -113 -116 0
-56 -114 -115 0
-56 -114 -116 0
-56 -115 -116 0
-73 -90 -113 0
-73 -90 -114 0
-73 -90 -115 0
-73 -90 -116 0
-73 -113 -114 0
-73 -113 -115 0
-73 -113 -116 0
-73 -114 -115 0
-73 -114 -116 0
-73 -115 -116 0
-90 -113 -114 0
-90 -113 -115 0
-90 -113 -116 0
-90 -114 -115 0
-90 -114 -116 0
-90 -115 -116 0
-113 -114 -115 0
-113 -114 -116 0
-113 -115 -116 0
-114 -115 -116 0
56 73 90 113 114 115 116 0
47 73 90 113 114 115 116 0
47 56 90 113 114 115 116 0
47 56 73 113 114 115 116 0
47 56 73 90 114 115 116 0
47 56 73 90 113 115 116 0
47 56 73 90 113 114 116 0
47 56 73 90 113 114 115 0
-51 -60 -77 0
-51 -60 -94 0
-51 -60 -117 0
-51 -60 -118 0
-51 -60 -119 0
-51 -60 -120 0
-51 -77 -94 0
-51 -77 -117 0
-51 -77 -118 0
-51 -77 -119 0
-51 -77 -120 0
-51 -94 -117 0
-51 -94 -118 0
-51 -94 -119 0
-51 -94 -120 0
-51 -117 -118 0
-51 -117 -119 0
-51 -117 -120 0
-51 -118 -119 0
-51 -118 -120 0
-51 -119 -120 0
-60 -77 -94 0
-60 -77 -117 0
-60 -77 -118 0
-60 -77 -119 0
-60 -77 -120 0
-60 -94 -117 0
-60 -94 -118 0
-60 -94 -119 0
-60 -94 -120 0
-60 -117 -118 0
-60 -117 -119 0
-60 -117 -120 0
-60 -118 -119 0
-60 -118 -120 0
-60 -119 -120 0
-77 -94 -117 0
-77 -94 -118 0
-77 -94 -119 0
-77 -94 -120 0
-77 -117 -118 0
-77 -117 -119 0
-77 -117 -120 0
-77 -118 -119 0
-77 -118 -120 0
-77 -119 -120 0
-94 -117 -118 0
-94 -117 -119 0
-94 -117 -120 0
-94 -118 -119 0
-94 -118 -120 0
-94 -119 -120 0
-117 -118 -119 0
-117 -118 -120 0
-117 -119 -120 0
-118 -119 -120 0
60 77 94 117 118 119 120 0
51 77 94 117 118 119 120 0
51 60 94 117 118 119 120 0
51 60 77 117 118 119 120 0
51 60 77 94 118 119 120 0
51 60 77 94 117 119 120 0
51 60 77 94 117 118 120 0
51 60 77 94 117 118 119 0
-55 -64 -66 0
-55 -64 -81 0
-55 -64 -121 0
-55 -64 -122 0
-55 -64 -123 0
-55 -64 -124 0
-55 -66 -81 0
-55 -66 -121 0
-55 -66 -122 0
-55 -66 -123 0
-55 -66 -124 0
-55 -81 -121 0
-55 -81 -122 0
-55 -81 -123 0
-55 -81 -124 0
-55 -121 -122 0
-55 -121 -123 0
-55 -121 -124 0
-55 -122 -123 0
-55 -122 -124 0
-55 -123 -124 0
-64 -66 -81 0
-64 -66 -121 0
-64 -66 -122 0
-64 -66 -123 0
-64 -66 -124 0
-64 -81 -121 0
-64 -81 -122 0
-64 -81 -123 0
-64 -81 -124 0
-64 -121 -122 0
-64 -121 -123 0
-64 -121 -124 0
-64 -122 -123 0
-64 -122 -124 0
-64 -123 -124 0
-66 -81 -121 0
-66 -81 -122 0
-66 -81 -123 0
-66 -81 -124 0
-66 -121 -122 0
-66 -121 -123 0
-66 -121 -124 0
-66 -122 -123 0
-66 -122 -124 0
-66 -123 -124 0
-81 -121 -122 0
-81 -121 -123 0
-81 -121 -124 0
-81 -122 -123 0
-81 -122 -124 0
-81 -123 -124 0
-121 -122 -123 0
-121 -122 -124 0
-121 -123 -124 0
-122 -123 -124 0
64 66 81 121 122 123 124 0
55 66 81 121 122 123 124 0
55 64 81 121 122 123 124 0
55 64 66 121 122 123 124 0
55 64 66 81 122 123 124 0
55 64 66 81 121 123 124 0
55 64 66 81 121 122 124 0
55 64 66 81 121 122 123 0
-36 -59 -70 0
-36 -59 -85 0
-36 -59 -125 0
-36 -59 -126 0
-36 -59 -127 0
-36 -59 -128 0
-36 -70 -85 0
-36 -70 -125 0
-36 -70 -126 0
-36 -70 -127 0
-36 -70 -128 0
-36 -85 -125 0
-36 -85 -126 0
-36 -85 -127 0
-36 -85 -128 0
-36 -125 -126 0
-36 -125 -127 0
-36 -125 -128 0
-36 -126 -127 0
-36 -126 -128 0
-36 -127 -128 0
-59 -70 -85 0
-59 -70 -125 0
-59 -70 -126 0
-59 -70 -127 0
-59 -70 -128 0
-59 -85 -125 0
-59 -85 -126 0
-59 -85 -127 0
-59 -85 -128 0
-59 -125 -126 0
-59 -125 -127 0
-59 -125 -128 0
-59 -126 -127 0
-59 -126 -128 0
-59 -127 -128 0
-70 -85 -125 0
-70 -85 -126 0
-70 -85 -127 0
-70 -85 -128 0
-70 -125 -126 0
-70 -125 -127 0
-70 -125 -128 0
-70 -126 -127 0
-70 -126 -128 0
-70 -127 -128 0
-85 -125 -126 0
-85 -125 -127 0
-85 -125 -128 0
-85 -126 -127 0
-85 -126 -128 0
-85 -127 -128 0
-125 -126 -127 0
-125 -126 -128 0
-125 -127 -128 0
-126 -127 -128 0
59 70 85 125 126 127 128 0
36 70 85 125 126 127 128 0
36 59 85 125 126 127 128 0
36 59 70 125 126 127 128 0
36 59 70 85 126 127 128 0
36 59 70 85 125 127 128 0
36 59 70 85 125 126 128 0
36 59 70 85 125 126 127 0
-72 -95 -106 0
-72 -95 -121 0
-72 -95 -129 0
-72 -95 -130 0
-72 -95 -131 0
-72 -95 -132 0
-72 -106 -121 0
-72 -106 -129 0
-72 -106 -130 0
-72 -106 -131 0
-72 -106 -132 0
-72 -121 -129 0
-72 -121 -130 0
-72 -121 -131 0
-72 -121 -132 0
-72 -129 -130 0
-72 -129 -131 0
-72 -129 -132 0
-72 -130 -131 0
-72 -130 -132 0
-72 -131 -132 0
-95 -106 -121 0
-95 -106 -129 0
-95 -106 -130 0
-95 -106 -131 0
-95 -106 -132 0
-95 -121 -129 0
-95 -121 -130 0
-95 -121 -131 0
-95 -121 -132 0
-95 -129 -130 0
-95 -129 -131 0
-95 -129 -132 0
-95 -130 -131 0
-95 -130 -132 0
-95 -131 -132 0
-106 -121 -129 0
-106 -121 -130 0
-106 -121 -131 0
-106 -121 -132 0
-106 -129 -130 0
-106 -129 -131 0
-106 -129 -132 0
-106 -130 -131 0
-106 -130 -132 0
-106 -131 -132 0
-121 -129 -130 0
-121 -129 -131 0
-121 -129 -132 0
-121 -130 -131 0
-121 -130 -132 0
-121 -131 -132 0
-129 -130 -131 0
-129 -130 -132 0
-129 -131 -132 0
-130 -131 -132 0
95 106 121 129 130 131 132 0
72 106 121 129 130 131 132 0
72 95 121 129 130 131 132 0
72 95 106 129 130 131 132 0
72 95 106 121 130 131 132 0
72 95 106 121 129 131 132 0
72 95 106 121 129 130 132 0
72 95 106 121 129 130 131 0
-67 -76 -110 0
-67 -76 -125 0
-67 -76 -133 0
-67 -76 -134 0
-67 -76 -135 0
-67 -76 -136 0
-67 -110 -125 0
-67 -110 -133 0
-67 -110 -134 0
-67 -110 -135 0
-67 -110 -136 0
-67 -125 -133 0
-67 -125 -134 0
-67 -125 -135 0
-67 -125 -136 0
-67 -133 -134 0
-67 -133 -135 0
-67 -133 -136 0
-67 -134 -135 0
-67 -134 -136 0
-67 -135 -136 0
-76 -110 -125 0
-76 -110 -133 0
-76 -110 -134 0
-76 -110 -135 0
-76 -110 -136 0
-76 -125 -133 0
-76 -125 -134 0
-76 -125 -135 0
-76 -125 -136 0
-76 -133 -134 0
-76 -133 -135 0
-76 -133 -136 0
-76 -134 -135 0
-76 -134 -136 0
-76 -135 -136 0
-110 -125 -133 0
-110 -125 -134 0
-110 -125 -135 0
-110 -125 -136 0
-110 -133 -134 0
-110 -133 -135 0
-110 -133 -136 0
-110 -134 -135 0
-110 -134 -136 0
-110 -135 -136 0
-125 -133 -134 0
-125 -133 -135 0
-125 -133 -136 0
-125 -134 -135 0
-125 -134 -136 0
-125 -135 -136 0
-133 -134 -135 0
-133 -134 -136 0
-133 -135 -136 0
-134 -135 -136 0
76 110 125 133 134 135 136 0
67 110 125 133 134 135 136 0
67 76 125 133 134 135 136 0
67 76 110 133 134 135 136 0
67 76 110 125 134 135 136 0
67 76 110 125 133 135 136 0
67 76 110 125 133 134 136 0
67 76 110 125 133 134 135 0
-71 -80 -97 0
-71 -80 -114 0
-71 -80 -137 0
-71 -80 -138 0
-71 -80 -139 0
-71 -80 -140 0
-71 -97 -114 0
-71 -97 -137 0
-71 -97 -138 0
-71 -97 -139 0
-71 -97 -140 0
-71 -114 -137 0
-71 -114 -138 0
-71 -114 -139 0
-71 -114 -140 0
-71 -137 -138 0
-71 -137 -139 0
-71 -137 -140 0
-71 -138 -139 0
-71 -138 -140 0
-71 -139 -140 0
-80 -97 -114 0
-80 -97 -137 0
-80 -97 -138 0
-80 -97 -139 0
-80 -97 -140 0
-80 -114 -137 0
-80 -114 -138 0
-80 -114 -139 0
-80 -114 -140 0
-80 -137 -138 0
-80 -137 -139 0
-80 -137 -140 0
-80 -138 -139 0
-80 -138 -140 0
-80 -139 -140 0
-97 -114 -137 0
-97 -114 -138 0
-97 -114 -139 0
-97 -114 -140 0
-97 -137 -138 0
-97 -137 -139 0
-97 -137 -140 0
-97 -138 -139 0
-97 -138 -140 0
-97 -139 -140 0
-114 -137 -138 0
-114 -137 -139 0
-114 -137 -140 0
-114 -138 -139 0
-114 -138 -140 0
-114 -139 -140 0
-137 -138 -139 0
-137 -138 -140 0
-137 -139 -140 0
-138 -139 -140 0
80 97 114 137 138 139 140 0
71 97 114 137 138 139 140 0
71 80 114 137 138 139 140 0
71 80 97 137 138 139 140 0
71 80 97 114 138 139 140 0
71 80 97 114 137 139 140 0
71 80 97 114 137 138 140 0
71 80 97 114 137 138 139 0
-75 -84 -101 0
-75 -84 -118 0
-75 -84 -141 0
-75 -84 -142 0
-75 -84 -143 0
-75 -84 -144 0
-75 -101 -118 0
-75 -101 -141 0
-75 -101 -142 0
-75 -101 -143 0
-75 -101 -144 0
-75 -118 -141 0
-75 -118 -142 0
-75 -118 -143 0
-75 -118 -144 0
-75 -141 -142 0
-75 -141 -143 0
-75 -141 -144 0
-75 -142 -143 0
-75 -142 -144 0
-75 -143 -144 0
-84 -101 -118 0
-84 -101 -141 0
-84 -101 -142 0
-84 -101 -143 0
-84 -101 -144 0
-84 -118 -141 0
-84 -118 -142 0
-84 -118 -143 0
-84 -118 -144 0
-84 -141 -142 0
-84 -141 -143 0
-84 -141 -144 0
-84 -142 -143 0
-84 -142 -144 0
-84 -143 -144 0
-101 -118 -141 0
-101 -118 -142 0
-101 -118 -143 0
-101 -118 -144 0
-101 -141 -142 0
-101 -141 -143 0
-101 -141 -144 0
-101 -142 -143 0
-101 -142 -144 0
-101 -143 -144 0
-118 -141 -142 0
-118 -141 -143 0
-118 -141 -144 0
-118 -142 -143 0
-118 -142 -144 0
-118 -143 -144 0
-141 -142 -143 0
-141 -142 -144 0
-141 -143 -144 0
-142 -143 -144 0
84 101 118 141 142 143 144 0
75 101 118 141 142 143 144 0
75 84 118 141 142 143 144 0
75 84 101 141 142 143 144 0
75 84 101 118 142 143 144 0
75 84 101 118 141 143 144 0
75 84 101 118 141 142 144 0
75 84 101 118 141 142 143 0
-79 -88 -105 0
-79 -88 -122 0
-79 -88 -145 0
-79 -88 -146 0
-79 -88 -147 0
-79 -88 -148 0
-79 -105 -122 0
-79 -105 -145 0
-79 -105 -146 0
-79 -105 -147 0
-79 -105 -148 0
-79 -122 -145 0
-79 -122 -146 0
-79 -122 -147 0
-79 -122 -148 0
-79 -145 -146 0
-79 -145 -147 0
-79 -145 -148 0
-79 -146 -147 0
-79 -146 -148 0
-79 -147 -148 0
-88 -105 -122 0
-88 -105 -145 0
-88 -105 -146 0
-88 -105 -147 0
-88 -105 -148 0
-88 -122 -145 0
-88 -122 -146 0
-88 -122 -147 0
-88 -122 -148 0
-88 -145 -146 0
-88 -145 -147 0
-88 -145 -148 0
-88 -146 -147 0
-88 -146 -148 0
-88 -147 -148 0
-105 -122 -145 0
-105 -122 -146 0
-105 -122 -147 0
-105 -122 -148 0
-105 -145 -146 0
-105 -145 -147 0
-105 -145 -148 0
-105 -146 -147 0
-105 -146 -148 0
-105 -147 -148 0
-122 -145 -146 0
-122 -145 -147 0
-122 -145 -148 0
-122 -146 -147 0
-122 -146 -148 0
-122 -147 -148 0
-145 -146 -147 0
-145 -146 -148 0
-145 -147 -148 0
-146 -147 -148 0
88 105 122 145 146 147 148 0
79 105 122 145 146 147 148 0
79 88 122 145 146 147 148 0
79 88 105 145 146 147 148 0
79 88 105 122 146 147 148 0
79 88 105 122 145 147 148 0
79 88 105 122 145 146 148 0
79 88 105 122 145 146 147 0
-83 -92 -109 0
-83 -92 -126 0
-83 -92 -149 0
-83 -92 -150 0
-83 -92 -151 0
-83 -92 -152 0
-83 -109 -126 0
-83 -109 -149 0
-83 -109 -150 0
-83 -109 -151 0
-83 -109 -152 0
-83 -126 -149 0
-83 -126 -150 0
-83 -126 -151 0
-83 -126 -152 0
-83 -149 -150 0
-83 -149 -151 0
-83 -149 -152 0
-83 -150 -151 0
-83 -150 -152 0
-83 -151 -152 0
-92 -109 -126 0
-92 -109 -149 0
-92 -109 -150 0
-92 -109 -151 0
-92 -109 -152 0
-92 -126 -149 0
-92 -126 -150 0
-92 -126 -151 0
-92 -126 -152 0
-92 -149 -150 0
-92 -149 -151 0
-92 -149 -152 0
-92 -150 -151 0
-92 -150 -152 0
-92 -151 -152 0
-109 -126 -149 0
-109 -126 -150 0
-109 -126 -151 0
-109 -126 -152 0
-109 -149 -150 0
-109 -149 -151 0
-109 -149 -152 0
-109 -150 -151 0
-109 -150 -152 0
-109 -151 -152 0
-126 -149 -150 0
-126 -149 -151 0
-126 -149 -152 0
-126 -150 -151 0
-126 -150 -152 0
-126 -151 -152 0
-149 -150 -151 0
-149 -150 -152 0
-149 -151 -152 0
-150 -151 -152 0
92 109 126 149 150 151 152 0
83 109 126 149 150 151 152 0
83 92 126 149 150 151 152 0
83 92 109 149 150 151 152 0
83 92 109 126 150 151 152 0
83 92 109 126 149 151 152 0
83 92 109 126 149 150 152 0
83 92 109 126 149 150 151 0
-87 -96 -98 0
-87 -96 -113 0
-87 -96 -153 0
-87 -96 -154 0
-87 -96 -155 0
-87 -96 -156 0
-87 -98 -113 0
-87 -98 -153 0
-87 -98 -154 0
-87 -98 -155 0
-87 -98 -156 0
-87 -113 -153 0
-87 -113 -154 0
-87 -113 -155 0
-87 -113 -156 0
-87 -153 -154 0
-87 -153 -155 0
-87 -153 -156 0
-87 -154 -155 0
-87 -154 -156 0
-87 -155 -156 0
-96 -98 -113 0
-96 -98 -153 0
-96 -98 -154 0
-96 -98 -155 0
-96 -98 -156 0
-96 -113 -153 0
-96 -113 -154 0
-96 -113 -155 0
-96 -113 -156 0
-96 -153 -154 0
-96 -153 -155 0
-96 -153 -156 0
-96 -154 -155 0
-96 -154 -156 0
-96 -155 -156 0
-98 -113 -153 0
-98 -113 -154 0
-98 -113 -155 0
-98 -113 -156 0
-98 -153 -154 0
-98 -153 -155 0
-98 -153 -156 0
-98 -154 -155 0
-98 -154 -156 0
-98 -155 -156 0
-113 -153 -154 0
-113 -153 -155 0
-113 -153 -156 0
-113 -154 -155 0
-113 -154 -156 0
-113 -155 -156 0
-153 -154 -155 0
-153 -154 -156 0
-153 -155 -156 0
-154 -155 -156 0
96 98 113 153 154 155 156 0
87 98 113 153 154 155 156 0
87 96 113 153 154 155 156 0
87 96 98 153 154 155 156 0
87 96 98 113 154 155 156 0
87 96 98 113 153 155 156 0
87 96 98 113 153 154 156 0
87 96 98 113 153 154 155 0
-68 -91 -102 0
-68 -91 -117 0
-68 -91 -157 0
-68 -91 -158 0
-68 -91 -159 0
-68 -91 -160 0
-68 -102 -117 0
-68 -102 -157 0
-68 -102 -158 0
-68 -102 -159 0
-68 -102 -160 0
-68 -117 -157 0
-68 -117 -158 0
-68 -117 -159 0
-68 -117 -160 0
-68 -157 -158 0
-68 -157 -159 0
-68 -157 -160 0
-68 -158 -159 0
-68 -158 -160 0
-68 -159 -160 0
-91 -102 -117 0
-91 -102 -157 0
-91 -102 -158 0
-91 -102 -159 0
-91 -102 -160 0
-91 -117 -157 0
-91 -117 -158 0
-91 -117 -159 0
-91 -117 -160 0
-91 -157 -158 0
-91 -157 -159 0
-91 -157 -160 0
-91 -158 -159 0
-91 -158 -160 0
-91 -159 -160 0
-102 -117 -157 0
-102 -117 -158 0
-102 -117 -159 0
-102 -117 -160 0
-102 -157 -158 0
-102 -157 -159 0
-102 -157 -160 0
-102 -158 -159 0
-102 -158 -160 0
-102 -159 -160 0
-117 -157 -158 0
-117 -157 -159 0
-117 -157 -160 0
-117 -158 -159 0
-117 -158 -160 0
-117 -159 -160 0
-157 -158 -159 0
-157 -158 -160 0
-157 -159 -160 0
-158 -159 -160 0
91 102 117 157 158 159 160 0
68 102 117 157 158 159 160 0
68 91 117 157 158 159 160 0
68 91 102 157 158 159 160 0
68 91 102 117 158 159 160 0
68 91 102 117 157 159 160 0
68 91 102 117 157 158 160 0
68 91 102 117 157 158 159 0
-104 -127 -138 0
-104 -127 -153 0
-104 -127 -161 0
-104 -127 -162 0
-104 -127 -163 0
-104 -127 -164 0
-104 -138 -153 0
-104 -138 -161 0
-104 -138 -162 0
-104 -138 -163 0
-104 -138 -164 0
-104 -153 -161 0
-104 -153 -162 0
-104 -153 -163 0
-104 -153 -164 0
-104 -161 -162 0
-104 -161 -163 0
-104 -161 -164 0
-104 -162 -163 0
-104 -162 -164 0
-104 -163 -164 0
-127 -138 -153 0
-127 -138 -161 0
-127 -138 -162 0
-127 -138 -163 0
-127 -138 -164 0
-127 -153 -161 0
-127 -153 -162 0
-127 -153 -163 0
-127 -153 -164 0
-127 -161 -162 0
-127 -161 -163 0
-127 -161 -164 0
-127 -162 -163 0
-127 -162 -164 0
-127 -163 -164 0
-138 -153 -161 0
-138 -153 -162 0
-138 -153 -163 0
-138 -153 -164 0
-138 -161 -162 0
-138 -161 -163 0
-138 -161 -164 0
-138 -162 -163 0
-138 -162 -164 0
-138 -163 -164 0
-153 -161 -162 0
-153 -161 -163 0
-153 -161 -164 0
-153 -162 -163 0
-153 -162 -164 0
-153 -163 -164 0
-161 -162 -163 0
-161 -162 -164 0
-161 -163 -164 0
-162 -163 -164 0
127 138 153 161 162 163 164 0
104 138 153 161 162 163 164 0
104 127 153 161 162 163 164 0
104 127 138 161 162 163 164 0
104 127 138 153 162 163 164 0
104 127 138 153 161 163 164 0
104 127 138 153 161 162 164 0
104 127 138 153 161 162 163 0
-99 -108 -142 0
-99 -108 -157 0
-99 -108 -165 0
-99 -108 -166 0
-99 -108 -167 0
-99 -108 -168 0
-99 -142 -157 0
-99 -142 -165 0
-99 -142 -166 0
-99 -142 -167 0
-99 -142 -168 0
-99 -157 -165 0
-99 -157 -166 0
-99 -157 -167 0
-99 -157 -168 0
-99 -165 -166 0
-99 -165 -167 0
-99 -165 -168 0
-99 -166 -167 0
-99 -166 -168 0
-99 -167 -168 0
-108 -142 -157 0
-108 -142 -165 0
-108 -142 -166 0
-108 -142 -167 0
-108 -142 -168 0
-108 -157 -165 0
-108 -157 -166 0
-108 -157 -167 0
-108 -157 -168 0
-108 -165 -166 0
-108 -165 -167 0
-108 -165 -168 0
-108 -166 -167 0
-108 -166 -168 0
-108 -167 -168 0
-142 -157 -165 0
-142 -157 -166 0
-142 -157 -167 0
-142 -157 -168 0
-142 -165 -166 0
-142 -165 -167 0
-142 -165 -168 0
-142 -166 -167 0
-142 -166 -168 0
-142 -167 -168 0
-157 -165 -166 0
-157 -165 -167 0
-157 -165 -168 0
-157 -166 -167 0
-157 -166 -168 0
-157 -167 -168 0
-165 -166 -167 0
-165 -166 -168 0
-165 -167 -168 0
-166 -167 -168 0
108 142 157 165 166 167 168 0
99 142 157 165 166 167 168 0
99 108 157 165 166 167 168 0
99 108 142 165 166 167 168 0
99 108 142 157 166 167 168 0
99 108 142 157 165 167 168 0
99 108 142 157 165 166 168 0
99 108 142 157 165 166 167 0
-103 -112 -129 0
-103 -112 -146 0
-103 -112 -169 0
-103 -112 -170 0
-103 -112 -171 0
-103 -112 -172 0
-103 -129 -146 0
-103 -129 -169 0
-103 -129 -170 0
-103 -129 -171 0
-103 -129 -172 0
-103 -146 -169 0
-103 -146 -170 0
-103 -146 -171 0
-103 -146 -172 0
-103 -169 -170 0
-103 -169 -171 0
-103 -169 -172 0
-103 -170 -171 0
-103 -170 -172 0
-103 -171 -172 0
-112 -129 -146 0
-112 -129 -169 0
-112 -129 -170 0
-112 -129 -171 0
-112 -129 -172 0
-112 -146 -169 0
-112 -146 -170 0
-112 -146 -171 0
-112 -146 -172 0
-112 -169 -170 0
-112 -169 -171 0
-112 -169 -172 0
-112 -170 -171 0
-112 -170 -172 0
-112 -171 -172 0
-129 -146 -169 0
-129 -146 -170 0
-129 -146 -171 0
-129 -146 -172 0
-129 -169 -170 0
-129 -169 -171 0
-129 -169 -172 0
-129 -170 -171 0
-129 -170 -172 0
-129 -171 -172 0
-146 -169 -170 0
-146 -169 -171 0
-146 -169 -172 0
-146 -170 -171 0
-146 -170 -172 0
-146 -171 -172 0
-169 -170 -171 0
-169 -170 -172 0
-169 -171 -172 0
-170 -171 -172 0
112 129 146 169 170 171 172 0
103 129 146 169 170 171 172 0
103 112 146 169 170 171 172 0
103 112 129 169 170 171 172 0
103 112 129 146 170 171 172 0
103 112 129 146 169 171 172 0
103 112 129 146 169 170 172 0
103 112 129 146 169 170 171 0
-107 -116 -133 0
-107 -116 -150 0
-107 -116 -173 0
-107 -116 -174 0
-107 -116 -175 0
-107 -116 -176 0
-107 -133 -150 0
-107 -133 -173 0
-107 -133 -174 0
-107 -133 -175 0
-107 -133 -176 0
-107 -150 -173 0
-107 -150 -174 0
-107 -150 -175 0
-107 -150 -176 0
-107 -173 -174 0
-107 -173 -175 0
-107 -173 -176 0
-107 -174 -175 0
-107 -174 -176 0
-107 -175 -176 0
-116 -133 -150 0
-116 -133 -173 0
-116 -133 -174 0
-116 -133 -175 0
-116 -133 -176 0
-116 -150 -173 0
-116 -150 -174 0
-116 -150 -175 0
-116 -150 -176 0
-116 -173 -174 0
-116 -173 -175 0
-116 -173 -176 0
-116 -174 -175 0
-116 -174 -176 0
-116 -175 -176 0
-133 -150 -173 0
-133 -150 -174 0
-133 -150 -175 0
-133 -150 -176 0
-133 -173 -174 0
-133 -173 -175 0
-133 -173 -176 0
-133 -174 -175 0
-133 -174 -176 0
-133 -175 -176 0
-150 -173 -174 0
-150 -173 -175 0
-150 -173 -176 0
-150 -174 -175 0
-150 -174 -176 0
-150 -175 -176 0
-173 -174 -175 0
-173 -174 -176 0
-173 -175 -176 0
-174 -175 -176 0
116 133 150 173 174 175 176 0
107 133 150 173 174 175 176 0
107 116 150 173 174 175 176 0
107 116 133 173 174 175 176 0
107 116 133 150 174 175 176 0
107 116 133 150 173 175 176 0
107 116 133 150 173 174 176 0
107 116 133 150 173 174 175 0
-111 -120 -137 0
-111 -120 -154 0
-111 -120 -177 0
-111 -120 -178 0
-111 -120 -179 0
-111 -120 -180 0
-111 -137 -154 0
-111 -137 -177 0
-111 -137 -178 0
-111 -137 -179 0
-111 -137 -180 0
-111 -154 -177 0
-111 -154 -178 0
-111 -154 -179 0
-111 -154 -180 0
-111 -177 -178 0
-111 -177 -179 0
-111 -177 -180 0
-111 -178 -179 0
-111 -178 -180 0
-111 -179 -180 0
-120 -137 -154 0
-120 -137 -177 0
-120 -137 -178 0
-120 -137 -179 0
-120 -137 -180 0
-120 -154 -177 0
-120 -154 -178 0
-120 -154 -179 0
-120 -154 -180 0
-120 -177 -178 0
-120 -177 -179 0
-120 -177 -180 0
-120 -178 -179 0
-120 -178 -180 0
-120 -179 -180 0
-137 -154 -177 0
-137 -154 -178 0
-137 -154 -179 0
-137 -154 -180 0
-137 -177 -178 0
-137 -177 -179 0
-137 -177 -180 0
-137 -178 -179 0
-137 -178 -180 0
-137 -179 -180 0
-154 -177 -178 0
-154 -177 -179 0
-154 -177 -180 0
-154 -178 -179 0
-154 -178 -180 0
-154 -179 -180 0
-177 -178 -179 0
-177 -178 -180 0
-177 -179 -180 0
-178 -179 -180 0
120 137 154 177 178 179 180 0
111 137 154 177 178 179 180 0
111 120 154 177 178 179 180 0
111 120 137 177 178 179 180 0
111 120 137 154 178 179 180 0
111 120 137 154 177 179 180 0
111 120 137 154 177 178 180 0
111 120 137 154 177 178 179 0
-115 -124 -141 0
-115 -124 -158 0
-115 -124 -181 0
-115 -124 -182 0
-115 -124 -183 0
-115 -124 -184 0
-115 -141 -158 0
-115 -141 -181 0
-115 -141 -182 0
-115 -141 -183 0
-115 -141 -184 0
-115 -158 -181 0
-115 -158 -182 0
-115 -158 -183 0
-115 -158 -184 0
-115 -181 -182 0
-115 -181 -183 0
-115 -181 -184 0
-115 -182 -183 0
-115 -182 -184 0
-115 -183 -184 0
-124 -141 -158 0
-124 -141 -181 0
-124 -141 -182 0
-124 -141 -183 0
-124 -141 -184 0
-124 -158 -181 0
-124 -158 -182 0
-124 -158 -183 0
-124 -158 -184 0
-124 -181 -182 0
-124 -181 -183 0
-124 -181 -184 0
-124 -182 -183 0
-124 -182 -184 0
-124 -183 -184 0
-141 -158 -181 0
-141 -158 -182 0
-141 -158 -183 0
-141 -158 -184 0
-141 -181 -182 0
-141 -181 -183 0
-141 -181 -184 0
-141 -182 -183 0
-141 -182 -184 0
-141 -183 -184 0
-158 -181 -182 0
-158 -181 -183 0
-158 -181 -184 0
-158 -182 -183 0
-158 -182 -184 0
-158 -183 -184 0
-181 -182 -183 0
-181 -182 -184 0
-181 -183 -184 0
-182 -183 -184 0
124 141 158 181 182 183 184 0
115 141 158 181 182 183 184 0
115 124 158 181 182 183 184 0
115 124 141 181 182 183 184 0
115 124 141 158 182 183 184 0
115 124 141 158 181 183 184 0
115 124 141 158 181 182 184 0
115 124 141 158 181 182 183 0
-119 -128 -130 0
-119 -128 -145 0
-119 -128 -185 0
-119 -128 -186 0
-119 -128 -187 0
-119 -128 -188 0
-119 -130 -145 0
-119 -130 -185 0
-119 -130 -186 0
-119 -130 -187 0
-119 -130 -188 0
-119 -145 -185 0
-119 -145 -186 0
-119 -145 -187 0
-119 -145 -188 0
-119 -185 -186 0
-119 -185 -187 0
-119 -185 -188 0
-119 -186 -187 0
-119 -186 -188 0
-119 -187 -188 0
-128 -130 -145 0
-128 -130 -185 0
-128 -130 -186 0
-128 -130 -187 0
-128 -130 -188 0
-128 -145 -185 0
-128 -145 -186 0
-128 -145 -187 0
-128 -145 -188 0
-128 -185 -186 0
-128 -185 -187 0
-128 -185 -188 0
-128 -186 -187 0
-128 -186 -188 0
-128 -187 -188 0
-130 -145 -185 0
-130 -145 -186 0
-130 -145 -187 0
-130 -145 -188 0
-130 -185 -186 0
-130 -185 -187 0
-130 -185 -188 0
-130 -186 -187 0
-130 -186 -188 0
-130 -187 -188 0
-145 -185 -186 0
-145 -185 -187 0
-145 -185 -188 0
-145 -186 -187 0
-145 -186 -188 0
-145 -187 -188 0
-185 -186 -187 0
-185 -186 -188 0
-185 -187 -188 0
-186 -187 -188 0
128 130 145 185 186 187 188 0
119 130 145 185 186 187 188 0
119 128 145 185 186 187 188 0
119 128 130 185 186 187 188 0
119 128 130 145 186 187 188 0
119 128 130 145 185 187 188 0
119 128 130 145 185 186 188 0
119 128 130 145 185 186 187 0
-100 -123 -134 0
-100 -123 -149 0
-100 -123 -189 0
-100 -123 -190 0
-100 -123 -191 0
-100 -123 -192 0
-100 -134 -149 0
-100 -134 -189 0
-100 -134 -190 0
-100 -134 -191 0
-100 -134 -192 0
-100 -149 -189 0
-100 -149 -190 0
-100 -149 -191 0
-100 -149 -192 0
-100 -189 -190 0
-100 -189 -191 0
-100 -189 -192 0
-100 -190 -191 0
-100 -190 -192 0
-100 -191 -192 0
-123 -134 -149 0
-123 -134 -189 0
-123 -134 -190 0
-123 -134 -191 0
-123 -134 -192 0
-123 -149 -189 0
-123 -149 -190 0
-123 -149 -191 0
-123 -149 -192 0
-123 -189 -190 0
-123 -189 -191 0
-123 -189 -192 0
-123 -190 -191 0
-123 -190 -192 0
-123 -191 -192 0
-134 -149 -189 0
-134 -149 -190 0
-134 -149 -191 0
-134 -149 -192 0
-134 -189 -190 0
-134 -189 -191 0
-134 -189 -192 0
-134 -190 -191 0
-134 -190 -192 0
-134 -191 -192 0
-149 -189 -190 0
-149 -189 -191 0
-149 -189 -192 0
-149 -190 -191 0
-149 -190 -192 0
-149 -191 -192 0
-189 -190 -191 0
-189 -190 -192 0
-189 -191 -192 0
-190 -191 -192 0
123 134 149 189 190 191 192 0
100 134 149 189 190 191 192 0
100 123 149 189 190 191 192 0
100 123 134 189 190 191 192 0
100 123 134 149 190 191 192 0
100 123 134 149 189 191 192 0
100 123 134 149 189 190 192 0
100 123 134 149 189 190 191 0
-136 -159 -170 0
-136 -159 -185 0
-136 -159 -193 0
-136 -159 -194 0
-136 -159 -195 0
-136 -159 -196 0
-136 -170 -185 0
-136 -170 -193 0
-136 -170 -194 0
-136 -170 -195 0
-136 -170 -196 0
-136 -185 -193 0
-136 -185 -194 0
-136 -185 -195 0
-136 -185 -196 0
-136 -193 -194 0
-136 -193 -195 0
-136 -193 -196 0
-136 -194 -195 0
-136 -194 -196 0
-136 -195 -196 0
-159 -170 -185 0
-159 -170 -193 0
-159 -170 -194 0
-159 -170 -195 0
-159 -170 -196 0
-159 -185 -193 0
-159 -185 -194 0
-159 -185 -195 0
-159 -185 -196 0
-159 -193 -194 0
-159 -193 -195 0
-159 -193 -196 0
-159 -194 -195 0
-159 -194 -196 0
-159 -195 -196 0
-170 -185 -193 0
-170 -185 -194 0
-170 -185 -195 0
-170 -185 -196 0
-170 -193 -194 0
-170 -193 -195 0
-170 -193 -196 0
-170 -194 -195 0
-170 -194 -196 0
-170 -195 -196 0
-185 -193 -194 0
-185 -193 -195 0
-185 -193 -196 0
-185 -194 -195 0
-185 -194 -196 0
-185 -195 -196 0
-193 -194 -195 0
-193 -194 -196 0
-193 -195 -196 0
-194 -195 -196 0
159 170 185 193 194 195 196 0
136 170 185 193 194 195 196 0
136 159 185 193 194 195 196 0
136 159 170 193 194 195 196 0
136 159 170 185 194 195 196 0
136 159 170 185 193 195 196 0
136 159 170 185 193 194 196 0
136 159 170 185 193 194 195 0
-131 -140 -174 0
-131 -140 -189 0
-131 -140 -197 0
-131 -140 -198 0
-131 -140 -199 0
-131 -140 -200 0
-131 -174 -189 0
-131 -174 -197 0
-131 -174 -198 0
-131 -174 -199 0
-131 -174 -200 0
-131 -189 -197 0
-131 -189 -198 0
-131 -189 -199 0
-131 -189 -200 0
-131 -197 -198 0
-131 -197 -199 0
-131 -197 -200 0
-131 -198 -199 0
-131 -198 -200 0
-131 -199 -200 0
-140 -174 -189 0
-140 -174 -197 0
-140 -174 -198 0
-140 -174 -199 0
-140 -174 -200 0
-140 -189 -197 0
-140 -189 -198 0
-140 -189 -199 0
-140 -189 -200 0
-140 -197 -198 0
-140 -197 -199 0
-140 -197 -200 0
-140 -198 -199 0
-140 -198 -200 0
-140 -199 -200 0
-174 -189 -197 0
-174 -189 -198 0
-174 -189 -199 0
-174 -189 -200 0
-174 -197 -198 0
-174 -197 -199 0
-174 -197 -200 0
-174 -198 -199 0
-174 -198 -200 0
-174 -199 -200 0
-189 -197 -198 0
-189 -197 -199 0
-189 -197 -200 0
-189 -198 -199 0
-189 -198 -200 0
-189 -199 -200 0
-197 -198 -199 0
-197 -198 -200 0
-197 -199 -200 0
-198 -199 -200 0
140 174 189 197 198 199 200 0
131 174 189 197 198 199 200 0
131 140 189 197 198 199 200 0
131 140 174 197 198 199 200 0
131 140 174 189 198 199 200 0
131 140 174 189 197 199 200 0
131 140 174 189 197 198 200 0
131 140 174 189 197 198 199 0
-135 -144 -161 0
-135 -144 -178 0
-135 -144 -201 0
-135 -144 -202 0
-135 -144 -203 0
-135 -144 -204 0
-135 -161 -178 0
-135 -161 -201 0
-135 -161 -202 0
-135 -161 -203 0
-135 -161 -204 0
-135 -178 -201 0
-135 -178 -202 0
-135 -178 -203 0
-135 -178 -204 0
-135 -201 -202 0
-135 -201 -203 0
-135 -201 -204 0
-135 -202 -203 0
-135 -202 -204 0
-135 -203 -204 0
-144 -161 -178 0
-144 -161 -201 0
-144 -161 -202 0
-144 -161 -203 0
-144 -161 -204 0
-144 -178 -201 0
-144 -178 -202 0
-144 -178 -203 0
-144 -178 -204 0
-144 -201 -202 0
-144 -201 -203 0
-144 -201 -204 0
-144 -202 -203 0
-144 -202 -204 0
-144 -203 -204 0
-161 -178 -201 0
-161 -178 -202 0
-161 -178 -203 0
-161 -178 -204 0
-161 -201 -202 0
-161 -201 -203 0
-161 -201 -204 0
-161 -202 -203 0
-161 -202 -204 0
-161 -203 -204 0
-178 -201 -202 0
-178 -201 -203 0
-178 -201 -204 0
-178 -202 -203 0
-178 -202 -204 0
-178 -203 -204 0
-201 -202 -203 0
-201 -202 -204 0
-201 -203 -204 0
-202 -203 -204 0
144 161 178 201 202 203 204 0
135 161 178 201 202 203 204 0
135 144 178 201 202 203 204 0
135 144 161 201 202 203 204 0
135 144 161 178 202 203 204 0
135 144 161 178 201 203 204 0
135 144 161 178 201 202 204 0
135 144 161 178 201 202 203 0
-139 -148 -165 0
-139 -148 -182 0
-139 -148 -205 0
-139 -148 -206 0
-139 -148 -207 0
-139 -148 -208 0
-139 -165 -182 0
-139 -165 -205 0
-139 -165 -206 0
-139 -165 -207 0
-139 -165 -208 0
-139 -182 -205 0
-139 -182 -206 0
-139 -182 -207 0
-139 -182 -208 0
-139 -205 -206 0
-139 -205 -207 0
-139 -205 -208 0
-139 -206 -207 0
-139 -206 -208 0
-139 -207 -208 0
-148 -165 -182 0
-148 -165 -205 0
-148 -165 -206 0
-148 -165 -207 0
-148 -165 -208 0
-148 -182 -205 0
-148 -182 -206 0
-148 -182 -207 0
-148 -182 -208 0
-148 -205 -206 0
-148 -205 -207 0
-148 -205 -208 0
-148 -206 -207 0
-148 -206 -208 0
-148 -207 -208 0
-165 -182 -205 0
-165 -182 -206 0
-165 -182 -207 0
-165 -182 -208 0
-165 -205 -206 0
-165 -205 -207 0
-165 -205 -208 0
-165 -206 -207 0
-165 -206 -208 0
-165 -207 -208 0
-182 -205 -206 0
-182 -205 -207 0
-182 -205 -208 0
-182 -206 -207 0
-182 -206 -208 0
-182 -207 -208 0
-205 -206 -207 0
-205 -206 -208 0
-205 -207 -208 0
-206 -207 -208 0
148 165 182 205 206 207 208 0
139 165 182 205 206 207 208 0
139 148 182 205 206 207 208 0
139 148 165 205 206 207 208 0
139 148 165 182 206 207 208 0
139 148 165 182 205 207 208 0
139 148 165 182 205 206 208 0
139 148 165 182 205 206 207 0
-143 -152 -169 0
-143 -152 -186 0
-143 -152 -209 0
-143 -152 -210 0
-143 -152 -211 0
-143 -152 -212 0
-143 -169 -186 0
-143 -169 -209 0
-143 -169 -210 0
-143 -169 -211 0
-143 -169 -212 0
-143 -186 -209 0
-143 -186 -210 0
-143 -186 -211 0
-143 -186 -212 0
-143 -209 -210 0
-143 -209 -211 0
-143 -209 -212 0
-143 -210 -211 0
-143 -210 -212 0
-143 -211 -212 0
-152 -169 -186 0
-152 -169 -209 0
-152 -169 -210 0
-152 -169 -211 0
-152 -169 -212 0
-152 -186 -209 0
-152 -186 -210 0
-152 -186 -211 0
-152 -186 -212 0
-152 -209 -210 0
-152 -209 -211 0
-152 -209 -212 0
-152 -210 -211 0
-152 -210 -212 0
-152 -211 -212 0
-169 -186 -209 0
-169 -186 -210 0
-169 -186 -211 0
-169 -186 -212 0
-169 -209 -210 0
-169 -209 -211 0
-169 -209 -212 0
-169 -210 -211 0
-169 -210 -212 0
-169 -211 -212 0
-186 -209 -210 0
-186 -209 -211 0
-186 -209 -212 0
-186 -210 -211 0
-186 -210 -212 0
-186 -211 -212 0
-209 -210 -211 0
-209 -210 -212 0
-209 -211 -212 0
-210 -211 -212 0
152 169 186 209 210 211 212 0
143 169 186 209 210 211 212 0
143 152 186 209 210 211 212 0
143 152 169 209 210 211 212 0
143 152 169 186 210 211 212 0
143 152 169 186 209 211 212 0
143 152 169 186 209 210 212 0
143 152 169 186 209 210 211 0
-147 -156 -173 0
-147 -156 -190 0
-147 -156 -213 0
-147 -156 -214 0
-147 -156 -215 0
-147 -156 -216 0
-147 -173 -190 0
-147 -173 -213 0
-147 -173 -214 0
-147 -173 -215 0
-147 -173 -216 0
-147 -190 -213 0
-147 -190 -214 0
-147 -190 -215 0
-147 -190 -216 0
-147 -213 -214 0
-147 -213 -215 0
-147 -213 -216 0
-147 -214 -215 0
-147 -214 -216 0
-147 -215 -216 0
-156 -173 -190 0
-156 -173 -213 0
-156 -173 -214 0
-156 -173 -215 0
-156 -173 -216 0
-156 -190 -213 0
-156 -190 -214 0
-156 -190 -215 0
-156 -190 -216 0
-156 -213 -214 0
-156 -213 -215 0
-156 -213 -216 0
-156 -214 -215 0
-156 -214 -216 0
-156 -215 -216 0
-173 -190 -213 0
-173 -190 -214 0
-173 -190 -215 0
-173 -190 -216 0
-173 -213 -214 0
-173 -213 -215 0
-173 -213 -216 0
-173 -214 -215 0
-173 -214 -216 0
-173 -215 -216 0
-190 -213 -214 0
-190 -213 -215 0
-190 -213 -216 0
-190 -214 -215 0
-190 -214 -216 0
-190 -215 -216 0
-213 -214 -215 0
-213 -214 -216 0
-213 -215 -216 0
-214 -215 -216 0
156 173 190 213 214 215 216 0
147 173 190 213 214 215 216 0
147 156 190 213 214 215 216 0
147 156 173 213 214 215 216 0
147 156 173 190 214 215 216 0
147 156 173 190 213 215 216 0
147 156 173 190 213 214 216 0
147 156 173 190 213 214 215 0
-151 -160 -162 0
-151 -160 -177 0
-151 -160 -217 0
-151 -160 -218 0
-151 -160 -219 0
-151 -160 -220 0
-151 -162 -177 0
-151 -162 -217 0
-151 -162 -218 0
-151 -162 -219 0
-151 -162 -220 0
-151 -177 -217 0
-151 -177 -218 0
-151 -177 -219 0
-151 -177 -220 0
-151 -217 -218 0
-151 -217 -219 0
-151 -217 -220 0
-151 -218 -219 0
-151 -218 -220 0
-151 -219 -220 0
-160 -162 -177 0
-160 -162 -217 0
-160 -162 -218 0
-160 -162 -219 0
-160 -162 -220 0
-160 -177 -217 0
-160 -177 -218 0
-160 -177 -219 0
-160 -177 -220 0
-160 -217 -218 0
-160 -217 -219 0
-160 -217 -220 0
-160 -218 -219 0
-160 -218 -220 0
-160 -219 -220 0
-162 -177 -217 0
-162 -177 -218 0
-162 -177 -219 0
-162 -177 -220 0
-162 -217 -218 0
-162 -217 -219 0
-162 -217 -220 0
-162 -218 -219 0
-162 -218 -220 0
-162 -219 -220 0
-177 -217 -218 0
-177 -217 -219 0
-177 -217 -220 0
-177 -218 -219 0
-177 -218 -220 0
-177 -219 -220 0
-217 -218 -219 0
-217 -218 -220 0
-217 -219 -220 0
-218 -219 -220 0
160 162 177 217 218 219 220 0
151 162 177 217 218 219 220 0
151 160 177 217 218 219 220 0
151 160 162 217 218 219 220 0
151 160 162 177 218 219 220 0
151 160 162 177 217 219 220 0
151 160 162 177 217 218 220 0
151 160 162 177 217 218 219 0
-132 -155 -166 0
-132 -155 -181 0
-132 -155 -221 0
-132 -155 -222 0
-132 -155 -223 0
-132 -155 -224 0
-132 -166 -181 0
-132 -166 -221 0
-132 -166 -222 0
-132 -166 -223 0
-132 -166 -224 0
-132 -181 -221 0
-132 -181 -222 0
-132 -181 -223 0
-132 -181 -224 0
-132 -221 -222 0
-132 -221 -223 0
-132 -221 -224 0
-132 -222 -223 0
-132 -222 -224 0
-132 -223 -224 0
-155 -166 -181 0
-155 -166 -221 0
-155 -166 -222 0
-155 -166 -223 0
-155 -166 -224 0
-155 -181 -221 0
-155 -181 -222 0
-155 -181 -223 0
-155 -181 -224 0
-155 -221 -222 0
-155 -221 -223 0
-155 -221 -224 0
-155 -222 -223 0
-155 -222 -224 0
-155 -223 -224 0
-166 -181 -221 0
-166 -181 -222 0
-166 -181 -223 0
-166 -181 -224 0
-166 -221 -222 0
-166 -221 -223 0
-166 -221 -224 0
-166 -222 -223 0
-166 -222 -224 0
-166 -223 -224 0
-181 -221 -222 0
-181 -221 -223 0
-181 -221 -224 0
-181 -222 -223 0
-181 -222 -224 0
-181 -223 -224 0
-221 -222 -223 0
-221 -222 -224 0
-221 -223 -224 0
-222 -223 -224 0
155 166 181 221 222 223 224 0
132 166 181 221 222 223 224 0
132 155 181 221 222 223 224 0
132 155 166 221 222 223 224 0
132 155 166 181 222 223 224 0
132 155 166 181 221 223 224 0
132 155 166 181 221 222 224 0
132 155 166 181 221 222 223 0
-168 -191 -202 0
-168 -191 -217 0
-168 -202 -217 0
-191 -202 -217 0
-163 -172 -206 0
-163 -172 -221 0
-163 -206 -221 0
-172 -206 -221 0
-167 -176 -193 0
-167 -176 -210 0
-167 -193 -210 0
-176 -193 -210 0
-171 -180 -197 0
-171 -180 -214 0
-171 -197 -214 0
-180 -197 -214 0
-175 -184 -201 0
-175 -184 -218 0
-175 -201 -218 0
-184 -201 -218 0
-179 -188 -205 0
-179 -188 -222 0
-179 -205 -222 0
-188 -205 -222 0
-183 -192 -194 0
-183 -192 -209 0
-183 -194 -209 0
-192 -194 -209 0
-164 -187 -198 0
-164 -187 -213 0
-164 -198 -213 0
-187 -198 -213 0
-1 -6 225 0
-1 -7 226 0
-1 -8 227 0
-1 -10 228 0
-1 -12 229 0
-1 -14 230 0
-2 -21 231 0
-2 -25 232 0
-2 -27 233 0
-2 -29 234 0
-2 -31 235 0
-2 -32 236 0
-3 -6 237 0
-3 -8 238 0
-3 -10 239 0
-3 -29 240 0
-3 -33 241 0
-3 -38 242 0
-3 -40 243 0
-3 -42 244 0
-4 -6 245 0
-4 -25 246 0
-4 -29 247 0
-4 -31 248 0
-4 -34 249 0
-4 -57 250 0
-4 -61 251 0
-4 -63 252 0
-5 -10 253 0
-5 -11 254 0
-5 -12 255 0
-5 -14 256 0
-5 -16 257 0
-5 -18 258 0
-6 -25 259 0
-6 -29 260 0
-6 -31 261 0
-7 -10 262 0
-7 -12 263 0
-7 -14 264 0
-7 -37 265 0
-7 -42 266 0
-7 -44 267 0
-7 -46 268 0
-8 -10 269 0
-8 -29 270 0
-8 -33 271 0
-8 -35 272 0
-8 -38 273 0
-8 -61 274 0
-9 -14 275 0
-9 -15 276 0
-9 -16 277 0
-9 -18 278 0
-9 -20 279 0
-9 -22 280 0
-10 -29 281 0
-11 -14 282 0
-11 -16 283 0
-11 -18 284 0
-11 -41 285 0
-11 -46 286 0
-11 -48 287 0
-11 -50 288 0
-12 -14 289 0
-12 -33 290 0
-12 -37 291 0
-12 -39 292 0
-12 -42 293 0
-13 -18 294 0
-13 -19 295 0
-13 -20 296 0
-13 -22 297 0
-13 -24 298 0
-13 -26 299 0
-15 -18 300 0
-15 -20 301 0
-15 -22 302 0
-15 -45 303 0
-15 -50 304 0
-15 -52 305 0
-15 -54 306 0
-16 -18 307 0
-16 -37 308 0
-16 -41 309 0
-16 -43 310 0
-16 -46 311 0
-17 -22 312 0
-17 -23 313 0
-17 -24 314 0
-17 -26 315 0
-17 -28 316 0
-17 -30 317 0
-19 -22 318 0
-19 -24 319 0
-19 -26 320 0
-19 -49 321 0
-19 -54 322 0
-19 -56 323 0
-19 -58 324 0
-20 -22 325 0
-20 -41 326 0
-20 -45 327 0
-20 -47 328 0
-20 -50 329 0
-21 -26 330 0
-21 -27 331 0
-21 -28 332 0
-21 -30 333 0
-21 -32 334 0
-23 -26 335 0
-23 -28 336 0
-23 -30 337 0
-23 -53 338 0
-23 -58 339 0
-23 -60 340 0
-23 -62 341 0
-24 -26 342 0
-24 -45 343 0
-24 -49 344 0
-24 -51 345 0
-24 -54 346 0
-25 -30 347 0
-25 -31 348 0
-25 -32 349 0
-27 -30 350 0
-27 -32 351 0
-27 -34 352 0
-27 -57 353 0
-27 -62 354 0
-27 -64 355 0
-28 -30 356 0
-28 -49 357 0
-28 -53 358 0
-28 -55 359 0
-28 -58 360 0
-31 -34 361 0
-31 -36 362 0
-31 -38 363 0
-31 -61 364 0
-32 -53 365 0
-32 -57 366 0
-32 -59 367 0
-32 -62 368 0
-33 -38 369 0
-33 -39 370 0
-33 -40 371 0
-33 -42 372 0
-33 -44 373 0
-33 -46 374 0
-34 -53 375 0
-34 -57 376 0
-34 -59 377 0
-34 -61 378 0
-34 -63 379 0
-34 -64 380 0
-35 -38 381 0
-35 -40 382 0
-35 -42 383 0
-35 -61 384 0
-35 -65 0
-35 -70 0
-35 -72 0
-35 -74 0
-36 -38 385 0
-36 -57 386 0
-36 -61 387 0
-36 -63 388 0
-36 -66 0
-36 -89 0
-36 -93 0
-36 -95 0
-37 -42 389 0
-37 -43 390 0
-37 -44 391 0
-37 -46 392 0
-37 -48 393 0
-37 -50 394 0
-38 -57 395 0
-38 -61 396 0
-38 -63 397 0
-39 -42 398 0
-39 -44 399 0
-39 -46 400 0
-39 -69 0
-39 -74 0
-39 -76 0
-39 -78 0
-40 -42 401 0
-40 -61 402 0
-40 -65 0
-40 -67 0
-40 -70 0
-40 -93 0
-41 -46 403 0
-41 -47 404 0
-41 -48 405 0
-41 -50 406 0
-41 -52 407 0
-41 -54 408 0
-42 -61 409 0
-43 -46 410 0
-43 -48 411 0
-43 -50 412 0
-43 -73 0
-43 -78 0
-43 -80 0
-43 -82 0
-44 -46 413 0
-44 -65 0
-44 -69 0
-44 -71 0
-44 -74 0
-45 -50 414 0
-45 -51 415 0
-45 -52 416 0
-45 -54 417 0
-45 -56 418 0
-45 -58 419 0
-47 -50 420 0
-47 -52 421 0
-47 -54 422 0
-47 -77 0
-47 -82 0
-47 -84 0
-47 -86 0
-48 -50 423 0
-48 -69 0
-48 -73 0
-48 -75 0
-48 -78 0
-49 -54 424 0
-49 -55 425 0
-49 -56 426 0
-49 -58 427 0
-49 -60 428 0
-49 -62 429 0
-51 -54 430 0
-51 -56 431 0
-51 -58 432 0
-51 -81 0
-51 -86 0
-51 -88 0
-51 -90 0
-52 -54 433 0
-52 -73 0
-52 -77 0
-52 -79 0
-52 -82 0
-53 -58 434 0
-53 -59 435 0
-53 -60 436 0
-53 -62 437 0
-53 -64 438 0
-55 -58 439 0
-55 -60 440 0
-55 -62 441 0
-55 -85 0
-55 -90 0
-55 -92 0
-55 -94 0
-56 -58 442 0
-56 -77 0
-56 -81 0
-56 -83 0
-56 -86 0
-57 -62 443 0
-57 -63 444 0
-57 -64 445 0
-59 -62 446 0
-59 -64 447 0
-59 -66 0
-59 -89 0
-59 -94 0
-59 -96 0
-60 -62 448 0
-60 -81 0
-60 -85 0
-60 -87 0
-60 -90 0
-63 -66 0
-63 -68 0
-63 -70 0
-63 -93 0
-64 -85 0
-64 -89 0
-64 -91 0
-64 -94 0
-65 -70 0
-65 -71 0
-65 -72 0
-65 -74 0
-65 -76 0
-65 -78 0
-66 -85 0
-66 -89 0
-66 -91 0
-66 -93 0
-66 -95 0
-66 -96 0
-67 -70 0
-67 -72 0
-67 -74 0
-67 -93 0
-67 -97 0
-67 -102 0
-67 -104 0
-67 -106 0
-68 -70 0
-68 -89 0
-68 -93 0
-68 -95 0
-68 -98 0
-68 -121 0
-68 -125 0
-68 -127 0
-69 -74 0
-69 -75 0
-69 -76 0
-69 -78 0
-69 -80 0
-69 -82 0
-70 -89 0
-70 -93 0
-70 -95 0
-71 -74 0
-71 -76 0
-71 -78 0
-71 -101 0
-71 -106 0
-71 -108 0
-71 -110 0
-72 -74 0
-72 -93 0
-72 -97 0
-72 -99 0
-72 -102 0
-72 -125 0
-73 -78 0
-73 -79 0
-73 -80 0
-73 -82 0
-73 -84 0
-73 -86 0
-74 -93 0
-75 -78 0
-75 -80 0
-75 -82 0
-75 -105 0
-75 -110 0
-75 -112 0
-75 -114 0
-76 -78 0
-76 -97 0
-76 -101 0
-76 -103 0
-76 -106 0
-77 -82 0
-77 -83 0
-77 -84 0
-77 -86 0
-77 -88 0
-77 -90 0
-79 -82 0
-79 -84 0
-79 -86 0
-79 -109 0
-79 -114 0
-79 -116 0
-79 -118 0
-80 -82 0
-80 -101 0
-80 -105 0
-80 -107 0
-80 -110 0
-81 -86 0
-81 -87 0
-81 -88 0
-81 -90 0
-81 -92 0
-81 -94 0
-83 -86 0
-83 -88 0
-83 -90 0
-83 -113 0
-83 -118 0
-83 -120 0
-83 -122 0
-84 -86 0
-84 -105 0
-84 -109 0
-84 -111 0
-84 -114 0
-85 -90 0
-85 -91 0
-85 -92 0
-85 -94 0
-85 -96 0
-87 -90 0
-87 -92 0
-87 -94 0
-87 -117 0
-87 -122 0
-87 -124 0
-87 -126 0
-88 -90 0
-88 -109 0
-88 -113 0
-88 -115 0
-88 -118 0
-89 -94 0
-89 -95 0
-89 -96 0
-91 -94 0
-91 -96 0
-91 -98 0
-91 -121 0
-91 -126 0
-91 -128 0
-92 -94 0
-92 -113 0
-92 -117 0
-92 -119 0
-92 -122 0
-95 -98 0
-95 -100 0
-95 -102 0
-95 -125 0
-96 -117 0
-96 -121 0
-96 -123 0
-96 -126 0
-97 -102 0
-97 -103 0
-97 -104 0
-97 -106 0
-97 -108 0
-97 -110 0
-98 -117 0
-98 -121 0
-98 -123 0
-98 -125 0
-98 -127 0
-98 -128 0
-99 -102 0
-99 -104 0
-99 -106 0
-99 -125 0
-99 -129 0
-99 -134 0
-99 -136 0
-99 -138 0
-100 -102 0
-100 -121 0
-100 -125 0
-100 -127 0
-100 -130 0
-100 -153 0
-100 -157 0
-100 -159 0
-101 -106 0
-101 -107 0
-101 -108 0
-101 -110 0
-101 -112 0
-101 -114 0
-102 -121 0
-102 -125 0
-102 -127 0
-103 -106 0
-103 -108 0
-103 -110 0
-103 -133 0
-103 -138 0
-103 -140 0
-103 -142 0
-104 -106 0
-104 -125 0
-104 -129 0
-104 -131 0
-104 -134 0
-104 -157 0
-105 -110 0
-105 -111 0
-105 -112 0
-105 -114 0
-105 -116 0
-105 -118 0
-106 -125 0
-107 -110 0
-107 -112 0
-107 -114 0
-107 -137 0
-107 -142 0
-107 -144 0
-107 -146 0
-108 -110 0
-108 -129 0
-108 -133 0
-108 -135 0
-108 -138 0
-109 -114 0
-109 -115 0
-109 -116 0
-109 -118 0
-109 -120 0
-109 -122 0
-111 -114 0
-111 -116 0
-111 -118 0
-111 -141 0
-111 -146 0
-111 -148 0
-111 -150 0
-112 -114 0
-112 -133 0
-112 -137 0
-112 -139 0
-112 -142 0
-113 -118 0
-113 -119 0
-113 -120 0
-113 -122 0
-113 -124 0
-113 -126 0
-115 -118 0
-115 -120 0
-115 -122 0
-115 -145 0
-115 -150 0
-115 -152 0
-115 -154 0
-116 -118 0
-116 -137 0
-116 -141 0
-116 -143 0
-116 -146 0
-117 -122 0
-117 -123 0
-117 -124 0
-117 -126 0
-117 -128 0
-119 -122 0
-119 -124 0
-119 -126 0
-119 -149 0
-119 -154 0
-119 -156 0
-119 -158 0
-120 -122 0
-120 -141 0
-120 -145 0
-120 -147 0
-120 -150 0
-121 -126 0
-121 -127 0
-121 -128 0
-123 -126 0
-123 -128 0
-123 -130 0
-123 -153 0
-123 -158 0
-123 -160 0
-124 -126 0
-124 -145 0
-124 -149 0
-124 -151 0
-124 -154 0
-127 -130 0
-127 -132 0
-127 -134 0
-127 -157 0
-128 -149 0
-128 -153 0
-128 -155 0
-128 -158 0
-129 -134 0
-129 -135 0
-129 -136 0
-129 -138 0
-129 -140 0
-129 -142 0
-130 -149 0
-130 -153 0
-130 -155 0
-130 -157 0
-130 -159 0
-130 -160 0
-131 -134 0
-131 -136 0
-131 -138 0
-131 -157 0
-131 -161 0
-131 -166 0
-131 -168 0
-131 -170 0
-132 -134 0
-132 -153 0
-132 -157 0
-132 -159 0
-132 -162 0
-132 -185 0
-132 -189 0
-132 -191 0
-133 -138 0
-133 -139 0
-133 -140 0
-133 -142 0
-133 -144 0
-133 -146 0
-134 -153 0
-134 -157 0
-134 -159 0
-135 -138 0
-135 -140 0
-135 -142 0
-135 -165 0
-135 -170 0
-135 -172 0
-135 -174 0
-136 -138 0
-136 -157 0
-136 -161 0
-136 -163 0
-136 -166 0
-136 -189 0
-137 -142 0
-137 -143 0
-137 -144 0
-137 -146 0
-137 -148 0
-137 -150 0
-138 -157 0
-139 -142 0
-139 -144 0
-139 -146 0
-139 -169 0
-139 -174 0
-139 -176 0
-139 -178 0
-140 -142 0
-140 -161 0
-140 -165 0
-140 -167 0
-140 -170 0
-141 -146 0
-141 -147 0
-141 -148 0
-141 -150 0
-141 -152 0
-141 -154 0
-143 -146 0
-143 -148 0
-143 -150 0
-143 -173 0
-143 -178 0
-143 -180 0
-143 -182 0
-144 -146 0
-144 -165 0
-144 -169 0
-144 -171 0
-144 -174 0
-145 -150 0
-145 -151 0
-145 -152 0
-145 -154 0
-145 -156 0
-145 -158 0
-147 -150 0
-147 -152 0
-147 -154 0
-147 -177 0
-147 -182 0
-147 -184 0
-147 -186 0
-148 -150 0
-148 -169 0
-148 -173 0
-148 -175 0
-148 -178 0
-149 -154 0
-149 -155 0
-149 -156 0
-149 -158 0
-149 -160 0
-151 -154 0
-151 -156 0
-151 -158 0
-151 -181 0
-151 -186 0
-151 -188 0
-151 -190 0
-152 -154 0
-152 -173 0
-152 -177 0
-152 -179 0
-152 -182 0
-153 -158 0
-153 -159 0
-153 -160 0
-155 -158 0
-155 -160 0
-155 -162 0
-155 -185 0
-155 -190 0
-155 -192 0
-156 -158 0
-156 -177 0
-156 -181 0
-156 -183 0
-156 -186 0
-159 -162 0
-159 -164 0
-159 -166 0
-159 -189 0
-160 -181 0
-160 -185 0
-160 -187 0
-160 -190 0
-161 -166 0
-161 -167 0
-161 -168 0
-161 -170 0
-161 -172 0
-161 -174 0
-162 -181 0
-162 -185 0
-162 -187 0
-162 -189 0
-162 -191 0
-162 -192 0
-163 -166 0
-163 -168 0
-163 -170 0
-163 -189 0
-163 -193 0
-163 -198 0
-163 -200 0
-163 -202 0
-164 -166 0
-164 -185 0
-164 -189 0
-164 -191 0
-164 -194 0
-164 -217 0
-164 -221 0
-164 -223 0
-165 -170 0
-165 -171 0
-165 -172 0
-165 -174 0
-165 -176 0
-165 -178 0
-166 -185 0
-166 -189 0
-166 -191 0
-167 -170 0
-167 -172 0
-167 -174 0
-167 -197 0
-167 -202 0
-167 -204 0
-167 -206 0
-168 -170 0
-168 -189 0
-168 -193 0
-168 -195 0
-168 -198 0
-168 -221 0
-169 -174 0
-169 -175 0
-169 -176 0
-169 -178 0
-169 -180 0
-169 -182 0
-170 -189 0
-171 -174 0
-171 -176 0
-171 -178 0
-171 -201 0
-171 -206 0
-171 -208 0
-171 -210 0
-172 -174 0
-172 -193 0
-172 -197 0
-172 -199 0
-172 -202 0
-173 -178 0
-173 -179 0
-173 -180 0
-173 -182 0
-173 -184 0
-173 -186 0
-175 -178 0
-175 -180 0
-175 -182 0
-175 -205 0
-175 -210 0
-175 -212 0
-175 -214 0
-176 -178 0
-176 -197 0
-176 -201 0
-176 -203 0
-176 -206 0
-177 -182 0
-177 -183 0
-177 -184 0
-177 -186 0
-177 -188 0
-177 -190 0
-179 -182 0
-179 -184 0
-179 -186 0
-179 -209 0
-179 -214 0
-179 -216 0
-179 -218 0
-180 -182 0
-180 -201 0
-180 -205 0
-180 -207 0
-180 -210 0
-181 -186 0
-181 -187 0
-181 -188 0
-181 -190 0
-181 -192 0
-183 -186 0
-183 -188 0
-183 -190 0
-183 -213 0
-183 -218 0
-183 -220 0
-183 -222 0
-184 -186 0
-184 -205 0
-184 -209 0
-184 -211 0
-184 -214 0
-185 -190 0
-185 -191 0
-185 -192 0
-187 -190 0
-187 -192 0
-187 -194 0
-187 -217 0
-187 -222 0
-187 -224 0
-188 -190 0
-188 -209 0
-188 -213 0
-188 -215 0
-188 -218 0
-191 -194 0
-191 -196 0
-191 -198 0
-191 -221 0
-192 -213 0
-192 -217 0
-192 -219 0
-192 -222 0
-193 -198 0
-193 -199 0
-193 -200 0
-193 -202 0
-193 -204 0
-193 -206 0
-194 -213 0
-194 -217 0
-194 -219 0
-194 -221 0
-194 -223 0
-194 -224 0
-195 -198 0
-195 -200 0
-195 -202 0
-195 -221 0
-196 -198 0
-196 -217 0
-196 -221 0
-196 -223 0
-197 -202 0
-197 -203 0
-197 -204 0
-197 -206 0
-197 -208 0
-197 -210 0
-198 -217 0
-198 -221 0
-198 -223 0
-199 -202 0
-199 -204 0
-199 -206 0
-200 -202 0
-200 -221 0
-201 -206 0
-201 -207 0
-201 -208 0
-201 -210 0
-201 -212 0
-201 -214 0
-202 -221 0
-203 -206 0
-203 -208 0
-203 -210 0
-204 -206 0
-205 -210 0
-205 -211 0
-205 -212 0
-205 -214 0
-205 -216 0
-205 -218 0
-207 -210 0
-207 -212 0
-207 -214 0
-208 -210 0
-209 -214 0
-209 -215 0
-209 -216 0
-209 -218 0
-209 -220 0
-209 -222 0
-211 -214 0
-211 -216 0
-211 -218 0
-212 -214 0
-213 -218 0
-213 -219 0
-213 -220 0
-213 -222 0
-213 -224 0
-215 -218 0
-215 -220 0
-215 -222 0
-216 -218 0
-217 -222 0
-217 -223 0
-217 -224 0
-219 -222 0
-219 -224 0
-220 -222 0
104 131 134 157 0
-104 -131 0
-104 -134 0
-104 -157 0
-131 -134 0
-131 -157 0
-134 -157 0
131 136 138 157 0
-131 -136 0
-131 -138 0
-131 -157 0
-136 -138 0
-136 -157 0
-138 -157 0
99 129 136 138 0
-99 -129 0
-99 -136 0
-99 -138 0
-129 -136 0
-129 -138 0
-136 -138 0
99 104 129 134 0
-99 -104 0
-99 -129 0
-99 -134 0
-104 -129 0
-104 -134 0
-129 -134 0
108 129 135 138 0
-108 -129 0
-108 -135 0
-108 -138 0
-129 -135 0
-129 -138 0
-135 -138 0
129 135 140 142 0
-129 -135 0
-129 -140 0
-129 -142 0
-135 -140 0
-135 -142 0
-140 -142 0
103 133 140 142 0
-103 -133 0
-103 -140 0
-103 -142 0
-133 -140 0
-133 -142 0
-140 -142 0
103 108 133 138 0
-103 -108 0
-103 -133 0
-103 -138 0
-108 -133 0
-108 -138 0
-133 -138 0
112 133 139 142 0
-112 -133 0
-112 -139 0
-112 -142 0
-133 -139 0
-133 -142 0
-139 -142 0
133 139 144 146 0
-133 -139 0
-133 -144 0
-133 -146 0
-139 -144 0
-139 -146 0
-144 -146 0
107 137 144 146 0
-107 -137 0
-107 -144 0
-107 -146 0
-137 -144 0
-137 -146 0
-144 -146 0
107 112 137 142 0
-107 -112 0
-107 -137 0
-107 -142 0
-112 -137 0
-112 -142 0
-137 -142 0
116 137 143 146 0
-116 -137 0
-116 -143 0
-116 -146 0
-137 -143 0
-137 -146 0
-143 -146 0
137 143 148 150 0
-137 -143 0
-137 -148 0
-137 -150 0
-143 -148 0
-143 -150 0
-148 -150 0
111 141 148 150 0
-111 -141 0
-111 -148 0
-111 -150 0
-141 -148 0
-141 -150 0
-148 -150 0
111 116 141 146 0
-111 -116 0
-111 -141 0
-111 -146 0
-116 -141 0
-116 -146 0
-141 -146 0
120 141 147 150 0
-120 -141 0
-120 -147 0
-120 -150 0
-141 -147 0
-141 -150 0
-147 -150 0
141 147 152 154 0
-141 -147 0
-141 -152 0
-141 -154 0
-147 -152 0
-147 -154 0
-152 -154 0
115 145 152 154 0
-115 -145 0
-115 -152 0
-115 -154 0
-145 -152 0
-145 -154 0
-152 -154 0
115 120 145 150 0
-115 -120 0
-115 -145 0
-115 -150 0
-120 -145 0
-120 -150 0
-145 -150 0
124 145 151 154 0
-124 -145 0
-124 -151 0
-124 -154 0
-145 -151 0
-145 -154 0
-151 -154 0
145 151 156 158 0
-145 -151 0
-145 -156 0
-145 -158 0
-151 -156 0
-151 -158 0
-156 -158 0
119 149 156 158 0
-119 -149 0
-119 -156 0
-119 -158 0
-149 -156 0
-149 -158 0
-156 -158 0
119 124 149 154 0
-119 -124 0
-119 -149 0
-119 -154 0
-124 -149 0
-124 -154 0
-149 -154 0
128 149 155 158 0
-128 -149 0
-128 -155 0
-128 -158 0
-149 -155 0
-149 -158 0
-155 -158 0
130 149 155 160 0
-130 -149 0
-130 -155 0
-130 -160 0
-149 -155 0
-149 -160 0
-155 -160 0
123 130 153 160 0
-123 -130 0
-123 -153 0
-123 -160 0
-130 -153 0
-130 -160 0
-153 -160 0
123 128 153 158 0
-123 -128 0
-123 -153 0
-123 -158 0
-128 -153 0
-128 -158 0
-153 -158 0
100 130 153 159 0
-100 -130 0
-100 -153 0
-100 -159 0
-130 -153 0
-130 -159 0
-153 -159 0
132 134 153 159 0
-132 -134 0
-132 -153 0
-132 -159 0
-134 -153 0
-134 -159 0
-153 -159 0
127 132 134 157 0
-127 -132 0
-127 -134 0
-127 -157 0
-132 -134 0
-132 -157 0
-134 -157 0
100 127 130 157 0
-100 -127 0
-100 -130 0
-100 -157 0
-127 -130 0
-127 -157 0
-130 -157 0
136 163 166 189 0
-136 -163 0
-136 -166 0
-136 -189 0
-163 -166 0
-163 -189 0
-166 -189 0
163 168 170 189 0
-163 -168 0
-163 -170 0
-163 -189 0
-168 -170 0
-168 -189 0
-170 -189 0
131 161 168 170 0
-131 -161 0
-131 -168 0
-131 -170 0
-161 -168 0
-161 -170 0
-168 -170 0
131 136 161 166 0
-131 -136 0
-131 -161 0
-131 -166 0
-136 -161 0
-136 -166 0
-161 -166 0
140 161 167 170 0
-140 -161 0
-140 -167 0
-140 -170 0
-161 -167 0
-161 -170 0
-167 -170 0
161 167 172 174 0
-161 -167 0
-161 -172 0
-161 -174 0
-167 -172 0
-167 -174 0
-172 -174 0
135 165 172 174 0
-135 -165 0
-135 -172 0
-135 -174 0
-165 -172 0
-165 -174 0
-172 -174 0
135 140 165 170 0
-135 -140 0
-135 -165 0
-135 -170 0
-140 -165 0
-140 -170 0
-165 -170 0
144 165 171 174 0
-144 -165 0
-144 -171 0
-144 -174 0
-165 -171 0
-165 -174 0
-171 -174 0
165 171 176 178 0
-165 -171 0
-165 -176 0
-165 -178 0
-171 -176 0
-171 -178 0
-176 -178 0
139 169 176 178 0
-139 -169 0
-139 -176 0
-139 -178 0
-169 -176 0
-169 -178 0
-176 -178 0
139 144 169 174 0
-139 -144 0
-139 -169 0
-139 -174 0
-144 -169 0
-144 -174 0
-169 -174 0
148 169 175 178 0
-148 -169 0
-148 -175 0
-148 -178 0
-169 -175 0
-169 -178 0
-175 -178 0
169 175 180 182 0
-169 -175 0
-169 -180 0
-169 -182 0
-175 -180 0
-175 -182 0
-180 -182 0
143 173 180 182 0
-143 -173 0
-143 -180 0
-143 -182 0
-173 -180 0
-173 -182 0
-180 -182 0
143 148 173 178 0
-143 -148 0
-143 -173 0
-143 -178 0
-148 -173 0
-148 -178 0
-173 -178 0
152 173 179 182 0
-152 -173 0
-152 -179 0
-152 -182 0
-173 -179 0
-173 -182 0
-179 -182 0
173 179 184 186 0
-173 -179 0
-173 -184 0
-173 -186 0
-179 -184 0
-179 -186 0
-184 -186 0
147 177 184 186 0
-147 -177 0
-147 -184 0
-147 -186 0
-177 -184 0
-177 -186 0
-184 -186 0
147 152 177 182 0
-147 -152 0
-147 -177 0
-147 -182 0
-152 -177 0
-152 -182 0
-177 -182 0
156 177 183 186 0
-156 -177 0
-156 -183 0
-156 -186 0
-177 -183 0
-177 -186 0
-183 -186 0
177 183 188 190 0
-177 -183 0
-177 -188 0
-177 -190 0
-183 -188 0
-183 -190 0
-188 -190 0
151 181 188 190 0
-151 -181 0
-151 -188 0
-151 -190 0
-181 -188 0
-181 -190 0
-188 -190 0
151 156 181 186 0
-151 -156 0
-151 -181 0
-151 -186 0
-156 -181 0
-156 -186 0
-181 -186 0
160 181 187 190 0
-160 -181 0
-160 -187 0
-160 -190 0
-181 -187 0
-181 -190 0
-187 -190 0
162 181 187 192 0
-162 -181 0
-162 -187 0
-162 -192 0
-181 -187 0
-181 -192 0
-187 -192 0
155 162 185 192 0
-155 -162 0
-155 -185 0
-155 -192 0
-162 -185 0
-162 -192 0
-185 -192 0
155 160 185 190 0
-155 -160 0
-155 -185 0
-155 -190 0
-160 -185 0
-160 -190 0
-185 -190 0
132 162 185 191 0
-132 -162 0
-132 -185 0
-132 -191 0
-162 -185 0
-162 -191 0
-185 -191 0
164 166 185 191 0
-164 -166 0
-164 -185 0
-164 -191 0
-166 -185 0
-166 -191 0
-185 -191 0
159 164 166 189 0
-159 -164 0
-159 -166 0
-159 -189 0
-164 -166 0
-164 -189 0
-166 -189 0
132 159 162 189 0
-132 -159 0
-132 -162 0
-132 -189 0
-159 -162 0
-159 -189 0
-162 -189 0
168 195 198 221 0
-168 -195 0
-168 -198 0
-168 -221 0
-195 -198 0
-195 -221 0
-198 -221 0
195 200 202 221 0
-195 -200 0
-195 -202 0
-195 -221 0
-200 -202 0
-200 -221 0
-202 -221 0
163 193 200 202 0
-163 -193 0
-163 -200 0
-163 -202 0
-193 -200 0
-193 -202 0
-200 -202 0
163 168 193 198 0
-163 -168 0
-163 -193 0
-163 -198 0
-168 -193 0
-168 -198 0
-193 -198 0
172 193 199 202 0
-172 -193 0
-172 -199 0
-172 -202 0
-193 -199 0
-193 -202 0
-199 -202 0
193 199 204 206 0
-193 -199 0
-193 -204 0
-193 -206 0
-199 -204 0
-199 -206 0
-204 -206 0
167 197 204 206 0
-167 -197 0
-167 -204 0
-167 -206 0
-197 -204 0
-197 -206 0
-204 -206 0
167 172 197 202 0
-167 -172 0
-167 -197 0
-167 -202 0
-172 -197 0
-172 -202 0
-197 -202 0
176 197 203 206 0
-176 -197 0
-176 -203 0
-176 -206 0
-197 -203 0
-197 -206 0
-203 -206 0
197 203 208 210 0
-197 -203 0
-197 -208 0
-197 -210 0
-203 -208 0
-203 -210 0
-208 -210 0
171 201 208 210 0
-171 -201 0
-171 -208 0
-171 -210 0
-201 -208 0
-201 -210 0
-208 -210 0
171 176 201 206 0
-171 -176 0
-171 -201 0
-171 -206 0
-176 -201 0
-176 -206 0
-201 -206 0
180 201 207 210 0
-180 -201 0
-180 -207 0
-180 -210 0
-201 -207 0
-201 -210 0
-207 -210 0
201 207 212 214 0
-201 -207 0
-201 -212 0
-201 -214 0
-207 -212 0
-207 -214 0
-212 -214 0
175 205 212 214 0
-175 -205 0
-175 -212 0
-175 -214 0
-205 -212 0
-205 -214 0
-212 -214 0
175 180 205 210 0
-175 -180 0
-175 -205 0
-175 -210 0
-180 -205 0
-180 -210 0
-205 -210 0
184 205 211 214 0
-184 -205 0
-184 -211 0
-184 -214 0
-205 -211 0
-205 -214 0
-211 -214 0
205 211 216 218 0
-205 -211 0
-205 -216 0
-205 -218 0
-211 -216 0
-211 -218 0
-216 -218 0
179 209 216 218 0
-179 -209 0
-179 -216 0
-179 -218 0
-209 -216 0
-209 -218 0
-216 -218 0
179 184 209 214 0
-179 -184 0
-179 -209 0
-179 -214 0
-184 -209 0
-184 -214 0
-209 -214 0
188 209 215 218 0
-188 -209 0
-188 -215 0
-188 -218 0
-209 -215 0
-209 -218 0
-215 -218 0
209 215 220 222 0
-209 -215 0
-209 -220 0
-209 -222 0
-215 -220 0
-215 -222 0
-220 -222 0
183 213 220 222 0
-183 -213 0
-183 -220 0
-183 -222 0
-213 -220 0
-213 -222 0
-220 -222 0
183 188 213 218 0
-183 -188 0
-183 -213 0
-183 -218 0
-188 -213 0
-188 -218 0
-213 -218 0
192 213 219 222 0
-192 -213 0
-192 -219 0
-192 -222 0
-213 -219 0
-213 -222 0
-219 -222 0
194 213 219 224 0
-194 -213 0
-194 -219 0
-194 -224 0
-213 -219 0
-213 -224 0
-219 -224 0
187 194 217 224 0
-187 -194 0
-187 -217 0
-187 -224 0
-194 -217 0
-194 -224 0
-217 -224 0
187 192 217 222 0
-187 -192 0
-187 -217 0
-187 -222 0
-192 -217 0
-192 -222 0
-217 -222 0
164 194 217 223 0
-164 -194 0
-164 -217 0
-164 -223 0
-194 -217 0
-194 -223 0
-217 -223 0
196 198 217 223 0
-196 -198 0
-196 -217 0
-196 -223 0
-198 -217 0
-198 -223 0
-217 -223 0
191 196 198 221 0
-191 -196 0
-191 -198 0
-191 -221 0
-196 -198 0
-196 -221 0
-198 -221 0
164 191 194 221 0
-164 -191 0
-164 -194 0
-164 -221 0
-191 -194 0
-191 -221 0
-194 -221 0
451 0
-449 0
-450 0
-449 35 452 0
-449 -35 453 0
-450 35 453 0
-450 -35 454 0
-451 35 454 0
-451 -35 452 0
-452 -453 0
-452 -454 0
-453 -454 0
-452 40 455 0
-452 -40 456 0
-453 40 456 0
-453 -40 457 0
-454 40 457 0
-454 -40 455 0
-455 -456 0
-455 -457 0
-456 -457 0
-455 42 458 0
-455 -42 460 0
-456 42 459 0
-456 -42 458 0
-457 42 460 0
-457 -42 459 0
-458 -459 0
-458 -460 0
-459 -460 0
-458 61 461 0
-458 -61 463 0
-459 61 462 0
-459 -61 461 0
-460 61 463 0
-460 -61 462 0
-461 -462 0
-461 -463 0
-462 -463 0
-461 65 464 0
-461 -65 466 0
-462 65 465 0
-462 -65 464 0
-463 65 466 0
-463 -65 465 0
-464 -465 0
-464 -466 0
-465 -466 0
-464 70 467 0
-464 -70 469 0
-465 70 468 0
-465 -70 467 0
-466 70 469 0
-466 -70 468 0
-467 -468 0
-467 -469 0
-468 -469 0
-467 67 470 0
-467 -67 472 0
-468 67 471 0
-468 -67 470 0
-469 67 472 0
-469 -67 471 0
-470 -471 0
-470 -472 0
-471 -472 0
-470 72 473 0
-470 -72 475 0
-471 72 474 0
-471 -72 473 0
-472 72 475 0
-472 -72 474 0
-473 -474 0
-473 -475 0
-474 -475 0
-473 74 476 0
-473 -74 477 0
-474 74 477 0
-474 -74 478 0
-475 74 478 0
-475 -74 476 0
-476 -477 0
-476 -478 0
-477 -478 0
-476 93 479 0
-476 -93 480 0
-477 93 480 0
-477 -93 481 0
-478 93 481 0
-478 -93 479 0
-479 -480 0
-479 -481 0
-480 -481 0
-479 97 482 0
-479 -97 483 0
-480 97 483 0
-480 -97 484 0
-481 97 484 0
-481 -97 482 0
-482 -483 0
-482 -484 0
-483 -484 0
-482 102 485 0
-482 -102 486 0
-483 102 486 0
-483 -102 487 0
-484 102 487 0
-484 -102 485 0
-485 -486 0
-485 -487 0
-486 -487 0
-485 99 488 0
-485 -99 489 0
-486 99 489 0
-486 -99 490 0
-487 99 490 0
-487 -99 488 0
-488 -489 0
-488 -490 0
-489 -490 0
-488 104 491 0
-488 -104 492 0
-489 104 492 0
-489 -104 493 0
-490 104 493 0
-490 -104 491 0
-491 -492 0
-491 -493 0
-492 -493 0
-491 106 494 0
-491 -106 496 0
-492 106 495 0
-492 -106 494 0
-493 106 496 0
-493 -106 495 0
-494 -495 0
-494 -496 0
-495 -496 0
-494 125 497 0
-494 -125 499 0
-495 125 498 0
-495 -125 497 0
-496 125 499 0
-496 -125 498 0
-497 -498 0
-497 -499 0
-498 -499 0
-497 129 500 0
-497 -129 502 0
-498 129 501 0
-498 -129 500 0
-499 129 502 0
-499 -129 501 0
-500 -501 0
-500 -502 0
-501 -502 0
-500 134 503 0
-500 -134 505 0
-501 134 504 0
-501 -134 503 0
-502 134 505 0
-502 -134 504 0
-503 -504 0
-503 -505 0
-504 -505 0
-503 131 506 0
-503 -131 508 0
-504 131 507 0
-504 -131 506 0
-505 131 508 0
-505 -131 507 0
-506 -507 0
-506 -508 0
-507 -508 0
-506 136 509 0
-506 -136 511 0
-507 136 510 0
-507 -136 509 0
-508 136 511 0
-508 -136 510 0
-509 -510 0
-509 -511 0
-510 -511 0
-509 138 512 0
-509 -138 513 0
-510 138 513 0
-510 -138 514 0
-511 138 514 0
-511 -138 512 0
-512 -513 0
-512 -514 0
-513 -514 0
-512 157 515 0
-512 -157 516 0
-513 157 516 0
-513 -157 517 0
-514 157 517 0
-514 -157 515 0
-515 -516 0
-515 -517 0
-516 -517 0
-515 161 518 0
-515 -161 519 0
-516 161 519 0
-516 -161 520 0
-517 161 520 0
-517 -161 518 0
-518 -519 0
-518 -520 0
-519 -520 0
-518 166 521 0
-518 -166 522 0
-519 166 522 0
-519 -166 523 0
-520 166 523 0
-520 -166 521 0
-521 -522 0
-521 -523 0
-522 -523 0
-521 163 524 0
-521 -163 525 0
-522 163 525 0
-522 -163 526 0
-523 163 526 0
-523 -163 524 0
-524 -525 0
-524 -526 0
-525 -526 0
-524 168 527 0
-524 -168 528 0
-525 168 528 0
-525 -168 529 0
-526 168 529 0
-526 -168 527 0
-527 -528 0
-527 -529 0
-528 -529 0
-527 170 530 0
-527 -170 532 0
-528 170 531 0
-528 -170 530 0
-529 170 532 0
-529 -170 531 0
-530 -531 0
-530 -532 0
-531 -532 0
-530 189 533 0
-530 -189 535 0
-531 189 534 0
-531 -189 533 0
-532 189 535 0
-532 -189 534 0
-533 -534 0
-533 -535 0
-534 -535 0
-533 193 536 0
-533 -193 538 0
-534 193 537 0
-534 -193 536 0
-535 193 538 0
-535 -193 537 0
-536 -537 0
-536 -538 0
-537 -538 0
-536 198 539 0
-536 -198 541 0
-537 198 540 0
-537 -198 539 0
-538 198 541 0
-538 -198 540 0
-539 -540 0
-539 -541 0
-540 -541 0
-539 0
-3 -8 0
542 0
-543 0
-544 0
-542 29 545 0
-542 -29 547 0
-543 29 546 0
-543 -29 545 0
-544 29 547 0
-544 -29 546 0
-545 -546 0
-545 -547 0
-546 -547 0
-545 2 548 0
-545 -2 550 0
-546 2 549 0
-546 -2 548 0
-547 2 550 0
-547 -2 549 0
-548 -549 0
-548 -550 0
-549 -550 0
-548 4 551 0
-548 -4 553 0
-549 4 552 0
-549 -4 551 0
-550 4 553 0
-550 -4 552 0
-551 -552 0
-551 -553 0
-552 -553 0
-551 6 554 0
-551 -6 555 0
-552 6 555 0
-552 -6 556 0
-553 6 556 0
-553 -6 554 0
-554 -555 0
-554 -556 0
-555 -556 0
-554 8 557 0
-554 -8 558 0
-555 8 558 0
-555 -8 559 0
-556 8 559 0
-556 -8 557 0
-557 -558 0
-557 -559 0
-558 -559 0
-557 10 560 0
-557 -10 562 0
-558 10 561 0
-558 -10 560 0
-559 10 562 0
-559 -10 561 0
-560 -561 0
-560 -562 0
-561 -562 0
-560 33 563 0
-560 -33 565 0
-561 33 564 0
-561 -33 563 0
-562 33 565 0
-562 -33 564 0
-563 -564 0
-563 -565 0
-564 -565 0
-563 38 566 0
-563 -38 568 0
-564 38 567 0
-564 -38 566 0
-565 38 568 0
-565 -38 567 0
-566 -567 0
-566 -568 0
-567 -568 0
-566 0
-567 0
-225 569 0
-569 570 0
-226 -569 571 0
-571 572 0
-227 -571 573 0
-573 574 0
-228 -573 575 0
-575 576 0
-229 -575 577 0
-577 578 0
-230 -577 579 0
-579 580 0
-231 -579 581 0
-581 582 0
-232 -581 583 0
-583 584 0
-233 -583 585 0
-585 586 0
-234 -585 587 0
-587 588 0
-235 -587 589 0
-589 590 0
-236 -589 591 0
-591 592 0
-237 -591 593 0
-593 594 0
-238 -593 595 0
-595 596 0
-239 -595 597 0
-597 598 0
-240 -597 599 0
-599 600 0
-241 -599 601 0
-601 602 0
-242 -601 603 0
-603 604 0
-243 -603 605 0
-605 606 0
-244 -605 607 0
-607 608 0
-245 -607 0
-226 570 0
-570 609 0
-227 -570 572 0
-572 610 0
-228 -572 574 0
-574 611 0
-229 -574 576 0
-576 612 0
-230 -576 578 0
-578 613 0
-231 -578 580 0
-580 614 0
-232 -580 582 0
-582 615 0
-233 -582 584 0
-584 616 0
-234 -584 586 0
-586 617 0
-235 -586 588 0
-588 618 0
-236 -588 590 0
-590 619 0
-237 -590 592 0
-592 620 0
-238 -592 594 0
-594 621 0
-239 -594 596 0
-596 622 0
-240 -596 598 0
-598 623 0
-241 -598 600 0
-600 624 0
-242 -600 602 0
-602 625 0
-243 -602 604 0
-604 626 0
-244 -604 606 0
-606 627 0
-245 -606 608 0
-608 628 0
-246 -608 0
-227 609 0
-609 629 0
-228 -609 610 0
-610 630 0
-229 -610 611 0
-611 631 0
-230 -611 612 0
-612 632 0
-231 -612 613 0
-613 633 0
-232 -613 614 0
-614 634 0
-233 -614 615 0
-615 635 0
-234 -615 616 0
-616 636 0
-235 -616 617 0
-617 637 0
-236 -617 618 0
-618 638 0
-237 -618 619 0
-619 639 0
-238 -619 620 0
-620 640 0
-239 -620 621 0
-621 641 0
-240 -621 622 0
-622 642 0
-241 -622 623 0
-623 643 0
-242 -623 624 0
-624 644 0
-243 -624 625 0
-625 645 0
-244 -625 626 0
-626 646 0
-245 -626 627 0
-627 647 0
-246 -627 628 0
-628 648 0
-247 -628 0
-228 629 0
-629 649 0
-229 -629 630 0
-630 650 0
-230 -630 631 0
-631 651 0
-231 -631 632 0
-632 652 0
-232 -632 633 0
-633 653 0
-233 -633 634 0
-634 654 0
-234 -634 635 0
-635 655 0
-235 -635 636 0
-636 656 0
-236 -636 637 0
-637 657 0
-237 -637 638 0
-638 658 0
-238 -638 639 0
-639 659 0
-239 -639 640 0
-640 660 0
-240 -640 641 0
-641 661 0
-241 -641 642 0
-642 662 0
-242 -642 643 0
-643 663 0
-243 -643 644 0
-644 664 0
-244 -644 645 0
-645 665 0
-245 -645 646 0
-646 666 0
-246 -646 647 0
-647 667 0
-247 -647 648 0
-648 668 0
-248 -648 0
-229 649 0
-649 669 0
-230 -649 650 0
-650 670 0
-231 -650 651 0
-651 671 0
-232 -651 652 0
-652 672 0
-233 -652 653 0
-653 673 0
-234 -653 654 0
-654 674 0
-235 -654 655 0
-655 675 0
-236 -655 656 0
-656 676 0
-237 -656 657 0
-657 677 0
-238 -657 658 0
-658 678 0
-239 -658 659 0
-659 679 0
-240 -659 660 0
-660 680 0
-241 -660 661 0
-661 681 0
-242 -661 662 0
-662 682 0
-243 -662 663 0
-663 683 0
-244 -663 664 0
-664 684 0
-245 -664 665 0
-665 685 0
-246 -665 666 0
-666 686 0
-247 -666 667 0
-667 687 0
-248 -667 668 0
-668 688 0
-249 -668 0
-230 669 0
-669 689 0
-231 -669 670 0
-670 690 0
-232 -670 671 0
-671 691 0
-233 -671 672 0
-672 692 0
-234 -672 673 0
-673 693 0
-235 -673 674 0
-674 694 0
-236 -674 675 0
-675 695 0
-237 -675 676 0
-676 696 0
-238 -676 677 0
-677 697 0
-239 -677 678 0
-678 698 0
-240 -678 679 0
-679 699 0
-241 -679 680 0
-680 700 0
-242 -680 681 0
-681 701 0
-243 -681 682 0
-682 702 0
-244 -682 683 0
-683 703 0
-245 -683 684 0
-684 704 0
-246 -684 685 0
-685 705 0
-247 -685 686 0
-686 706 0
-248 -686 687 0
-687 707 0
-249 -687 688 0
-688 708 0
-250 -688 0
-231 689 0
-689 709 0
-232 -689 690 0
-690 710 0
-233 -690 691 0
-691 711 0
-234 -691 692 0
-692 712 0
-235 -692 693 0
-693 713 0
-236 -693 694 0
-694 714 0
-237 -694 695 0
-695 715 0
-238 -695 696 0
-696 716 0
-239 -696 697 0
-697 717 0
-240 -697 698 0
-698 718 0
-241 -698 699 0
-699 719 0
-242 -699 700 0
-700 720 0
-243 -700 701 0
-701 721 0
-244 -701 702 0
-702 722 0
-245 -702 703 0
-703 723 0
-246 -703 704 0
-704 724 0
-247 -704 705 0
-705 725 0
-248 -705 706 0
-706 726 0
-249 -706 707 0
-707 727 0
-250 -707 708 0
-708 728 0
-251 -708 0
-232 709 0
-709 729 0
-233 -709 710 0
-710 730 0
-234 -710 711 0
-711 731 0
-235 -711 712 0
-712 732 0
-236 -712 713 0
-713 733 0
-237 -713 714 0
-714 734 0
-238 -714 715 0
-715 735 0
-239 -715 716 0
-716 736 0
-240 -716 717 0
-717 737 0
-241 -717 718 0
-718 738 0
-242 -718 719 0
-719 739 0
-243 -719 720 0
-720 740 0
-244 -720 721 0
-721 741 0
-245 -721 722 0
-722 742 0
-246 -722 723 0
-723 743 0
-247 -723 724 0
-724 744 0
-248 -724 725 0
-725 745 0
-249 -725 726 0
-726 746 0
-250 -726 727 0
-727 747 0
-251 -727 728 0
-728 748 0
-252 -728 0
-233 729 0
-729 749 0
-234 -729 730 0
-730 750 0
-235 -730 731 0
-731 751 0
-236 -731 732 0
-732 752 0
-237 -732 733 0
-733 753 0
-238 -733 734 0
-734 754 0
-239 -734 735 0
-735 755 0
-240 -735 736 0
-736 756 0
-241 -736 737 0
-737 757 0
-242 -737 738 0
-738 758 0
-243 -738 739 0
-739 759 0
-244 -739 740 0
-740 760 0
-245 -740 741 0
-741 761 0
-246 -741 742 0
-742 762 0
-247 -742 743 0
-743 763 0
-248 -743 744 0
-744 764 0
-249 -744 745 0
-745 765 0
-250 -745 746 0
-746 766 0
-251 -746 747 0
-747 767 0
-252 -747 748 0
-748 768 0
-253 -748 0
-234 749 0
-749 769 0
-235 -749 750 0
-750 770 0
-236 -750 751 0
-751 771 0
-237 -751 752 0
-752 772 0
-238 -752 753 0
-753 773 0
-239 -753 754 0
-754 774 0
-240 -754 755 0
-755 775 0
-241 -755 756 0
-756 776 0
-242 -756 757 0
-757 777 0
-243 -757 758 0
-758 778 0
-244 -758 759 0
-759 779 0
-245 -759 760 0
-760 780 0
-246 -760 761 0
-761 781 0
-247 -761 762 0
-762 782 0
-248 -762 763 0
-763 783 0
-249 -763 764 0
-764 784 0
-250 -764 765 0
-765 785 0
-251 -765 766 0
-766 786 0
-252 -766 767 0
-767 787 0
-253 -767 768 0
-768 788 0
-254 -768 0
-235 769 0
-769 789 0
-236 -769 770 0
-770 790 0
-237 -770 771 0
-771 791 0
-238 -771 772 0
-772 792 0
-239 -772 773 0
-773 793 0
-240 -773 774 0
-774 794 0
-241 -774 775 0
-775 795 0
-242 -775 776 0
-776 796 0
-243 -776 777 0
-777 797 0
-244 -777 778 0
-778 798 0
-245 -778 779 0
-779 799 0
-246 -779 780 0
-780 800 0
-247 -780 781 0
-781 801 0
-248 -781 782 0
-782 802 0
-249 -782 783 0
-783 803 0
-250 -783 784 0
-784 804 0
-251 -784 785 0
-785 805 0
-252 -785 786 0
-786 806 0
-253 -786 787 0
-787 807 0
-254 -787 788 0
-788 808 0
-255 -788 0
-236 789 0
-789 809 0
-237 -789 790 0
-790 810 0
-238 -790 791 0
-791 811 0
-239 -791 792 0
-792 812 0
-240 -792 793 0
-793 813 0
-241 -793 794 0
-794 814 0
-242 -794 795 0
-795 815 0
-243 -795 796 0
-796 816 0
-244 -796 797 0
-797 817 0
-245 -797 798 0
-798 818 0
-246 -798 799 0
-799 819 0
-247 -799 800 0
-800 820 0
-248 -800 801 0
-801 821 0
-249 -801 802 0
-802 822 0
-250 -802 803 0
-803 823 0
-251 -803 804 0
-804 824 0
-252 -804 805 0
-805 825 0
-253 -805 806 0
-806 826 0
-254 -806 807 0
-807 827 0
-255 -807 808 0
-808 828 0
-256 -808 0
-237 809 0
-809 829 0
-238 -809 810 0
-810 830 0
-239 -810 811 0
-811 831 0
-240 -811 812 0
-812 832 0
-241 -812 813 0
-813 833 0
-242 -813 814 0
-814 834 0
-243 -814 815 0
-815 835 0
-244 -815 816 0
-816 836 0
-245 -816 817 0
-817 837 0
-246 -817 818 0
-818 838 0
-247 -818 819 0
-819 839 0
-248 -819 820 0
-820 840 0
-249 -820 821 0
-821 841 0
-250 -821 822 0
-822 842 0
-251 -822 823 0
-823 843 0
-252 -823 824 0
-824 844 0
-253 -824 825 0
-825 845 0
-254 -825 826 0
-826 846 0
-255 -826 827 0
-827 847 0
-256 -827 828 0
-828 848 0
-257 -828 0
-238 829 0
-829 849 0
-239 -829 830 0
-830 850 0
-240 -830 831 0
-831 851 0
-241 -831 832 0
-832 852 0
-242 -832 833 0
-833 853 0
-243 -833 834 0
-834 854 0
-244 -834 835 0
-835 855 0
-245 -835 836 0
-836 856 0
-246 -836 837 0
-837 857 0
-247 -837 838 0
-838 858 0
-248 -838 839 0
-839 859 0
-249 -839 840 0
-840 860 0
-250 -840 841 0
-841 861 0
-251 -841 842 0
-842 862 0
-252 -842 843 0
-843 863 0
-253 -843 844 0
-844 864 0
-254 -844 845 0
-845 865 0
-255 -845 846 0
-846 866 0
-256 -846 847 0
-847 867 0
-257 -847 848 0
-848 868 0
-258 -848 0
-239 849 0
-849 869 0
-240 -849 850 0
-850 870 0
-241 -850 851 0
-851 871 0
-242 -851 852 0
-852 872 0
-243 -852 853 0
-853 873 0
-244 -853 854 0
-854 874 0
-245 -854 855 0
-855 875 0
-246 -855 856 0
-856 876 0
-247 -856 857 0
-857 877 0
-248 -857 858 0
-858 878 0
-249 -858 859 0
-859 879 0
-250 -859 860 0
-860 880 0
-251 -860 861 0
-861 881 0
-252 -861 862 0
-862 882 0
-253 -862 863 0
-863 883 0
-254 -863 864 0
-864 884 0
-255 -864 865 0
-865 885 0
-256 -865 866 0
-866 886 0
-257 -866 867 0
-867 887 0
-258 -867 868 0
-868 888 0
-259 -868 0
-240 869 0
-869 889 0
-241 -869 870 0
-870 890 0
-242 -870 871 0
-871 891 0
-243 -871 872 0
-872 892 0
-244 -872 873 0
-873 893 0
-245 -873 874 0
-874 894 0
-246 -874 875 0
-875 895 0
-247 -875 876 0
-876 896 0
-248 -876 877 0
-877 897 0
-249 -877 878 0
-878 898 0
-250 -878 879 0
-879 899 0
-251 -879 880 0
-880 900 0
-252 -880 881 0
-881 901 0
-253 -881 882 0
-882 902 0
-254 -882 883 0
-883 903 0
-255 -883 884 0
-884 904 0
-256 -884 885 0
-885 905 0
-257 -885 886 0
-886 906 0
-258 -886 887 0
-887 907 0
-259 -887 888 0
-888 908 0
-260 -888 0
-241 889 0
-889 909 0
-242 -889 890 0
-890 910 0
-243 -890 891 0
-891 911 0
-244 -891 892 0
-892 912 0
-245 -892 893 0
-893 913 0
-246 -893 894 0
-894 914 0
-247 -894 895 0
-895 915 0
-248 -895 896 0
-896 916 0
-249 -896 897 0
-897 917 0
-250 -897 898 0
-898 918 0
-251 -898 899 0
-899 919 0
-252 -899 900 0
-900 920 0
-253 -900 901 0
-901 921 0
-254 -901 902 0
-902 922 0
-255 -902 903 0
-903 923 0
-256 -903 904 0
-904 924 0
-257 -904 905 0
-905 925 0
-258 -905 906 0
-906 926 0
-259 -906 907 0
-907 927 0
-260 -907 908 0
-908 928 0
-261 -908 0
-242 909 0
-909 929 0
-243 -909 910 0
-910 930 0
-244 -910 911 0
-911 931 0
-245 -911 912 0
-912 932 0
-246 -912 913 0
-913 933 0
-247 -913 914 0
-914 934 0
-248 -914 915 0
-915 935 0
-249 -915 916 0
-916 936 0
-250 -916 917 0
-917 937 0
-251 -917 918 0
-918 938 0
-252 -918 919 0
-919 939 0
-253 -919 920 0
-920 940 0
-254 -920 921 0
-921 941 0
-255 -921 922 0
-922 942 0
-256 -922 923 0
-923 943 0
-257 -923 924 0
-924 944 0
-258 -924 925 0
-925 945 0
-259 -925 926 0
-926 946 0
-260 -926 927 0
-927 947 0
-261 -927 928 0
-928 948 0
-262 -928 0
-243 929 0
-929 949 0
-244 -929 930 0
-930 950 0
-245 -930 931 0
-931 951 0
-246 -931 932 0
-932 952 0
-247 -932 933 0
-933 953 0
-248 -933 934 0
-934 954 0
-249 -934 935 0
-935 955 0
-250 -935 936 0
-936 956 0
-251 -936 937 0
-937 957 0
-252 -937 938 0
-938 958 0
-253 -938 939 0
-939 959 0
-254 -939 940 0
-940 960 0
-255 -940 941 0
-941 961 0
-256 -941 942 0
-942 962 0
-257 -942 943 0
-943 963 0
-258 -943 944 0
-944 964 0
-259 -944 945 0
-945 965 0
-260 -945 946 0
-946 966 0
-261 -946 947 0
-947 967 0
-262 -947 948 0
-948 968 0
-263 -948 0
-244 949 0
-949 969 0
-245 -949 950 0
-950 970 0
-246 -950 951 0
-951 971 0
-247 -951 952 0
-952 972 0
-248 -952 953 0
-953 973 0
-249 -953 954 0
-954 974 0
-250 -954 955 0
-955 975 0
-251 -955 956 0
-956 976 0
-252 -956 957 0
-957 977 0
-253 -957 958 0
-958 978 0
-254 -958 959 0
-959 979 0
-255 -959 960 0
-960 980 0
-256 -960 961 0
-961 981 0
-257 -961 962 0
-962 982 0
-258 -962 963 0
-963 983 0
-259 -963 964 0
-964 984 0
-260 -964 965 0
-965 985 0
-261 -965 966 0
-966 986 0
-262 -966 967 0
-967 987 0
-263 -967 968 0
-968 988 0
-264 -968 0
-245 969 0
-969 989 0
-246 -969 970 0
-970 990 0
-247 -970 971 0
-971 991 0
-248 -971 972 0
-972 992 0
-249 -972 973 0
-973 993 0
-250 -973 974 0
-974 994 0
-251 -974 975 0
-975 995 0
-252 -975 976 0
-976 996 0
-253 -976 977 0
-977 997 0
-254 -977 978 0
-978 998 0
-255 -978 979 0
-979 999 0
-256 -979 980 0
-980 1000 0
-257 -980 981 0
-981 1001 0
-258 -981 982 0
-982 1002 0
-259 -982 983 0
-983 1003 0
-260 -983 984 0
-984 1004 0
-261 -984 985 0
-985 1005 0
-262 -985 986 0
-986 1006 0
-263 -986 987 0
-987 1007 0
-264 -987 988 0
-988 1008 0
-265 -988 0
-246 989 0
-989 1009 0
-247 -989 990 0
-990 1010 0
-248 -990 991 0
-991 1011 0
-249 -991 992 0
-992 1012 0
-250 -992 993 0
-993 1013 0
-251 -993 994 0
-994 1014 0
-252 -994 995 0
-995 1015 0
-253 -995 996 0
-996 1016 0
-254 -996 997 0
-997 1017 0
-255 -997 998 0
-998 1018 0
-256 -998 999 0
-999 1019 0
-257 -999 1000 0
-1000 1020 0
-258 -1000 1001 0
-1001 1021 0
-259 -1001 1002 0
-1002 1022 0
-260 -1002 1003 0
-1003 1023 0
-261 -1003 1004 0
-1004 1024 0
-262 -1004 1005 0
-1005 1025 0
-263 -1005 1006 0
-1006 1026 0
-264 -1006 1007 0
-1007 1027 0
-265 -1007 1008 0
-1008 1028 0
-266 -1008 0
-247 1009 0
-1009 1029 0
-248 -1009 1010 0
-1010 1030 0
-249 -1010 1011 0
-1011 1031 0
-250 -1011 1012 0
-1012 1032 0
-251 -1012 1013 0
-1013 1033 0
-252 -1013 1014 0
-1014 1034 0
-253 -1014 1015 0
-1015 1035 0
-254 -1015 1016 0
-1016 1036 0
-255 -1016 1017 0
-1017 1037 0
-256 -1017 1018 0
-1018 1038 0
-257 -1018 1019 0
-1019 1039 0
-258 -1019 1020 0
-1020 1040 0
-259 -1020 1021 0
-1021 1041 0
-260 -1021 1022 0
-1022 1042 0
-261 -1022 1023 0
-1023 1043 0
-262 -1023 1024 0
-1024 1044 0
-263 -1024 1025 0
-1025 1045 0
-264 -1025 1026 0
-1026 1046 0
-265 -1026 1027 0
-1027 1047 0
-266 -1027 1028 0
-1028 1048 0
-267 -1028 0
-248 1029 0
-1029 1049 0
-249 -1029 1030 0
-1030 1050 0
-250 -1030 1031 0
-1031 1051 0
-251 -1031 1032 0
-1032 1052 0
-252 -1032 1033 0
-1033 1053 0
-253 -1033 1034 0
-1034 1054 0
-254 -1034 1035 0
-1035 1055 0
-255 -1035 1036 0
-1036 1056 0
-256 -1036 1037 0
-1037 1057 0
-257 -1037 1038 0
-1038 1058 0
-258 -1038 1039 0
-1039 1059 0
-259 -1039 1040 0
-1040 1060 0
-260 -1040 1041 0
-1041 1061 0
-261 -1041 1042 0
-1042 1062 0
-262 -1042 1043 0
-1043 1063 0
-263 -1043 1044 0
-1044 1064 0
-264 -1044 1045 0
-1045 1065 0
-265 -1045 1046 0
-1046 1066 0
-266 -1046 1047 0
-1047 1067 0
-267 -1047 1048 0
-1048 1068 0
-268 -1048 0
-249 1049 0
-1049 1069 0
-250 -1049 1050 0
-1050 1070 0
-251 -1050 1051 0
-1051 1071 0
-252 -1051 1052 0
-1052 1072 0
-253 -1052 1053 0
-1053 1073 0
-254 -1053 1054 0
-1054 1074 0
-255 -1054 1055 0
-1055 1075 0
-256 -1055 1056 0
-1056 1076 0
-257 -1056 1057 0
-1057 1077 0
-258 -1057 1058 0
-1058 1078 0
-259 -1058 1059 0
-1059 1079 0
-260 -1059 1060 0
-1060 1080 0
-261 -1060 1061 0
-1061 1081 0
-262 -1061 1062 0
-1062 1082 0
-263 -1062 1063 0
-1063 1083 0
-264 -1063 1064 0
-1064 1084 0
-265 -1064 1065 0
-1065 1085 0
-266 -1065 1066 0
-1066 1086 0
-267 -1066 1067 0
-1067 1087 0
-268 -1067 1068 0
-1068 1088 0
-269 -1068 0
-250 1069 0
-1069 1089 0
-251 -1069 1070 0
-1070 1090 0
-252 -1070 1071 0
-1071 1091 0
-253 -1071 1072 0
-1072 1092 0
-254 -1072 1073 0
-1073 1093 0
-255 -1073 1074 0
-1074 1094 0
-256 -1074 1075 0
-1075 1095 0
-257 -1075 1076 0
-1076 1096 0
-258 -1076 1077 0
-1077 1097 0
-259 -1077 1078 0
-1078 1098 0
-260 -1078 1079 0
-1079 1099 0
-261 -1079 1080 0
-1080 1100 0
-262 -1080 1081 0
-1081 1101 0
-263 -1081 1082 0
-1082 1102 0
-264 -1082 1083 0
-1083 1103 0
-265 -1083 1084 0
-1084 1104 0
-266 -1084 1085 0
-1085 1105 0
-267 -1085 1086 0
-1086 1106 0
-268 -1086 1087 0
-1087 1107 0
-269 -1087 1088 0
-1088 1108 0
-270 -1088 0
-251 1089 0
-1089 1109 0
-252 -1089 1090 0
-1090 1110 0
-253 -1090 1091 0
-1091 1111 0
-254 -1091 1092 0
-1092 1112 0
-255 -1092 1093 0
-1093 1113 0
-256 -1093 1094 0
-1094 1114 0
-257 -1094 1095 0
-1095 1115 0
-258 -1095 1096 0
-1096 1116 0
-259 -1096 1097 0
-1097 1117 0
-260 -1097 1098 0
-1098 1118 0
-261 -1098 1099 0
-1099 1119 0
-262 -1099 1100 0
-1100 1120 0
-263 -1100 1101 0
-1101 1121 0
-264 -1101 1102 0
-1102 1122 0
-265 -1102 1103 0
-1103 1123 0
-266 -1103 1104 0
-1104 1124 0
-267 -1104 1105 0
-1105 1125 0
-268 -1105 1106 0
-1106 1126 0
-269 -1106 1107 0
-1107 1127 0
-270 -1107 1108 0
-1108 1128 0
-271 -1108 0
-252 1109 0
-1109 1129 0
-253 -1109 1110 0
-1110 1130 0
-254 -1110 1111 0
-1111 1131 0
-255 -1111 1112 0
-1112 1132 0
-256 -1112 1113 0
-1113 1133 0
-257 -1113 1114 0
-1114 1134 0
-258 -1114 1115 0
-1115 1135 0
-259 -1115 1116 0
-1116 1136 0
-260 -1116 1117 0
-1117 1137 0
-261 -1117 1118 0
-1118 1138 0
-262 -1118 1119 0
-1119 1139 0
-263 -1119 1120 0
-1120 1140 0
-264 -1120 1121 0
-1121 1141 0
-265 -1121 1122 0
-1122 1142 0
-266 -1122 1123 0
-1123 1143 0
-267 -1123 1124 0
-1124 1144 0
-268 -1124 1125 0
-1125 1145 0
-269 -1125 1126 0
-1126 1146 0
-270 -1126 1127 0
-1127 1147 0
-271 -1127 1128 0
-1128 1148 0
-272 -1128 0
-253 1129 0
-1129 1149 0
-254 -1129 1130 0
-1130 1150 0
-255 -1130 1131 0
-1131 1151 0
-256 -1131 1132 0
-1132 1152 0
-257 -1132 1133 0
-1133 1153 0
-258 -1133 1134 0
-1134 1154 0
-259 -1134 1135 0
-1135 1155 0
-260 -1135 1136 0
-1136 1156 0
-261 -1136 1137 0
-1137 1157 0
-262 -1137 1138 0
-1138 1158 0
-263 -1138 1139 0
-1139 1159 0
-264 -1139 1140 0
-1140 1160 0
-265 -1140 1141 0
-1141 1161 0
-266 -1141 1142 0
-1142 1162 0
-267 -1142 1143 0
-1143 1163 0
-268 -1143 1144 0
-1144 1164 0
-269 -1144 1145 0
-1145 1165 0
-270 -1145 1146 0
-1146 1166 0
-271 -1146 1147 0
-1147 1167 0
-272 -1147 1148 0
-1148 1168 0
-273 -1148 0
-254 1149 0
-1149 1169 0
-255 -1149 1150 0
-1150 1170 0
-256 -1150 1151 0
-1151 1171 0
-257 -1151 1152 0
-1152 1172 0
-258 -1152 1153 0
-1153 1173 0
-259 -1153 1154 0
-1154 1174 0
-260 -1154 1155 0
-1155 1175 0
-261 -1155 1156 0
-1156 1176 0
-262 -1156 1157 0
-1157 1177 0
-263 -1157 1158 0
-1158 1178 0
-264 -1158 1159 0
-1159 1179 0
-265 -1159 1160 0
-1160 1180 0
-266 -1160 1161 0
-1161 1181 0
-267 -1161 1162 0
-1162 1182 0
-268 -1162 1163 0
-1163 1183 0
-269 -1163 1164 0
-1164 1184 0
-270 -1164 1165 0
-1165 1185 0
-271 -1165 1166 0
-1166 1186 0
-272 -1166 1167 0
-1167 1187 0
-273 -1167 1168 0
-1168 1188 0
-274 -1168 0
-255 1169 0
-1169 1189 0
-256 -1169 1170 0
-1170 1190 0
-257 -1170 1171 0
-1171 1191 0
-258 -1171 1172 0
-1172 1192 0
-259 -1172 1173 0
-1173 1193 0
-260 -1173 1174 0
-1174 1194 0
-261 -1174 1175 0
-1175 1195 0
-262 -1175 1176 0
-1176 1196 0
-263 -1176 1177 0
-1177 1197 0
-264 -1177 1178 0
-1178 1198 0
-265 -1178 1179 0
-1179 1199 0
-266 -1179 1180 0
-1180 1200 0
-267 -1180 1181 0
-1181 1201 0
-268 -1181 1182 0
-1182 1202 0
-269 -1182 1183 0
-1183 1203 0
-270 -1183 1184 0
-1184 1204 0
-271 -1184 1185 0
-1185 1205 0
-272 -1185 1186 0
-1186 1206 0
-273 -1186 1187 0
-1187 1207 0
-274 -1187 1188 0
-1188 1208 0
-275 -1188 0
-256 1189 0
-1189 1209 0
-257 -1189 1190 0
-1190 1210 0
-258 -1190 1191 0
-1191 1211 0
-259 -1191 1192 0
-1192 1212 0
-260 -1192 1193 0
-1193 1213 0
-261 -1193 1194 0
-1194 1214 0
-262 -1194 1195 0
-1195 1215 0
-263 -1195 1196 0
-1196 1216 0
-264 -1196 1197 0
-1197 1217 0
-265 -1197 1198 0
-1198 1218 0
-266 -1198 1199 0
-1199 1219 0
-267 -1199 1200 0
-1200 1220 0
-268 -1200 1201 0
-1201 1221 0
-269 -1201 1202 0
-1202 1222 0
-270 -1202 1203 0
-1203 1223 0
-271 -1203 1204 0
-1204 1224 0
-272 -1204 1205 0
-1205 1225 0
-273 -1205 1206 0
-1206 1226 0
-274 -1206 1207 0
-1207 1227 0
-275 -1207 1208 0
-1208 1228 0
-276 -1208 0
-257 1209 0
-1209 1229 0
-258 -1209 1210 0
-1210 1230 0
-259 -1210 1211 0
-1211 1231 0
-260 -1211 1212 0
-1212 1232 0
-261 -1212 1213 0
-1213 1233 0
-262 -1213 1214 0
-1214 1234 0
-263 -1214 1215 0
-1215 1235 0
-264 -1215 1216 0
-1216 1236 0
-265 -1216 1217 0
-1217 1237 0
-266 -1217 1218 0
-1218 1238 0
-267 -1218 1219 0
-1219 1239 0
-268 -1219 1220 0
-1220 1240 0
-269 -1220 1221 0
-1221 1241 0
-270 -1221 1222 0
-1222 1242 0
-271 -1222 1223 0
-1223 1243 0
-272 -1223 1224 0
-1224 1244 0
-273 -1224 1225 0
-1225 1245 0
-274 -1225 1226 0
-1226 1246 0
-275 -1226 1227 0
-1227 1247 0
-276 -1227 1228 0
-1228 1248 0
-277 -1228 0
-258 1229 0
-1229 1249 0
-259 -1229 1230 0
-1230 1250 0
-260 -1230 1231 0
-1231 1251 0
-261 -1231 1232 0
-1232 1252 0
-262 -1232 1233 0
-1233 1253 0
-263 -1233 1234 0
-1234 1254 0
-264 -1234 1235 0
-1235 1255 0
-265 -1235 1236 0
-1236 1256 0
-266 -1236 1237 0
-1237 1257 0
-267 -1237 1238 0
-1238 1258 0
-268 -1238 1239 0
-1239 1259 0
-269 -1239 1240 0
-1240 1260 0
-270 -1240 1241 0
-1241 1261 0
-271 -1241 1242 0
-1242 1262 0
-272 -1242 1243 0
-1243 1263 0
-273 -1243 1244 0
-1244 1264 0
-274 -1244 1245 0
-1245 1265 0
-275 -1245 1246 0
-1246 1266 0
-276 -1246 1247 0
-1247 1267 0
-277 -1247 1248 0
-1248 1268 0
-278 -1248 0
-259 1249 0
-1249 1269 0
-260 -1249 1250 0
-1250 1270 0
-261 -1250 1251 0
-1251 1271 0
-262 -1251 1252 0
-1252 1272 0
-263 -1252 1253 0
-1253 1273 0
-264 -1253 1254 0
-1254 1274 0
-265 -1254 1255 0
-1255 1275 0
-266 -1255 1256 0
-1256 1276 0
-267 -1256 1257 0
-1257 1277 0
-268 -1257 1258 0
-1258 1278 0
-269 -1258 1259 0
-1259 1279 0
-270 -1259 1260 0
-1260 1280 0
-271 -1260 1261 0
-1261 1281 0
-272 -1261 1262 0
-1262 1282 0
-273 -1262 1263 0
-1263 1283 0
-274 -1263 1264 0
-1264 1284 0
-275 -1264 1265 0
-1265 1285 0
-276 -1265 1266 0
-1266 1286 0
-277 -1266 1267 0
-1267 1287 0
-278 -1267 1268 0
-1268 1288 0
-279 -1268 0
-260 1269 0
-1269 1289 0
-261 -1269 1270 0
-1270 1290 0
-262 -1270 1271 0
-1271 1291 0
-263 -1271 1272 0
-1272 1292 0
-264 -1272 1273 0
-1273 1293 0
-265 -1273 1274 0
-1274 1294 0
-266 -1274 1275 0
-1275 1295 0
-267 -1275 1276 0
-1276 1296 0
-268 -1276 1277 0
-1277 1297 0
-269 -1277 1278 0
-1278 1298 0
-270 -1278 1279 0
-1279 1299 0
-271 -1279 1280 0
-1280 1300 0
-272 -1280 1281 0
-1281 1301 0
-273 -1281 1282 0
-1282 1302 0
-274 -1282 1283 0
-1283 1303 0
-275 -1283 1284 0
-1284 1304 0
-276 -1284 1285 0
-1285 1305 0
-277 -1285 1286 0
-1286 1306 0
-278 -1286 1287 0
-1287 1307 0
-279 -1287 1288 0
-1288 1308 0
-280 -1288 0
-261 1289 0
-1289 1309 0
-262 -1289 1290 0
-1290 1310 0
-263 -1290 1291 0
-1291 1311 0
-264 -1291 1292 0
-1292 1312 0
-265 -1292 1293 0
-1293 1313 0
-266 -1293 1294 0
-1294 1314 0
-267 -1294 1295 0
-1295 1315 0
-268 -1295 1296 0
-1296 1316 0
-269 -1296 1297 0
-1297 1317 0
-270 -1297 1298 0
-1298 1318 0
-271 -1298 1299 0
-1299 1319 0
-272 -1299 1300 0
-1300 1320 0
-273 -1300 1301 0
-1301 1321 0
-274 -1301 1302 0
-1302 1322 0
-275 -1302 1303 0
-1303 1323 0
-276 -1303 1304 0
-1304 1324 0
-277 -1304 1305 0
-1305 1325 0
-278 -1305 1306 0
-1306 1326 0
-279 -1306 1307 0
-1307 1327 0
-280 -1307 1308 0
-1308 1328 0
-281 -1308 0
-262 1309 0
-1309 1329 0
-263 -1309 1310 0
-1310 1330 0
-264 -1310 1311 0
-1311 1331 0
-265 -1311 1312 0
-1312 1332 0
-266 -1312 1313 0
-1313 1333 0
-267 -1313 1314 0
-1314 1334 0
-268 -1314 1315 0
-1315 1335 0
-269 -1315 1316 0
-1316 1336 0
-270 -1316 1317 0
-1317 1337 0
-271 -1317 1318 0
-1318 1338 0
-272 -1318 1319 0
-1319 1339 0
-273 -1319 1320 0
-1320 1340 0
-274 -1320 1321 0
-1321 1341 0
-275 -1321 1322 0
-1322 1342 0
-276 -1322 1323 0
-1323 1343 0
-277 -1323 1324 0
-1324 1344 0
-278 -1324 1325 0
-1325 1345 0
-279 -1325 1326 0
-1326 1346 0
-280 -1326 1327 0
-1327 1347 0
-281 -1327 1328 0
-1328 1348 0
-282 -1328 0
-263 1329 0
-1329 1349 0
-264 -1329 1330 0
-1330 1350 0
-265 -1330 1331 0
-1331 1351 0
-266 -1331 1332 0
-1332 1352 0
-267 -1332 1333 0
-1333 1353 0
-268 -1333 1334 0
-1334 1354 0
-269 -1334 1335 0
-1335 1355 0
-270 -1335 1336 0
-1336 1356 0
-271 -1336 1337 0
-1337 1357 0
-272 -1337 1338 0
-1338 1358 0
-273 -1338 1339 0
-1339 1359 0
-274 -1339 1340 0
-1340 1360 0
-275 -1340 1341 0
-1341 1361 0
-276 -1341 1342 0
-1342 1362 0
-277 -1342 1343 0
-1343 1363 0
-278 -1343 1344 0
-1344 1364 0
-279 -1344 1345 0
-1345 1365 0
-280 -1345 1346 0
-1346 1366 0
-281 -1346 1347 0
-1347 1367 0
-282 -1347 1348 0
-1348 1368 0
-283 -1348 0
-264 1349 0
-1349 1369 0
-265 -1349 1350 0
-1350 1370 0
-266 -1350 1351 0
-1351 1371 0
-267 -1351 1352 0
-1352 1372 0
-268 -1352 1353 0
-1353 1373 0
-269 -1353 1354 0
-1354 1374 0
-270 -1354 1355 0
-1355 1375 0
-271 -1355 1356 0
-1356 1376 0
-272 -1356 1357 0
-1357 1377 0
-273 -1357 1358 0
-1358 1378 0
-274 -1358 1359 0
-1359 1379 0
-275 -1359 1360 0
-1360 1380 0
-276 -1360 1361 0
-1361 1381 0
-277 -1361 1362 0
-1362 1382 0
-278 -1362 1363 0
-1363 1383 0
-279 -1363 1364 0
-1364 1384 0
-280 -1364 1365 0
-1365 1385 0
-281 -1365 1366 0
-1366 1386 0
-282 -1366 1367 0
-1367 1387 0
-283 -1367 1368 0
-1368 1388 0
-284 -1368 0
-265 1369 0
-1369 1389 0
-266 -1369 1370 0
-1370 1390 0
-267 -1370 1371 0
-1371 1391 0
-268 -1371 1372 0
-1372 1392 0
-269 -1372 1373 0
-1373 1393 0
-270 -1373 1374 0
-1374 1394 0
-271 -1374 1375 0
-1375 1395 0
-272 -1375 1376 0
-1376 1396 0
-273 -1376 1377 0
-1377 1397 0
-274 -1377 1378 0
-1378 1398 0
-275 -1378 1379 0
-1379 1399 0
-276 -1379 1380 0
-1380 1400 0
-277 -1380 1381 0
-1381 1401 0
-278 -1381 1382 0
-1382 1402 0
-279 -1382 1383 0
-1383 1403 0
-280 -1383 1384 0
-1384 1404 0
-281 -1384 1385 0
-1385 1405 0
-282 -1385 1386 0
-1386 1406 0
-283 -1386 1387 0
-1387 1407 0
-284 -1387 1388 0
-1388 1408 0
-285 -1388 0
-266 1389 0
-1389 1409 0
-267 -1389 1390 0
-1390 1410 0
-268 -1390 1391 0
-1391 1411 0
-269 -1391 1392 0
-1392 1412 0
-270 -1392 1393 0
-1393 1413 0
-271 -1393 1394 0
-1394 1414 0
-272 -1394 1395 0
-1395 1415 0
-273 -1395 1396 0
-1396 1416 0
-274 -1396 1397 0
-1397 1417 0
-275 -1397 1398 0
-1398 1418 0
-276 -1398 1399 0
-1399 1419 0
-277 -1399 1400 0
-1400 1420 0
-278 -1400 1401 0
-1401 1421 0
-279 -1401 1402 0
-1402 1422 0
-280 -1402 1403 0
-1403 1423 0
-281 -1403 1404 0
-1404 1424 0
-282 -1404 1405 0
-1405 1425 0
-283 -1405 1406 0
-1406 1426 0
-284 -1406 1407 0
-1407 1427 0
-285 -1407 1408 0
-1408 1428 0
-286 -1408 0
-267 1409 0
-1409 1429 0
-268 -1409 1410 0
-1410 1430 0
-269 -1410 1411 0
-1411 1431 0
-270 -1411 1412 0
-1412 1432 0
-271 -1412 1413 0
-1413 1433 0
-272 -1413 1414 0
-1414 1434 0
-273 -1414 1415 0
-1415 1435 0
-274 -1415 1416 0
-1416 1436 0
-275 -1416 1417 0
-1417 1437 0
-276 -1417 1418 0
-1418 1438 0
-277 -1418 1419 0
-1419 1439 0
-278 -1419 1420 0
-1420 1440 0
-279 -1420 1421 0
-1421 1441 0
-280 -1421 1422 0
-1422 1442 0
-281 -1422 1423 0
-1423 1443 0
-282 -1423 1424 0
-1424 1444 0
-283 -1424 1425 0
-1425 1445 0
-284 -1425 1426 0
-1426 1446 0
-285 -1426 1427 0
-1427 1447 0
-286 -1427 1428 0
-1428 1448 0
-287 -1428 0
-268 1429 0
-1429 1449 0
-269 -1429 1430 0
-1430 1450 0
-270 -1430 1431 0
-1431 1451 0
-271 -1431 1432 0
-1432 1452 0
-272 -1432 1433 0
-1433 1453 0
-273 -1433 1434 0
-1434 1454 0
-274 -1434 1435 0
-1435 1455 0
-275 -1435 1436 0
-1436 1456 0
-276 -1436 1437 0
-1437 1457 0
-277 -1437 1438 0
-1438 1458 0
-278 -1438 1439 0
-1439 1459 0
-279 -1439 1440 0
-1440 1460 0
-280 -1440 1441 0
-1441 1461 0
-281 -1441 1442 0
-1442 1462 0
-282 -1442 1443 0
-1443 1463 0
-283 -1443 1444 0
-1444 1464 0
-284 -1444 1445 0
-1445 1465 0
-285 -1445 1446 0
-1446 1466 0
-286 -1446 1447 0
-1447 1467 0
-287 -1447 1448 0
-1448 1468 0
-288 -1448 0
-269 1449 0
-1449 1469 0
-270 -1449 1450 0
-1450 1470 0
-271 -1450 1451 0
-1451 1471 0
-272 -1451 1452 0
-1452 1472 0
-273 -1452 1453 0
-1453 1473 0
-274 -1453 1454 0
-1454 1474 0
-275 -1454 1455 0
-1455 1475 0
-276 -1455 1456 0
-1456 1476 0
-277 -1456 1457 0
-1457 1477 0
-278 -1457 1458 0
-1458 1478 0
-279 -1458 1459 0
-1459 1479 0
-280 -1459 1460 0
-1460 1480 0
-281 -1460 1461 0
-1461 1481 0
-282 -1461 1462 0
-1462 1482 0
-283 -1462 1463 0
-1463 1483 0
-284 -1463 1464 0
-1464 1484 0
-285 -1464 1465 0
-1465 1485 0
-286 -1465 1466 0
-1466 1486 0
-287 -1466 1467 0
-1467 1487 0
-288 -1467 1468 0
-1468 1488 0
-289 -1468 0
-270 1469 0
-1469 1489 0
-271 -1469 1470 0
-1470 1490 0
-272 -1470 1471 0
-1471 1491 0
-273 -1471 1472 0
-1472 1492 0
-274 -1472 1473 0
-1473 1493 0
-275 -1473 1474 0
-1474 1494 0
-276 -1474 1475 0
-1475 1495 0
-277 -1475 1476 0
-1476 1496 0
-278 -1476 1477 0
-1477 1497 0
-279 -1477 1478 0
-1478 1498 0
-280 -1478 1479 0
-1479 1499 0
-281 -1479 1480 0
-1480 1500 0
-282 -1480 1481 0
-1481 1501 0
-283 -1481 1482 0
-1482 1502 0
-284 -1482 1483 0
-1483 1503 0
-285 -1483 1484 0
-1484 1504 0
-286 -1484 1485 0
-1485 1505 0
-287 -1485 1486 0
-1486 1506 0
-288 -1486 1487 0
-1487 1507 0
-289 -1487 1488 0
-1488 1508 0
-290 -1488 0
-271 1489 0
-1489 1509 0
-272 -1489 1490 0
-1490 1510 0
-273 -1490 1491 0
-1491 1511 0
-274 -1491 1492 0
-1492 1512 0
-275 -1492 1493 0
-1493 1513 0
-276 -1493 1494 0
-1494 1514 0
-277 -1494 1495 0
-1495 1515 0
-278 -1495 1496 0
-1496 1516 0
-279 -1496 1497 0
-1497 1517 0
-280 -1497 1498 0
-1498 1518 0
-281 -1498 1499 0
-1499 1519 0
-282 -1499 1500 0
-1500 1520 0
-283 -1500 1501 0
-1501 1521 0
-284 -1501 1502 0
-1502 1522 0
-285 -1502 1503 0
-1503 1523 0
-286 -1503 1504 0
-1504 1524 0
-287 -1504 1505 0
-1505 1525 0
-288 -1505 1506 0
-1506 1526 0
-289 -1506 1507 0
-1507 1527 0
-290 -1507 1508 0
-1508 1528 0
-291 -1508 0
-272 1509 0
-1509 1529 0
-273 -1509 1510 0
-1510 1530 0
-274 -1510 1511 0
-1511 1531 0
-275 -1511 1512 0
-1512 1532 0
-276 -1512 1513 0
-1513 1533 0
-277 -1513 1514 0
-1514 1534 0
-278 -1514 1515 0
-1515 1535 0
-279 -1515 1516 0
-1516 1536 0
-280 -1516 1517 0
-1517 1537 0
-281 -1517 1518 0
-1518 1538 0
-282 -1518 1519 0
-1519 1539 0
-283 -1519 1520 0
-1520 1540 0
-284 -1520 1521 0
-1521 1541 0
-285 -1521 1522 0
-1522 1542 0
-286 -1522 1523 0
-1523 1543 0
-287 -1523 1524 0
-1524 1544 0
-288 -1524 1525 0
-1525 1545 0
-289 -1525 1526 0
-1526 1546 0
-290 -1526 1527 0
-1527 1547 0
-291 -1527 1528 0
-1528 1548 0
-292 -1528 0
-273 1529 0
-1529 1549 0
-274 -1529 1530 0
-1530 1550 0
-275 -1530 1531 0
-1531 1551 0
-276 -1531 1532 0
-1532 1552 0
-277 -1532 1533 0
-1533 1553 0
-278 -1533 1534 0
-1534 1554 0
-279 -1534 1535 0
-1535 1555 0
-280 -1535 1536 0
-1536 1556 0
-281 -1536 1537 0
-1537 1557 0
-282 -1537 1538 0
-1538 1558 0
-283 -1538 1539 0
-1539 1559 0
-284 -1539 1540 0
-1540 1560 0
-285 -1540 1541 0
-1541 1561 0
-286 -1541 1542 0
-1542 1562 0
-287 -1542 1543 0
-1543 1563 0
-288 -1543 1544 0
-1544 1564 0
-289 -1544 1545 0
-1545 1565 0
-290 -1545 1546 0
-1546 1566 0
-291 -1546 1547 0
-1547 1567 0
-292 -1547 1548 0
-1548 1568 0
-293 -1548 0
-274 1549 0
-1549 1569 0
-275 -1549 1550 0
-1550 1570 0
-276 -1550 1551 0
-1551 1571 0
-277 -1551 1552 0
-1552 1572 0
-278 -1552 1553 0
-1553 1573 0
-279 -1553 1554 0
-1554 1574 0
-280 -1554 1555 0
-1555 1575 0
-281 -1555 1556 0
-1556 1576 0
-282 -1556 1557 0
-1557 1577 0
-283 -1557 1558 0
-1558 1578 0
-284 -1558 1559 0
-1559 1579 0
-285 -1559 1560 0
-1560 1580 0
-286 -1560 1561 0
-1561 1581 0
-287 -1561 1562 0
-1562 1582 0
-288 -1562 1563 0
-1563 1583 0
-289 -1563 1564 0
-1564 1584 0
-290 -1564 1565 0
-1565 1585 0
-291 -1565 1566 0
-1566 1586 0
-292 -1566 1567 0
-1567 1587 0
-293 -1567 1568 0
-1568 1588 0
-294 -1568 0
-275 1569 0
-1569 1589 0
-276 -1569 1570 0
-1570 1590 0
-277 -1570 1571 0
-1571 1591 0
-278 -1571 1572 0
-1572 1592 0
-279 -1572 1573 0
-1573 1593 0
-280 -1573 1574 0
-1574 1594 0
-281 -1574 1575 0
-1575 1595 0
-282 -1575 1576 0
-1576 1596 0
-283 -1576 1577 0
-1577 1597 0
-284 -1577 1578 0
-1578 1598 0
-285 -1578 1579 0
-1579 1599 0
-286 -1579 1580 0
-1580 1600 0
-287 -1580 1581 0
-1581 1601 0
-288 -1581 1582 0
-1582 1602 0
-289 -1582 1583 0
-1583 1603 0
-290 -1583 1584 0
-1584 1604 0
-291 -1584 1585 0
-1585 1605 0
-292 -1585 1586 0
-1586 1606 0
-293 -1586 1587 0
-1587 1607 0
-294 -1587 1588 0
-1588 1608 0
-295 -1588 0
-276 1589 0
-1589 1609 0
-277 -1589 1590 0
-1590 1610 0
-278 -1590 1591 0
-1591 1611 0
-279 -1591 1592 0
-1592 1612 0
-280 -1592 1593 0
-1593 1613 0
-281 -1593 1594 0
-1594 1614 0
-282 -1594 1595 0
-1595 1615 0
-283 -1595 1596 0
-1596 1616 0
-284 -1596 1597 0
-1597 1617 0
-285 -1597 1598 0
-1598 1618 0
-286 -1598 1599 0
-1599 1619 0
-287 -1599 1600 0
-1600 1620 0
-288 -1600 1601 0
-1601 1621 0
-289 -1601 1602 0
-1602 1622 0
-290 -1602 1603 0
-1603 1623 0
-291 -1603 1604 0
-1604 1624 0
-292 -1604 1605 0
-1605 1625 0
-293 -1605 1606 0
-1606 1626 0
-294 -1606 1607 0
-1607 1627 0
-295 -1607 1608 0
-1608 1628 0
-296 -1608 0
-277 1609 0
-1609 1629 0
-278 -1609 1610 0
-1610 1630 0
-279 -1610 1611 0
-1611 1631 0
-280 -1611 1612 0
-1612 1632 0
-281 -1612 1613 0
-1613 1633 0
-282 -1613 1614 0
-1614 1634 0
-283 -1614 1615 0
-1615 1635 0
-284 -1615 1616 0
-1616 1636 0
-285 -1616 1617 0
-1617 1637 0
-286 -1617 1618 0
-1618 1638 0
-287 -1618 1619 0
-1619 1639 0
-288 -1619 1620 0
-1620 1640 0
-289 -1620 1621 0
-1621 1641 0
-290 -1621 1622 0
-1622 1642 0
-291 -1622 1623 0
-1623 1643 0
-292 -1623 1624 0
-1624 1644 0
-293 -1624 1625 0
-1625 1645 0
-294 -1625 1626 0
-1626 1646 0
-295 -1626 1627 0
-1627 1647 0
-296 -1627 1628 0
-1628 1648 0
-297 -1628 0
-278 1629 0
-1629 1649 0
-279 -1629 1630 0
-1630 1650 0
-280 -1630 1631 0
-1631 1651 0
-281 -1631 1632 0
-1632 1652 0
-282 -1632 1633 0
-1633 1653 0
-283 -1633 1634 0
-1634 1654 0
-284 -1634 1635 0
-1635 1655 0
-285 -1635 1636 0
-1636 1656 0
-286 -1636 1637 0
-1637 1657 0
-287 -1637 1638 0
-1638 1658 0
-288 -1638 1639 0
-1639 1659 0
-289 -1639 1640 0
-1640 1660 0
-290 -1640 1641 0
-1641 1661 0
-291 -1641 1642 0
-1642 1662 0
-292 -1642 1643 0
-1643 1663 0
-293 -1643 1644 0
-1644 1664 0
-294 -1644 1645 0
-1645 1665 0
-295 -1645 1646 0
-1646 1666 0
-296 -1646 1647 0
-1647 1667 0
-297 -1647 1648 0
-1648 1668 0
-298 -1648 0
-279 1649 0
-1649 1669 0
-280 -1649 1650 0
-1650 1670 0
-281 -1650 1651 0
-1651 1671 0
-282 -1651 1652 0
-1652 1672 0
-283 -1652 1653 0
-1653 1673 0
-284 -1653 1654 0
-1654 1674 0
-285 -1654 1655 0
-1655 1675 0
-286 -1655 1656 0
-1656 1676 0
-287 -1656 1657 0
-1657 1677 0
-288 -1657 1658 0
-1658 1678 0
-289 -1658 1659 0
-1659 1679 0
-290 -1659 1660 0
-1660 1680 0
-291 -1660 1661 0
-1661 1681 0
-292 -1661 1662 0
-1662 1682 0
-293 -1662 1663 0
-1663 1683 0
-294 -1663 1664 0
-1664 1684 0
-295 -1664 1665 0
-1665 1685 0
-296 -1665 1666 0
-1666 1686 0
-297 -1666 1667 0
-1667 1687 0
-298 -1667 1668 0
-1668 1688 0
-299 -1668 0
-280 1669 0
-1669 1689 0
-281 -1669 1670 0
-1670 1690 0
-282 -1670 1671 0
-1671 1691 0
-283 -1671 1672 0
-1672 1692 0
-284 -1672 1673 0
-1673 1693 0
-285 -1673 1674 0
-1674 1694 0
-286 -1674 1675 0
-1675 1695 0
-287 -1675 1676 0
-1676 1696 0
-288 -1676 1677 0
-1677 1697 0
-289 -1677 1678 0
-1678 1698 0
-290 -1678 1679 0
-1679 1699 0
-291 -1679 1680 0
-1680 1700 0
-292 -1680 1681 0
-1681 1701 0
-293 -1681 1682 0
-1682 1702 0
-294 -1682 1683 0
-1683 1703 0
-295 -1683 1684 0
-1684 1704 0
-296 -1684 1685 0
-1685 1705 0
-297 -1685 1686 0
-1686 1706 0
-298 -1686 1687 0
-1687 1707 0
-299 -1687 1688 0
-1688 1708 0
-300 -1688 0
-281 1689 0
-1689 1709 0
-282 -1689 1690 0
-1690 1710 0
-283 -1690 1691 0
-1691 1711 0
-284 -1691 1692 0
-1692 1712 0
-285 -1692 1693 0
-1693 1713 0
-286 -1693 1694 0
-1694 1714 0
-287 -1694 1695 0
-1695 1715 0
-288 -1695 1696 0
-1696 1716 0
-289 -1696 1697 0
-1697 1717 0
-290 -1697 1698 0
-1698 1718 0
-291 -1698 1699 0
-1699 1719 0
-292 -1699 1700 0
-1700 1720 0
-293 -1700 1701 0
-1701 1721 0
-294 -1701 1702 0
-1702 1722 0
-295 -1702 1703 0
-1703 1723 0
-296 -1703 1704 0
-1704 1724 0
-297 -1704 1705 0
-1705 1725 0
-298 -1705 1706 0
-1706 1726 0
-299 -1706 1707 0
-1707 1727 0
-300 -1707 1708 0
-1708 1728 0
-301 -1708 0
-282 1709 0
-1709 1729 0
-283 -1709 1710 0
-1710 1730 0
-284 -1710 1711 0
-1711 1731 0
-285 -1711 1712 0
-1712 1732 0
-286 -1712 1713 0
-1713 1733 0
-287 -1713 1714 0
-1714 1734 0
-288 -1714 1715 0
-1715 1735 0
-289 -1715 1716 0
-1716 1736 0
-290 -1716 1717 0
-1717 1737 0
-291 -1717 1718 0
-1718 1738 0
-292 -1718 1719 0
-1719 1739 0
-293 -1719 1720 0
-1720 1740 0
-294 -1720 1721 0
-1721 1741 0
-295 -1721 1722 0
-1722 1742 0
-296 -1722 1723 0
-1723 1743 0
-297 -1723 1724 0
-1724 1744 0
-298 -1724 1725 0
-1725 1745 0
-299 -1725 1726 0
-1726 1746 0
-300 -1726 1727 0
-1727 1747 0
-301 -1727 1728 0
-1728 1748 0
-302 -1728 0
-283 1729 0
-1729 1749 0
-284 -1729 1730 0
-1730 1750 0
-285 -1730 1731 0
-1731 1751 0
-286 -1731 1732 0
-1732 1752 0
-287 -1732 1733 0
-1733 1753 0
-288 -1733 1734 0
-1734 1754 0
-289 -1734 1735 0
-1735 1755 0
-290 -1735 1736 0
-1736 1756 0
-291 -1736 1737 0
-1737 1757 0
-292 -1737 1738 0
-1738 1758 0
-293 -1738 1739 0
-1739 1759 0
-294 -1739 1740 0
-1740 1760 0
-295 -1740 1741 0
-1741 1761 0
-296 -1741 1742 0
-1742 1762 0
-297 -1742 1743 0
-1743 1763 0
-298 -1743 1744 0
-1744 1764 0
-299 -1744 1745 0
-1745 1765 0
-300 -1745 1746 0
-1746 1766 0
-301 -1746 1747 0
-1747 1767 0
-302 -1747 1748 0
-1748 1768 0
-303 -1748 0
-284 1749 0
-1749 1769 0
-285 -1749 1750 0
-1750 1770 0
-286 -1750 1751 0
-1751 1771 0
-287 -1751 1752 0
-1752 1772 0
-288 -1752 1753 0
-1753 1773 0
-289 -1753 1754 0
-1754 1774 0
-290 -1754 1755 0
-1755 1775 0
-291 -1755 1756 0
-1756 1776 0
-292 -1756 1757 0
-1757 1777 0
-293 -1757 1758 0
-1758 1778 0
-294 -1758 1759 0
-1759 1779 0
-295 -1759 1760 0
-1760 1780 0
-296 -1760 1761 0
-1761 1781 0
-297 -1761 1762 0
-1762 1782 0
-298 -1762 1763 0
-1763 1783 0
-299 -1763 1764 0
-1764 1784 0
-300 -1764 1765 0
-1765 1785 0
-301 -1765 1766 0
-1766 1786 0
-302 -1766 1767 0
-1767 1787 0
-303 -1767 1768 0
-1768 1788 0
-304 -1768 0
-285 1769 0
-1769 1789 0
-286 -1769 1770 0
-1770 1790 0
-287 -1770 1771 0
-1771 1791 0
-288 -1771 1772 0
-1772 1792 0
-289 -1772 1773 0
-1773 1793 0
-290 -1773 1774 0
-1774 1794 0
-291 -1774 1775 0
-1775 1795 0
-292 -1775 1776 0
-1776 1796 0
-293 -1776 1777 0
-1777 1797 0
-294 -1777 1778 0
-1778 1798 0
-295 -1778 1779 0
-1779 1799 0
-296 -1779 1780 0
-1780 1800 0
-297 -1780 1781 0
-1781 1801 0
-298 -1781 1782 0
-1782 1802 0
-299 -1782 1783 0
-1783 1803 0
-300 -1783 1784 0
-1784 1804 0
-301 -1784 1785 0
-1785 1805 0
-302 -1785 1786 0
-1786 1806 0
-303 -1786 1787 0
-1787 1807 0
-304 -1787 1788 0
-1788 1808 0
-305 -1788 0
-286 1789 0
-1789 1809 0
-287 -1789 1790 0
-1790 1810 0
-288 -1790 1791 0
-1791 1811 0
-289 -1791 1792 0
-1792 1812 0
-290 -1792 1793 0
-1793 1813 0
-291 -1793 1794 0
-1794 1814 0
-292 -1794 1795 0
-1795 1815 0
-293 -1795 1796 0
-1796 1816 0
-294 -1796 1797 0
-1797 1817 0
-295 -1797 1798 0
-1798 1818 0
-296 -1798 1799 0
-1799 1819 0
-297 -1799 1800 0
-1800 1820 0
-298 -1800 1801 0
-1801 1821 0
-299 -1801 1802 0
-1802 1822 0
-300 -1802 1803 0
-1803 1823 0
-301 -1803 1804 0
-1804 1824 0
-302 -1804 1805 0
-1805 1825 0
-303 -1805 1806 0
-1806 1826 0
-304 -1806 1807 0
-1807 1827 0
-305 -1807 1808 0
-1808 1828 0
-306 -1808 0
-287 1809 0
-1809 1829 0
-288 -1809 1810 0
-1810 1830 0
-289 -1810 1811 0
-1811 1831 0
-290 -1811 1812 0
-1812 1832 0
-291 -1812 1813 0
-1813 1833 0
-292 -1813 1814 0
-1814 1834 0
-293 -1814 1815 0
-1815 1835 0
-294 -1815 1816 0
-1816 1836 0
-295 -1816 1817 0
-1817 1837 0
-296 -1817 1818 0
-1818 1838 0
-297 -1818 1819 0
-1819 1839 0
-298 -1819 1820 0
-1820 1840 0
-299 -1820 1821 0
-1821 1841 0
-300 -1821 1822 0
-1822 1842 0
-301 -1822 1823 0
-1823 1843 0
-302 -1823 1824 0
-1824 1844 0
-303 -1824 1825 0
-1825 1845 0
-304 -1825 1826 0
-1826 1846 0
-305 -1826 1827 0
-1827 1847 0
-306 -1827 1828 0
-1828 1848 0
-307 -1828 0
-288 1829 0
-1829 1849 0
-289 -1829 1830 0
-1830 1850 0
-290 -1830 1831 0
-1831 1851 0
-291 -1831 1832 0
-1832 1852 0
-292 -1832 1833 0
-1833 1853 0
-293 -1833 1834 0
-1834 1854 0
-294 -1834 1835 0
-1835 1855 0
-295 -1835 1836 0
-1836 1856 0
-296 -1836 1837 0
-1837 1857 0
-297 -1837 1838 0
-1838 1858 0
-298 -1838 1839 0
-1839 1859 0
-299 -1839 1840 0
-1840 1860 0
-300 -1840 1841 0
-1841 1861 0
-301 -1841 1842 0
-1842 1862 0
-302 -1842 1843 0
-1843 1863 0
-303 -1843 1844 0
-1844 1864 0
-304 -1844 1845 0
-1845 1865 0
-305 -1845 1846 0
-1846 1866 0
-306 -1846 1847 0
-1847 1867 0
-307 -1847 1848 0
-1848 1868 0
-308 -1848 0
-289 1849 0
-1849 1869 0
-290 -1849 1850 0
-1850 1870 0
-291 -1850 1851 0
-1851 1871 0
-292 -1851 1852 0
-1852 1872 0
-293 -1852 1853 0
-1853 1873 0
-294 -1853 1854 0
-1854 1874 0
-295 -1854 1855 0
-1855 1875 0
-296 -1855 1856 0
-1856 1876 0
-297 -1856 1857 0
-1857 1877 0
-298 -1857 1858 0
-1858 1878 0
-299 -1858 1859 0
-1859 1879 0
-300 -1859 1860 0
-1860 1880 0
-301 -1860 1861 0
-1861 1881 0
-302 -1861 1862 0
-1862 1882 0
-303 -1862 1863 0
-1863 1883 0
-304 -1863 1864 0
-1864 1884 0
-305 -1864 1865 0
-1865 1885 0
-306 -1865 1866 0
-1866 1886 0
-307 -1866 1867 0
-1867 1887 0
-308 -1867 1868 0
-1868 1888 0
-309 -1868 0
-290 1869 0
-1869 1889 0
-291 -1869 1870 0
-1870 1890 0
-292 -1870 1871 0
-1871 1891 0
-293 -1871 1872 0
-1872 1892 0
-294 -1872 1873 0
-1873 1893 0
-295 -1873 1874 0
-1874 1894 0
-296 -1874 1875 0
-1875 1895 0
-297 -1875 1876 0
-1876 1896 0
-298 -1876 1877 0
-1877 1897 0
-299 -1877 1878 0
-1878 1898 0
-300 -1878 1879 0
-1879 1899 0
-301 -1879 1880 0
-1880 1900 0
-302 -1880 1881 0
-1881 1901 0
-303 -1881 1882 0
-1882 1902 0
-304 -1882 1883 0
-1883 1903 0
-305 -1883 1884 0
-1884 1904 0
-306 -1884 1885 0
-1885 1905 0
-307 -1885 1886 0
-1886 1906 0
-308 -1886 1887 0
-1887 1907 0
-309 -1887 1888 0
-1888 1908 0
-310 -1888 0
-291 1889 0
-1889 1909 0
-292 -1889 1890 0
-1890 1910 0
-293 -1890 1891 0
-1891 1911 0
-294 -1891 1892 0
-1892 1912 0
-295 -1892 1893 0
-1893 1913 0
-296 -1893 1894 0
-1894 1914 0
-297 -1894 1895 0
-1895 1915 0
-298 -1895 1896 0
-1896 1916 0
-299 -1896 1897 0
-1897 1917 0
-300 -1897 1898 0
-1898 1918 0
-301 -1898 1899 0
-1899 1919 0
-302 -1899 1900 0
-1900 1920 0
-303 -1900 1901 0
-1901 1921 0
-304 -1901 1902 0
-1902 1922 0
-305 -1902 1903 0
-1903 1923 0
-306 -1903 1904 0
-1904 1924 0
-307 -1904 1905 0
-1905 1925 0
-308 -1905 1906 0
-1906 1926 0
-309 -1906 1907 0
-1907 1927 0
-310 -1907 1908 0
-1908 1928 0
-311 -1908 0
-292 1909 0
-1909 1929 0
-293 -1909 1910 0
-1910 1930 0
-294 -1910 1911 0
-1911 1931 0
-295 -1911 1912 0
-1912 1932 0
-296 -1912 1913 0
-1913 1933 0
-297 -1913 1914 0
-1914 1934 0
-298 -1914 1915 0
-1915 1935 0
-299 -1915 1916 0
-1916 1936 0
-300 -1916 1917 0
-1917 1937 0
-301 -1917 1918 0
-1918 1938 0
-302 -1918 1919 0
-1919 1939 0
-303 -1919 1920 0
-1920 1940 0
-304 -1920 1921 0
-1921 1941 0
-305 -1921 1922 0
-1922 1942 0
-306 -1922 1923 0
-1923 1943 0
-307 -1923 1924 0
-1924 1944 0
-308 -1924 1925 0
-1925 1945 0
-309 -1925 1926 0
-1926 1946 0
-310 -1926 1927 0
-1927 1947 0
-311 -1927 1928 0
-1928 1948 0
-312 -1928 0
-293 1929 0
-1929 1949 0
-294 -1929 1930 0
-1930 1950 0
-295 -1930 1931 0
-1931 1951 0
-296 -1931 1932 0
-1932 1952 0
-297 -1932 1933 0
-1933 1953 0
-298 -1933 1934 0
-1934 1954 0
-299 -1934 1935 0
-1935 1955 0
-300 -1935 1936 0
-1936 1956 0
-301 -1936 1937 0
-1937 1957 0
-302 -1937 1938 0
-1938 1958 0
-303 -1938 1939 0
-1939 1959 0
-304 -1939 1940 0
-1940 1960 0
-305 -1940 1941 0
-1941 1961 0
-306 -1941 1942 0
-1942 1962 0
-307 -1942 1943 0
-1943 1963 0
-308 -1943 1944 0
-1944 1964 0
-309 -1944 1945 0
-1945 1965 0
-310 -1945 1946 0
-1946 1966 0
-311 -1946 1947 0
-1947 1967 0
-312 -1947 1948 0
-1948 1968 0
-313 -1948 0
-294 1949 0
-1949 1969 0
-295 -1949 1950 0
-1950 1970 0
-296 -1950 1951 0
-1951 1971 0
-297 -1951 1952 0
-1952 1972 0
-298 -1952 1953 0
-1953 1973 0
-299 -1953 1954 0
-1954 1974 0
-300 -1954 1955 0
-1955 1975 0
-301 -1955 1956 0
-1956 1976 0
-302 -1956 1957 0
-1957 1977 0
-303 -1957 1958 0
-1958 1978 0
-304 -1958 1959 0
-1959 1979 0
-305 -1959 1960 0
-1960 1980 0
-306 -1960 1961 0
-1961 1981 0
-307 -1961 1962 0
-1962 1982 0
-308 -1962 1963 0
-1963 1983 0
-309 -1963 1964 0
-1964 1984 0
-310 -1964 1965 0
-1965 1985 0
-311 -1965 1966 0
-1966 1986 0
-312 -1966 1967 0
-1967 1987 0
-313 -1967 1968 0
-1968 1988 0
-314 -1968 0
-295 1969 0
-1969 1989 0
-296 -1969 1970 0
-1970 1990 0
-297 -1970 1971 0
-1971 1991 0
-298 -1971 1972 0
-1972 1992 0
-299 -1972 1973 0
-1973 1993 0
-300 -1973 1974 0
-1974 1994 0
-301 -1974 1975 0
-1975 1995 0
-302 -1975 1976 0
-1976 1996 0
-303 -1976 1977 0
-1977 1997 0
-304 -1977 1978 0
-1978 1998 0
-305 -1978 1979 0
-1979 1999 0
-306 -1979 1980 0
-1980 2000 0
-307 -1980 1981 0
-1981 2001 0
-308 -1981 1982 0
-1982 2002 0
-309 -1982 1983 0
-1983 2003 0
-310 -1983 1984 0
-1984 2004 0
-311 -1984 1985 0
-1985 2005 0
-312 -1985 1986 0
-1986 2006 0
-313 -1986 1987 0
-1987 2007 0
-314 -1987 1988 0
-1988 2008 0
-315 -1988 0
-296 1989 0
-1989 2009 0
-297 -1989 1990 0
-1990 2010 0
-298 -1990 1991 0
-1991 2011 0
-299 -1991 1992 0
-1992 2012 0
-300 -1992 1993 0
-1993 2013 0
-301 -1993 1994 0
-1994 2014 0
-302 -1994 1995 0
-1995 2015 0
-303 -1995 1996 0
-1996 2016 0
-304 -1996 1997 0
-1997 2017 0
-305 -1997 1998 0
-1998 2018 0
-306 -1998 1999 0
-1999 2019 0
-307 -1999 2000 0
-2000 2020 0
-308 -2000 2001 0
-2001 2021 0
-309 -2001 2002 0
-2002 2022 0
-310 -2002 2003 0
-2003 2023 0
-311 -2003 2004 0
-2004 2024 0
-312 -2004 2005 0
-2005 2025 0
-313 -2005 2006 0
-2006 2026 0
-314 -2006 2007 0
-2007 2027 0
-315 -2007 2008 0
-2008 2028 0
-316 -2008 0
-297 2009 0
-2009 2029 0
-298 -2009 2010 0
-2010 2030 0
-299 -2010 2011 0
-2011 2031 0
-300 -2011 2012 0
-2012 2032 0
-301 -2012 2013 0
-2013 2033 0
-302 -2013 2014 0
-2014 2034 0
-303 -2014 2015 0
-2015 2035 0
-304 -2015 2016 0
-2016 2036 0
-305 -2016 2017 0
-2017 2037 0
-306 -2017 2018 0
-2018 2038 0
-307 -2018 2019 0
-2019 2039 0
-308 -2019 2020 0
-2020 2040 0
-309 -2020 2021 0
-2021 2041 0
-310 -2021 2022 0
-2022 2042 0
-311 -2022 2023 0
-2023 2043 0
-312 -2023 2024 0
-2024 2044 0
-313 -2024 2025 0
-2025 2045 0
-314 -2025 2026 0
-2026 2046 0
-315 -2026 2027 0
-2027 2047 0
-316 -2027 2028 0
-2028 2048 0
-317 -2028 0
-298 2029 0
-2029 2049 0
-299 -2029 2030 0
-2030 2050 0
-300 -2030 2031 0
-2031 2051 0
-301 -2031 2032 0
-2032 2052 0
-302 -2032 2033 0
-2033 2053 0
-303 -2033 2034 0
-2034 2054 0
-304 -2034 2035 0
-2035 2055 0
-305 -2035 2036 0
-2036 2056 0
-306 -2036 2037 0
-2037 2057 0
-307 -2037 2038 0
-2038 2058 0
-308 -2038 2039 0
-2039 2059 0
-309 -2039 2040 0
-2040 2060 0
-310 -2040 2041 0
-2041 2061 0
-311 -2041 2042 0
-2042 2062 0
-312 -2042 2043 0
-2043 2063 0
-313 -2043 2044 0
-2044 2064 0
-314 -2044 2045 0
-2045 2065 0
-315 -2045 2046 0
-2046 2066 0
-316 -2046 2047 0
-2047 2067 0
-317 -2047 2048 0
-2048 2068 0
-318 -2048 0
-299 2049 0
-2049 2069 0
-300 -2049 2050 0
-2050 2070 0
-301 -2050 2051 0
-2051 2071 0
-302 -2051 2052 0
-2052 2072 0
-303 -2052 2053 0
-2053 2073 0
-304 -2053 2054 0
-2054 2074 0
-305 -2054 2055 0
-2055 2075 0
-306 -2055 2056 0
-2056 2076 0
-307 -2056 2057 0
-2057 2077 0
-308 -2057 2058 0
-2058 2078 0
-309 -2058 2059 0
-2059 2079 0
-310 -2059 2060 0
-2060 2080 0
-311 -2060 2061 0
-2061 2081 0
-312 -2061 2062 0
-2062 2082 0
-313 -2062 2063 0
-2063 2083 0
-314 -2063 2064 0
-2064 2084 0
-315 -2064 2065 0
-2065 2085 0
-316 -2065 2066 0
-2066 2086 0
-317 -2066 2067 0
-2067 2087 0
-318 -2067 2068 0
-2068 2088 0
-319 -2068 0
-300 2069 0
-2069 2089 0
-301 -2069 2070 0
-2070 2090 0
-302 -2070 2071 0
-2071 2091 0
-303 -2071 2072 0
-2072 2092 0
-304 -2072 2073 0
-2073 2093 0
-305 -2073 2074 0
-2074 2094 0
-306 -2074 2075 0
-2075 2095 0
-307 -2075 2076 0
-2076 2096 0
-308 -2076 2077 0
-2077 2097 0
-309 -2077 2078 0
-2078 2098 0
-310 -2078 2079 0
-2079 2099 0
-311 -2079 2080 0
-2080 2100 0
-312 -2080 2081 0
-2081 2101 0
-313 -2081 2082 0
-2082 2102 0
-314 -2082 2083 0
-2083 2103 0
-315 -2083 2084 0
-2084 2104 0
-316 -2084 2085 0
-2085 2105 0
-317 -2085 2086 0
-2086 2106 0
-318 -2086 2087 0
-2087 2107 0
-319 -2087 2088 0
-2088 2108 0
-320 -2088 0
-301 2089 0
-2089 2109 0
-302 -2089 2090 0
-2090 2110 0
-303 -2090 2091 0
-2091 2111 0
-304 -2091 2092 0
-2092 2112 0
-305 -2092 2093 0
-2093 2113 0
-306 -2093 2094 0
-2094 2114 0
-307 -2094 2095 0
-2095 2115 0
-308 -2095 2096 0
-2096 2116 0
-309 -2096 2097 0
-2097 2117 0
-310 -2097 2098 0
-2098 2118 0
-311 -2098 2099 0
-2099 2119 0
-312 -2099 2100 0
-2100 2120 0
-313 -2100 2101 0
-2101 2121 0
-314 -2101 2102 0
-2102 2122 0
-315 -2102 2103 0
-2103 2123 0
-316 -2103 2104 0
-2104 2124 0
-317 -2104 2105 0
-2105 2125 0
-318 -2105 2106 0
-2106 2126 0
-319 -2106 2107 0
-2107 2127 0
-320 -2107 2108 0
-2108 2128 0
-321 -2108 0
-302 2109 0
-2109 2129 0
-303 -2109 2110 0
-2110 2130 0
-304 -2110 2111 0
-2111 2131 0
-305 -2111 2112 0
-2112 2132 0
-306 -2112 2113 0
-2113 2133 0
-307 -2113 2114 0
-2114 2134 0
-308 -2114 2115 0
-2115 2135 0
-309 -2115 2116 0
-2116 2136 0
-310 -2116 2117 0
-2117 2137 0
-311 -2117 2118 0
-2118 2138 0
-312 -2118 2119 0
-2119 2139 0
-313 -2119 2120 0
-2120 2140 0
-314 -2120 2121 0
-2121 2141 0
-315 -2121 2122 0
-2122 2142 0
-316 -2122 2123 0
-2123 2143 0
-317 -2123 2124 0
-2124 2144 0
-318 -2124 2125 0
-2125 2145 0
-319 -2125 2126 0
-2126 2146 0
-320 -2126 2127 0
-2127 2147 0
-321 -2127 2128 0
-2128 2148 0
-322 -2128 0
-303 2129 0
-2129 2149 0
-304 -2129 2130 0
-2130 2150 0
-305 -2130 2131 0
-2131 2151 0
-306 -2131 2132 0
-2132 2152 0
-307 -2132 2133 0
-2133 2153 0
-308 -2133 2134 0
-2134 2154 0
-309 -2134 2135 0
-2135 2155 0
-310 -2135 2136 0
-2136 2156 0
-311 -2136 2137 0
-2137 2157 0
-312 -2137 2138 0
-2138 2158 0
-313 -2138 2139 0
-2139 2159 0
-314 -2139 2140 0
-2140 2160 0
-315 -2140 2141 0
-2141 2161 0
-316 -2141 2142 0
-2142 2162 0
-317 -2142 2143 0
-2143 2163 0
-318 -2143 2144 0
-2144 2164 0
-319 -2144 2145 0
-2145 2165 0
-320 -2145 2146 0
-2146 2166 0
-321 -2146 2147 0
-2147 2167 0
-322 -2147 2148 0
-2148 2168 0
-323 -2148 0
-304 2149 0
-2149 2169 0
-305 -2149 2150 0
-2150 2170 0
-306 -2150 2151 0
-2151 2171 0
-307 -2151 2152 0
-2152 2172 0
-308 -2152 2153 0
-2153 2173 0
-309 -2153 2154 0
-2154 2174 0
-310 -2154 2155 0
-2155 2175 0
-311 -2155 2156 0
-2156 2176 0
-312 -2156 2157 0
-2157 2177 0
-313 -2157 2158 0
-2158 2178 0
-314 -2158 2159 0
-2159 2179 0
-315 -2159 2160 0
-2160 2180 0
-316 -2160 2161 0
-2161 2181 0
-317 -2161 2162 0
-2162 2182 0
-318 -2162 2163 0
-2163 2183 0
-319 -2163 2164 0
-2164 2184 0
-320 -2164 2165 0
-2165 2185 0
-321 -2165 2166 0
-2166 2186 0
-322 -2166 2167 0
-2167 2187 0
-323 -2167 2168 0
-2168 2188 0
-324 -2168 0
-305 2169 0
-2169 2189 0
-306 -2169 2170 0
-2170 2190 0
-307 -2170 2171 0
-2171 2191 0
-308 -2171 2172 0
-2172 2192 0
-309 -2172 2173 0
-2173 2193 0
-310 -2173 2174 0
-2174 2194 0
-311 -2174 2175 0
-2175 2195 0
-312 -2175 2176 0
-2176 2196 0
-313 -2176 2177 0
-2177 2197 0
-314 -2177 2178 0
-2178 2198 0
-315 -2178 2179 0
-2179 2199 0
-316 -2179 2180 0
-2180 2200 0
-317 -2180 2181 0
-2181 2201 0
-318 -2181 2182 0
-2182 2202 0
-319 -2182 2183 0
-2183 2203 0
-320 -2183 2184 0
-2184 2204 0
-321 -2184 2185 0
-2185 2205 0
-322 -2185 2186 0
-2186 2206 0
-323 -2186 2187 0
-2187 2207 0
-324 -2187 2188 0
-2188 2208 0
-325 -2188 0
-306 2189 0
-2189 2209 0
-307 -2189 2190 0
-2190 2210 0
-308 -2190 2191 0
-2191 2211 0
-309 -2191 2192 0
-2192 2212 0
-310 -2192 2193 0
-2193 2213 0
-311 -2193 2194 0
-2194 2214 0
-312 -2194 2195 0
-2195 2215 0
-313 -2195 2196 0
-2196 2216 0
-314 -2196 2197 0
-2197 2217 0
-315 -2197 2198 0
-2198 2218 0
-316 -2198 2199 0
-2199 2219 0
-317 -2199 2200 0
-2200 2220 0
-318 -2200 2201 0
-2201 2221 0
-319 -2201 2202 0
-2202 2222 0
-320 -2202 2203 0
-2203 2223 0
-321 -2203 2204 0
-2204 2224 0
-322 -2204 2205 0
-2205 2225 0
-323 -2205 2206 0
-2206 2226 0
-324 -2206 2207 0
-2207 2227 0
-325 -2207 2208 0
-2208 2228 0
-326 -2208 0
-307 2209 0
-2209 2229 0
-308 -2209 2210 0
-2210 2230 0
-309 -2210 2211 0
-2211 2231 0
-310 -2211 2212 0
-2212 2232 0
-311 -2212 2213 0
-2213 2233 0
-312 -2213 2214 0
-2214 2234 0
-313 -2214 2215 0
-2215 2235 0
-314 -2215 2216 0
-2216 2236 0
-315 -2216 2217 0
-2217 2237 0
-316 -2217 2218 0
-2218 2238 0
-317 -2218 2219 0
-2219 2239 0
-318 -2219 2220 0
-2220 2240 0
-319 -2220 2221 0
-2221 2241 0
-320 -2221 2222 0
-2222 2242 0
-321 -2222 2223 0
-2223 2243 0
-322 -2223 2224 0
-2224 2244 0
-323 -2224 2225 0
-2225 2245 0
-324 -2225 2226 0
-2226 2246 0
-325 -2226 2227 0
-2227 2247 0
-326 -2227 2228 0
-2228 2248 0
-327 -2228 0
-308 2229 0
-2229 2249 0
-309 -2229 2230 0
-2230 2250 0
-310 -2230 2231 0
-2231 2251 0
-311 -2231 2232 0
-2232 2252 0
-312 -2232 2233 0
-2233 2253 0
-313 -2233 2234 0
-2234 2254 0
-314 -2234 2235 0
-2235 2255 0
-315 -2235 2236 0
-2236 2256 0
-316 -2236 2237 0
-2237 2257 0
-317 -2237 2238 0
-2238 2258 0
-318 -2238 2239 0
-2239 2259 0
-319 -2239 2240 0
-2240 2260 0
-320 -2240 2241 0
-2241 2261 0
-321 -2241 2242 0
-2242 2262 0
-322 -2242 2243 0
-2243 2263 0
-323 -2243 2244 0
-2244 2264 0
-324 -2244 2245 0
-2245 2265 0
-325 -2245 2246 0
-2246 2266 0
-326 -2246 2247 0
-2247 2267 0
-327 -2247 2248 0
-2248 2268 0
-328 -2248 0
-309 2249 0
-2249 2269 0
-310 -2249 2250 0
-2250 2270 0
-311 -2250 2251 0
-2251 2271 0
-312 -2251 2252 0
-2252 2272 0
-313 -2252 2253 0
-2253 2273 0
-314 -2253 2254 0
-2254 2274 0
-315 -2254 2255 0
-2255 2275 0
-316 -2255 2256 0
-2256 2276 0
-317 -2256 2257 0
-2257 2277 0
-318 -2257 2258 0
-2258 2278 0
-319 -2258 2259 0
-2259 2279 0
-320 -2259 2260 0
-2260 2280 0
-321 -2260 2261 0
-2261 2281 0
-322 -2261 2262 0
-2262 2282 0
-323 -2262 2263 0
-2263 2283 0
-324 -2263 2264 0
-2264 2284 0
-325 -2264 2265 0
-2265 2285 0
-326 -2265 2266 0
-2266 2286 0
-327 -2266 2267 0
-2267 2287 0
-328 -2267 2268 0
-2268 2288 0
-329 -2268 0
-310 2269 0
-2269 2289 0
-311 -2269 2270 0
-2270 2290 0
-312 -2270 2271 0
-2271 2291 0
-313 -2271 2272 0
-2272 2292 0
-314 -2272 2273 0
-2273 2293 0
-315 -2273 2274 0
-2274 2294 0
-316 -2274 2275 0
-2275 2295 0
-317 -2275 2276 0
-2276 2296 0
-318 -2276 2277 0
-2277 2297 0
-319 -2277 2278 0
-2278 2298 0
-320 -2278 2279 0
-2279 2299 0
-321 -2279 2280 0
-2280 2300 0
-322 -2280 2281 0
-2281 2301 0
-323 -2281 2282 0
-2282 2302 0
-324 -2282 2283 0
-2283 2303 0
-325 -2283 2284 0
-2284 2304 0
-326 -2284 2285 0
-2285 2305 0
-327 -2285 2286 0
-2286 2306 0
-328 -2286 2287 0
-2287 2307 0
-329 -2287 2288 0
-2288 2308 0
-330 -2288 0
-311 2289 0
-2289 2309 0
-312 -2289 2290 0
-2290 2310 0
-313 -2290 2291 0
-2291 2311 0
-314 -2291 2292 0
-2292 2312 0
-315 -2292 2293 0
-2293 2313 0
-316 -2293 2294 0
-2294 2314 0
-317 -2294 2295 0
-2295 2315 0
-318 -2295 2296 0
-2296 2316 0
-319 -2296 2297 0
-2297 2317 0
-320 -2297 2298 0
-2298 2318 0
-321 -2298 2299 0
-2299 2319 0
-322 -2299 2300 0
-2300 2320 0
-323 -2300 2301 0
-2301 2321 0
-324 -2301 2302 0
-2302 2322 0
-325 -2302 2303 0
-2303 2323 0
-326 -2303 2304 0
-2304 2324 0
-327 -2304 2305 0
-2305 2325 0
-328 -2305 2306 0
-2306 2326 0
-329 -2306 2307 0
-2307 2327 0
-330 -2307 2308 0
-2308 2328 0
-331 -2308 0
-312 2309 0
-2309 2329 0
-313 -2309 2310 0
-2310 2330 0
-314 -2310 2311 0
-2311 2331 0
-315 -2311 2312 0
-2312 2332 0
-316 -2312 2313 0
-2313 2333 0
-317 -2313 2314 0
-2314 2334 0
-318 -2314 2315 0
-2315 2335 0
-319 -2315 2316 0
-2316 2336 0
-320 -2316 2317 0
-2317 2337 0
-321 -2317 2318 0
-2318 2338 0
-322 -2318 2319 0
-2319 2339 0
-323 -2319 2320 0
-2320 2340 0
-324 -2320 2321 0
-2321 2341 0
-325 -2321 2322 0
-2322 2342 0
-326 -2322 2323 0
-2323 2343 0
-327 -2323 2324 0
-2324 2344 0
-328 -2324 2325 0
-2325 2345 0
-329 -2325 2326 0
-2326 2346 0
-330 -2326 2327 0
-2327 2347 0
-331 -2327 2328 0
-2328 2348 0
-332 -2328 0
-313 2329 0
-2329 2349 0
-314 -2329 2330 0
-2330 2350 0
-315 -2330 2331 0
-2331 2351 0
-316 -2331 2332 0
-2332 2352 0
-317 -2332 2333 0
-2333 2353 0
-318 -2333 2334 0
-2334 2354 0
-319 -2334 2335 0
-2335 2355 0
-320 -2335 2336 0
-2336 2356 0
-321 -2336 2337 0
-2337 2357 0
-322 -2337 2338 0
-2338 2358 0
-323 -2338 2339 0
-2339 2359 0
-324 -2339 2340 0
-2340 2360 0
-325 -2340 2341 0
-2341 2361 0
-326 -2341 2342 0
-2342 2362 0
-327 -2342 2343 0
-2343 2363 0
-328 -2343 2344 0
-2344 2364 0
-329 -2344 2345 0
-2345 2365 0
-330 -2345 2346 0
-2346 2366 0
-331 -2346 2347 0
-2347 2367 0
-332 -2347 2348 0
-2348 2368 0
-333 -2348 0
-314 2349 0
-2349 2369 0
-315 -2349 2350 0
-2350 2370 0
-316 -2350 2351 0
-2351 2371 0
-317 -2351 2352 0
-2352 2372 0
-318 -2352 2353 0
-2353 2373 0
-319 -2353 2354 0
-2354 2374 0
-320 -2354 2355 0
-2355 2375 0
-321 -2355 2356 0
-2356 2376 0
-322 -2356 2357 0
-2357 2377 0
-323 -2357 2358 0
-2358 2378 0
-324 -2358 2359 0
-2359 2379 0
-325 -2359 2360 0
-2360 2380 0
-326 -2360 2361 0
-2361 2381 0
-327 -2361 2362 0
-2362 2382 0
-328 -2362 2363 0
-2363 2383 0
-329 -2363 2364 0
-2364 2384 0
-330 -2364 2365 0
-2365 2385 0
-331 -2365 2366 0
-2366 2386 0
-332 -2366 2367 0
-2367 2387 0
-333 -2367 2368 0
-2368 2388 0
-334 -2368 0
-315 2369 0
-2369 2389 0
-316 -2369 2370 0
-2370 2390 0
-317 -2370 2371 0
-2371 2391 0
-318 -2371 2372 0
-2372 2392 0
-319 -2372 2373 0
-2373 2393 0
-320 -2373 2374 0
-2374 2394 0
-321 -2374 2375 0
-2375 2395 0
-322 -2375 2376 0
-2376 2396 0
-323 -2376 2377 0
-2377 2397 0
-324 -2377 2378 0
-2378 2398 0
-325 -2378 2379 0
-2379 2399 0
-326 -2379 2380 0
-2380 2400 0
-327 -2380 2381 0
-2381 2401 0
-328 -2381 2382 0
-2382 2402 0
-329 -2382 2383 0
-2383 2403 0
-330 -2383 2384 0
-2384 2404 0
-331 -2384 2385 0
-2385 2405 0
-332 -2385 2386 0
-2386 2406 0
-333 -2386 2387 0
-2387 2407 0
-334 -2387 2388 0
-2388 2408 0
-335 -2388 0
-316 2389 0
-2389 2409 0
-317 -2389 2390 0
-2390 2410 0
-318 -2390 2391 0
-2391 2411 0
-319 -2391 2392 0
-2392 2412 0
-320 -2392 2393 0
-2393 2413 0
-321 -2393 2394 0
-2394 2414 0
-322 -2394 2395 0
-2395 2415 0
-323 -2395 2396 0
-2396 2416 0
-324 -2396 2397 0
-2397 2417 0
-325 -2397 2398 0
-2398 2418 0
-326 -2398 2399 0
-2399 2419 0
-327 -2399 2400 0
-2400 2420 0
-328 -2400 2401 0
-2401 2421 0
-329 -2401 2402 0
-2402 2422 0
-330 -2402 2403 0
-2403 2423 0
-331 -2403 2404 0
-2404 2424 0
-332 -2404 2405 0
-2405 2425 0
-333 -2405 2406 0
-2406 2426 0
-334 -2406 2407 0
-2407 2427 0
-335 -2407 2408 0
-2408 2428 0
-336 -2408 0
-317 2409 0
-2409 2429 0
-318 -2409 2410 0
-2410 2430 0
-319 -2410 2411 0
-2411 2431 0
-320 -2411 2412 0
-2412 2432 0
-321 -2412 2413 0
-2413 2433 0
-322 -2413 2414 0
-2414 2434 0
-323 -2414 2415 0
-2415 2435 0
-324 -2415 2416 0
-2416 2436 0
-325 -2416 2417 0
-2417 2437 0
-326 -2417 2418 0
-2418 2438 0
-327 -2418 2419 0
-2419 2439 0
-328 -2419 2420 0
-2420 2440 0
-329 -2420 2421 0
-2421 2441 0
-330 -2421 2422 0
-2422 2442 0
-331 -2422 2423 0
-2423 2443 0
-332 -2423 2424 0
-2424 2444 0
-333 -2424 2425 0
-2425 2445 0
-334 -2425 2426 0
-2426 2446 0
-335 -2426 2427 0
-2427 2447 0
-336 -2427 2428 0
-2428 2448 0
-337 -2428 0
-318 2429 0
-2429 2449 0
-319 -2429 2430 0
-2430 2450 0
-320 -2430 2431 0
-2431 2451 0
-321 -2431 2432 0
-2432 2452 0
-322 -2432 2433 0
-2433 2453 0
-323 -2433 2434 0
-2434 2454 0
-324 -2434 2435 0
-2435 2455 0
-325 -2435 2436 0
-2436 2456 0
-326 -2436 2437 0
-2437 2457 0
-327 -2437 2438 0
-2438 2458 0
-328 -2438 2439 0
-2439 2459 0
-329 -2439 2440 0
-2440 2460 0
-330 -2440 2441 0
-2441 2461 0
-331 -2441 2442 0
-2442 2462 0
-332 -2442 2443 0
-2443 2463 0
-333 -2443 2444 0
-2444 2464 0
-334 -2444 2445 0
-2445 2465 0
-335 -2445 2446 0
-2446 2466 0
-336 -2446 2447 0
-2447 2467 0
-337 -2447 2448 0
-2448 2468 0
-338 -2448 0
-319 2449 0
-2449 2469 0
-320 -2449 2450 0
-2450 2470 0
-321 -2450 2451 0
-2451 2471 0
-322 -2451 2452 0
-2452 2472 0
-323 -2452 2453 0
-2453 2473 0
-324 -2453 2454 0
-2454 2474 0
-325 -2454 2455 0
-2455 2475 0
-326 -2455 2456 0
-2456 2476 0
-327 -2456 2457 0
-2457 2477 0
-328 -2457 2458 0
-2458 2478 0
-329 -2458 2459 0
-2459 2479 0
-330 -2459 2460 0
-2460 2480 0
-331 -2460 2461 0
-2461 2481 0
-332 -2461 2462 0
-2462 2482 0
-333 -2462 2463 0
-2463 2483 0
-334 -2463 2464 0
-2464 2484 0
-335 -2464 2465 0
-2465 2485 0
-336 -2465 2466 0
-2466 2486 0
-337 -2466 2467 0
-2467 2487 0
-338 -2467 2468 0
-2468 2488 0
-339 -2468 0
-320 2469 0
-2469 2489 0
-321 -2469 2470 0
-2470 2490 0
-322 -2470 2471 0
-2471 2491 0
-323 -2471 2472 0
-2472 2492 0
-324 -2472 2473 0
-2473 2493 0
-325 -2473 2474 0
-2474 2494 0
-326 -2474 2475 0
-2475 2495 0
-327 -2475 2476 0
-2476 2496 0
-328 -2476 2477 0
-2477 2497 0
-329 -2477 2478 0
-2478 2498 0
-330 -2478 2479 0
-2479 2499 0
-331 -2479 2480 0
-2480 2500 0
-332 -2480 2481 0
-2481 2501 0
-333 -2481 2482 0
-2482 2502 0
-334 -2482 2483 0
-2483 2503 0
-335 -2483 2484 0
-2484 2504 0
-336 -2484 2485 0
-2485 2505 0
-337 -2485 2486 0
-2486 2506 0
-338 -2486 2487 0
-2487 2507 0
-339 -2487 2488 0
-2488 2508 0
-340 -2488 0
-321 2489 0
-2489 2509 0
-322 -2489 2490 0
-2490 2510 0
-323 -2490 2491 0
-2491 2511 0
-324 -2491 2492 0
-2492 2512 0
-325 -2492 2493 0
-2493 2513 0
-326 -2493 2494 0
-2494 2514 0
-327 -2494 2495 0
-2495 2515 0
-328 -2495 2496 0
-2496 2516 0
-329 -2496 2497 0
-2497 2517 0
-330 -2497 2498 0
-2498 2518 0
-331 -2498 2499 0
-2499 2519 0
-332 -2499 2500 0
-2500 2520 0
-333 -2500 2501 0
-2501 2521 0
-334 -2501 2502 0
-2502 2522 0
-335 -2502 2503 0
-2503 2523 0
-336 -2503 2504 0
-2504 2524 0
-337 -2504 2505 0
-2505 2525 0
-338 -2505 2506 0
-2506 2526 0
-339 -2506 2507 0
-2507 2527 0
-340 -2507 2508 0
-2508 2528 0
-341 -2508 0
-322 2509 0
-2509 2529 0
-323 -2509 2510 0
-2510 2530 0
-324 -2510 2511 0
-2511 2531 0
-325 -2511 2512 0
-2512 2532 0
-326 -2512 2513 0
-2513 2533 0
-327 -2513 2514 0
-2514 2534 0
-328 -2514 2515 0
-2515 2535 0
-329 -2515 2516 0
-2516 2536 0
-330 -2516 2517 0
-2517 2537 0
-331 -2517 2518 0
-2518 2538 0
-332 -2518 2519 0
-2519 2539 0
-333 -2519 2520 0
-2520 2540 0
-334 -2520 2521 0
-2521 2541 0
-335 -2521 2522 0
-2522 2542 0
-336 -2522 2523 0
-2523 2543 0
-337 -2523 2524 0
-2524 2544 0
-338 -2524 2525 0
-2525 2545 0
-339 -2525 2526 0
-2526 2546 0
-340 -2526 2527 0
-2527 2547 0
-341 -2527 2528 0
-2528 2548 0
-342 -2528 0
-323 2529 0
-2529 2549 0
-324 -2529 2530 0
-2530 2550 0
-325 -2530 2531 0
-2531 2551 0
-326 -2531 2532 0
-2532 2552 0
-327 -2532 2533 0
-2533 2553 0
-328 -2533 2534 0
-2534 2554 0
-329 -2534 2535 0
-2535 2555 0
-330 -2535 2536 0
-2536 2556 0
-331 -2536 2537 0
-2537 2557 0
-332 -2537 2538 0
-2538 2558 0
-333 -2538 2539 0
-2539 2559 0
-334 -2539 2540 0
-2540 2560 0
-335 -2540 2541 0
-2541 2561 0
-336 -2541 2542 0
-2542 2562 0
-337 -2542 2543 0
-2543 2563 0
-338 -2543 2544 0
-2544 2564 0
-339 -2544 2545 0
-2545 2565 0
-340 -2545 2546 0
-2546 2566 0
-341 -2546 2547 0
-2547 2567 0
-342 -2547 2548 0
-2548 2568 0
-343 -2548 0
-324 2549 0
-2549 2569 0
-325 -2549 2550 0
-2550 2570 0
-326 -2550 2551 0
-2551 2571 0
-327 -2551 2552 0
-2552 2572 0
-328 -2552 2553 0
-2553 2573 0
-329 -2553 2554 0
-2554 2574 0
-330 -2554 2555 0
-2555 2575 0
-331 -2555 2556 0
-2556 2576 0
-332 -2556 2557 0
-2557 2577 0
-333 -2557 2558 0
-2558 2578 0
-334 -2558 2559 0
-2559 2579 0
-335 -2559 2560 0
-2560 2580 0
-336 -2560 2561 0
-2561 2581 0
-337 -2561 2562 0
-2562 2582 0
-338 -2562 2563 0
-2563 2583 0
-339 -2563 2564 0
-2564 2584 0
-340 -2564 2565 0
-2565 2585 0
-341 -2565 2566 0
-2566 2586 0
-342 -2566 2567 0
-2567 2587 0
-343 -2567 2568 0
-2568 2588 0
-344 -2568 0
-325 2569 0
-2569 2589 0
-326 -2569 2570 0
-2570 2590 0
-327 -2570 2571 0
-2571 2591 0
-328 -2571 2572 0
-2572 2592 0
-329 -2572 2573 0
-2573 2593 0
-330 -2573 2574 0
-2574 2594 0
-331 -2574 2575 0
-2575 2595 0
-332 -2575 2576 0
-2576 2596 0
-333 -2576 2577 0
-2577 2597 0
-334 -2577 2578 0
-2578 2598 0
-335 -2578 2579 0
-2579 2599 0
-336 -2579 2580 0
-2580 2600 0
-337 -2580 2581 0
-2581 2601 0
-338 -2581 2582 0
-2582 2602 0
-339 -2582 2583 0
-2583 2603 0
-340 -2583 2584 0
-2584 2604 0
-341 -2584 2585 0
-2585 2605 0
-342 -2585 2586 0
-2586 2606 0
-343 -2586 2587 0
-2587 2607 0
-344 -2587 2588 0
-2588 2608 0
-345 -2588 0
-326 2589 0
-2589 2609 0
-327 -2589 2590 0
-2590 2610 0
-328 -2590 2591 0
-2591 2611 0
-329 -2591 2592 0
-2592 2612 0
-330 -2592 2593 0
-2593 2613 0
-331 -2593 2594 0
-2594 2614 0
-332 -2594 2595 0
-2595 2615 0
-333 -2595 2596 0
-2596 2616 0
-334 -2596 2597 0
-2597 2617 0
-335 -2597 2598 0
-2598 2618 0
-336 -2598 2599 0
-2599 2619 0
-337 -2599 2600 0
-2600 2620 0
-338 -2600 2601 0
-2601 2621 0
-339 -2601 2602 0
-2602 2622 0
-340 -2602 2603 0
-2603 2623 0
-341 -2603 2604 0
-2604 2624 0
-342 -2604 2605 0
-2605 2625 0
-343 -2605 2606 0
-2606 2626 0
-344 -2606 2607 0
-2607 2627 0
-345 -2607 2608 0
-2608 2628 0
-346 -2608 0
-327 2609 0
-2609 2629 0
-328 -2609 2610 0
-2610 2630 0
-329 -2610 2611 0
-2611 2631 0
-330 -2611 2612 0
-2612 2632 0
-331 -2612 2613 0
-2613 2633 0
-332 -2613 2614 0
-2614 2634 0
-333 -2614 2615 0
-2615 2635 0
-334 -2615 2616 0
-2616 2636 0
-335 -2616 2617 0
-2617 2637 0
-336 -2617 2618 0
-2618 2638 0
-337 -2618 2619 0
-2619 2639 0
-338 -2619 2620 0
-2620 2640 0
-339 -2620 2621 0
-2621 2641 0
-340 -2621 2622 0
-2622 2642 0
-341 -2622 2623 0
-2623 2643 0
-342 -2623 2624 0
-2624 2644 0
-343 -2624 2625 0
-2625 2645 0
-344 -2625 2626 0
-2626 2646 0
-345 -2626 2627 0
-2627 2647 0
-346 -2627 2628 0
-2628 2648 0
-347 -2628 0
-328 2629 0
-2629 2649 0
-329 -2629 2630 0
-2630 2650 0
-330 -2630 2631 0
-2631 2651 0
-331 -2631 2632 0
-2632 2652 0
-332 -2632 2633 0
-2633 2653 0
-333 -2633 2634 0
-2634 2654 0
-334 -2634 2635 0
-2635 2655 0
-335 -2635 2636 0
-2636 2656 0
-336 -2636 2637 0
-2637 2657 0
-337 -2637 2638 0
-2638 2658 0
-338 -2638 2639 0
-2639 2659 0
-339 -2639 2640 0
-2640 2660 0
-340 -2640 2641 0
-2641 2661 0
-341 -2641 2642 0
-2642 2662 0
-342 -2642 2643 0
-2643 2663 0
-343 -2643 2644 0
-2644 2664 0
-344 -2644 2645 0
-2645 2665 0
-345 -2645 2646 0
-2646 2666 0
-346 -2646 2647 0
-2647 2667 0
-347 -2647 2648 0
-2648 2668 0
-348 -2648 0
-329 2649 0
-2649 2669 0
-330 -2649 2650 0
-2650 2670 0
-331 -2650 2651 0
-2651 2671 0
-332 -2651 2652 0
-2652 2672 0
-333 -2652 2653 0
-2653 2673 0
-334 -2653 2654 0
-2654 2674 0
-335 -2654 2655 0
-2655 2675 0
-336 -2655 2656 0
-2656 2676 0
-337 -2656 2657 0
-2657 2677 0
-338 -2657 2658 0
-2658 2678 0
-339 -2658 2659 0
-2659 2679 0
-340 -2659 2660 0
-2660 2680 0
-341 -2660 2661 0
-2661 2681 0
-342 -2661 2662 0
-2662 2682 0
-343 -2662 2663 0
-2663 2683 0
-344 -2663 2664 0
-2664 2684 0
-345 -2664 2665 0
-2665 2685 0
-346 -2665 2666 0
-2666 2686 0
-347 -2666 2667 0
-2667 2687 0
-348 -2667 2668 0
-2668 2688 0
-349 -2668 0
-330 2669 0
-2669 2689 0
-331 -2669 2670 0
-2670 2690 0
-332 -2670 2671 0
-2671 2691 0
-333 -2671 2672 0
-2672 2692 0
-334 -2672 2673 0
-2673 2693 0
-335 -2673 2674 0
-2674 2694 0
-336 -2674 2675 0
-2675 2695 0
-337 -2675 2676 0
-2676 2696 0
-338 -2676 2677 0
-2677 2697 0
-339 -2677 2678 0
-2678 2698 0
-340 -2678 2679 0
-2679 2699 0
-341 -2679 2680 0
-2680 2700 0
-342 -2680 2681 0
-2681 2701 0
-343 -2681 2682 0
-2682 2702 0
-344 -2682 2683 0
-2683 2703 0
-345 -2683 2684 0
-2684 2704 0
-346 -2684 2685 0
-2685 2705 0
-347 -2685 2686 0
-2686 2706 0
-348 -2686 2687 0
-2687 2707 0
-349 -2687 2688 0
-2688 2708 0
-350 -2688 0
-331 2689 0
-2689 2709 0
-332 -2689 2690 0
-2690 2710 0
-333 -2690 2691 0
-2691 2711 0
-334 -2691 2692 0
-2692 2712 0
-335 -2692 2693 0
-2693 2713 0
-336 -2693 2694 0
-2694 2714 0
-337 -2694 2695 0
-2695 2715 0
-338 -2695 2696 0
-2696 2716 0
-339 -2696 2697 0
-2697 2717 0
-340 -2697 2698 0
-2698 2718 0
-341 -2698 2699 0
-2699 2719 0
-342 -2699 2700 0
-2700 2720 0
-343 -2700 2701 0
-2701 2721 0
-344 -2701 2702 0
-2702 2722 0
-345 -2702 2703 0
-2703 2723 0
-346 -2703 2704 0
-2704 2724 0
-347 -2704 2705 0
-2705 2725 0
-348 -2705 2706 0
-2706 2726 0
-349 -2706 2707 0
-2707 2727 0
-350 -2707 2708 0
-2708 2728 0
-351 -2708 0
-332 2709 0
-2709 2729 0
-333 -2709 2710 0
-2710 2730 0
-334 -2710 2711 0
-2711 2731 0
-335 -2711 2712 0
-2712 2732 0
-336 -2712 2713 0
-2713 2733 0
-337 -2713 2714 0
-2714 2734 0
-338 -2714 2715 0
-2715 2735 0
-339 -2715 2716 0
-2716 2736 0
-340 -2716 2717 0
-2717 2737 0
-341 -2717 2718 0
-2718 2738 0
-342 -2718 2719 0
-2719 2739 0
-343 -2719 2720 0
-2720 2740 0
-344 -2720 2721 0
-2721 2741 0
-345 -2721 2722 0
-2722 2742 0
-346 -2722 2723 0
-2723 2743 0
-347 -2723 2724 0
-2724 2744 0
-348 -2724 2725 0
-2725 2745 0
-349 -2725 2726 0
-2726 2746 0
-350 -2726 2727 0
-2727 2747 0
-351 -2727 2728 0
-2728 2748 0
-352 -2728 0
-333 2729 0
-2729 2749 0
-334 -2729 2730 0
-2730 2750 0
-335 -2730 2731 0
-2731 2751 0
-336 -2731 2732 0
-2732 2752 0
-337 -2732 2733 0
-2733 2753 0
-338 -2733 2734 0
-2734 2754 0
-339 -2734 2735 0
-2735 2755 0
-340 -2735 2736 0
-2736 2756 0
-341 -2736 2737 0
-2737 2757 0
-342 -2737 2738 0
-2738 2758 0
-343 -2738 2739 0
-2739 2759 0
-344 -2739 2740 0
-2740 2760 0
-345 -2740 2741 0
-2741 2761 0
-346 -2741 2742 0
-2742 2762 0
-347 -2742 2743 0
-2743 2763 0
-348 -2743 2744 0
-2744 2764 0
-349 -2744 2745 0
-2745 2765 0
-350 -2745 2746 0
-2746 2766 0
-351 -2746 2747 0
-2747 2767 0
-352 -2747 2748 0
-2748 2768 0
-353 -2748 0
-334 2749 0
-2749 2769 0
-335 -2749 2750 0
-2750 2770 0
-336 -2750 2751 0
-2751 2771 0
-337 -2751 2752 0
-2752 2772 0
-338 -2752 2753 0
-2753 2773 0
-339 -2753 2754 0
-2754 2774 0
-340 -2754 2755 0
-2755 2775 0
-341 -2755 2756 0
-2756 2776 0
-342 -2756 2757 0
-2757 2777 0
-343 -2757 2758 0
-2758 2778 0
-344 -2758 2759 0
-2759 2779 0
-345 -2759 2760 0
-2760 2780 0
-346 -2760 2761 0
-2761 2781 0
-347 -2761 2762 0
-2762 2782 0
-348 -2762 2763 0
-2763 2783 0
-349 -2763 2764 0
-2764 2784 0
-350 -2764 2765 0
-2765 2785 0
-351 -2765 2766 0
-2766 2786 0
-352 -2766 2767 0
-2767 2787 0
-353 -2767 2768 0
-2768 2788 0
-354 -2768 0
-335 2769 0
-2769 2789 0
-336 -2769 2770 0
-2770 2790 0
-337 -2770 2771 0
-2771 2791 0
-338 -2771 2772 0
-2772 2792 0
-339 -2772 2773 0
-2773 2793 0
-340 -2773 2774 0
-2774 2794 0
-341 -2774 2775 0
-2775 2795 0
-342 -2775 2776 0
-2776 2796 0
-343 -2776 2777 0
-2777 2797 0
-344 -2777 2778 0
-2778 2798 0
-345 -2778 2779 0
-2779 2799 0
-346 -2779 2780 0
-2780 2800 0
-347 -2780 2781 0
-2781 2801 0
-348 -2781 2782 0
-2782 2802 0
-349 -2782 2783 0
-2783 2803 0
-350 -2783 2784 0
-2784 2804 0
-351 -2784 2785 0
-2785 2805 0
-352 -2785 2786 0
-2786 2806 0
-353 -2786 2787 0
-2787 2807 0
-354 -2787 2788 0
-2788 2808 0
-355 -2788 0
-336 2789 0
-2789 2809 0
-337 -2789 2790 0
-2790 2810 0
-338 -2790 2791 0
-2791 2811 0
-339 -2791 2792 0
-2792 2812 0
-340 -2792 2793 0
-2793 2813 0
-341 -2793 2794 0
-2794 2814 0
-342 -2794 2795 0
-2795 2815 0
-343 -2795 2796 0
-2796 2816 0
-344 -2796 2797 0
-2797 2817 0
-345 -2797 2798 0
-2798 2818 0
-346 -2798 2799 0
-2799 2819 0
-347 -2799 2800 0
-2800 2820 0
-348 -2800 2801 0
-2801 2821 0
-349 -2801 2802 0
-2802 2822 0
-350 -2802 2803 0
-2803 2823 0
-351 -2803 2804 0
-2804 2824 0
-352 -2804 2805 0
-2805 2825 0
-353 -2805 2806 0
-2806 2826 0
-354 -2806 2807 0
-2807 2827 0
-355 -2807 2808 0
-2808 2828 0
-356 -2808 0
-337 2809 0
-2809 2829 0
-338 -2809 2810 0
-2810 2830 0
-339 -2810 2811 0
-2811 2831 0
-340 -2811 2812 0
-2812 2832 0
-341 -2812 2813 0
-2813 2833 0
-342 -2813 2814 0
-2814 2834 0
-343 -2814 2815 0
-2815 2835 0
-344 -2815 2816 0
-2816 2836 0
-345 -2816 2817 0
-2817 2837 0
-346 -2817 2818 0
-2818 2838 0
-347 -2818 2819 0
-2819 2839 0
-348 -2819 2820 0
-2820 2840 0
-349 -2820 2821 0
-2821 2841 0
-350 -2821 2822 0
-2822 2842 0
-351 -2822 2823 0
-2823 2843 0
-352 -2823 2824 0
-2824 2844 0
-353 -2824 2825 0
-2825 2845 0
-354 -2825 2826 0
-2826 2846 0
-355 -2826 2827 0
-2827 2847 0
-356 -2827 2828 0
-2828 2848 0
-357 -2828 0
-338 2829 0
-2829 2849 0
-339 -2829 2830 0
-2830 2850 0
-340 -2830 2831 0
-2831 2851 0
-341 -2831 2832 0
-2832 2852 0
-342 -2832 2833 0
-2833 2853 0
-343 -2833 2834 0
-2834 2854 0
-344 -2834 2835 0
-2835 2855 0
-345 -2835 2836 0
-2836 2856 0
-346 -2836 2837 0
-2837 2857 0
-347 -2837 2838 0
-2838 2858 0
-348 -2838 2839 0
-2839 2859 0
-349 -2839 2840 0
-2840 2860 0
-350 -2840 2841 0
-2841 2861 0
-351 -2841 2842 0
-2842 2862 0
-352 -2842 2843 0
-2843 2863 0
-353 -2843 2844 0
-2844 2864 0
-354 -2844 2845 0
-2845 2865 0
-355 -2845 2846 0
-2846 2866 0
-356 -2846 2847 0
-2847 2867 0
-357 -2847 2848 0
-2848 2868 0
-358 -2848 0
-339 2849 0
-2849 2869 0
-340 -2849 2850 0
-2850 2870 0
-341 -2850 2851 0
-2851 2871 0
-342 -2851 2852 0
-2852 2872 0
-343 -2852 2853 0
-2853 2873 0
-344 -2853 2854 0
-2854 2874 0
-345 -2854 2855 0
-2855 2875 0
-346 -2855 2856 0
-2856 2876 0
-347 -2856 2857 0
-2857 2877 0
-348 -2857 2858 0
-2858 2878 0
-349 -2858 2859 0
-2859 2879 0
-350 -2859 2860 0
-2860 2880 0
-351 -2860 2861 0
-2861 2881 0
-352 -2861 2862 0
-2862 2882 0
-353 -2862 2863 0
-2863 2883 0
-354 -2863 2864 0
-2864 2884 0
-355 -2864 2865 0
-2865 2885 0
-356 -2865 2866 0
-2866 2886 0
-357 -2866 2867 0
-2867 2887 0
-358 -2867 2868 0
-2868 2888 0
-359 -2868 0
-340 2869 0
-2869 2889 0
-341 -2869 2870 0
-2870 2890 0
-342 -2870 2871 0
-2871 2891 0
-343 -2871 2872 0
-2872 2892 0
-344 -2872 2873 0
-2873 2893 0
-345 -2873 2874 0
-2874 2894 0
-346 -2874 2875 0
-2875 2895 0
-347 -2875 2876 0
-2876 2896 0
-348 -2876 2877 0
-2877 2897 0
-349 -2877 2878 0
-2878 2898 0
-350 -2878 2879 0
-2879 2899 0
-351 -2879 2880 0
-2880 2900 0
-352 -2880 2881 0
-2881 2901 0
-353 -2881 2882 0
-2882 2902 0
-354 -2882 2883 0
-2883 2903 0
-355 -2883 2884 0
-2884 2904 0
-356 -2884 2885 0
-2885 2905 0
-357 -2885 2886 0
-2886 2906 0
-358 -2886 2887 0
-2887 2907 0
-359 -2887 2888 0
-2888 2908 0
-360 -2888 0
-341 2889 0
-2889 2909 0
-342 -2889 2890 0
-2890 2910 0
-343 -2890 2891 0
-2891 2911 0
-344 -2891 2892 0
-2892 2912 0
-345 -2892 2893 0
-2893 2913 0
-346 -2893 2894 0
-2894 2914 0
-347 -2894 2895 0
-2895 2915 0
-348 -2895 2896 0
-2896 2916 0
-349 -2896 2897 0
-2897 2917 0
-350 -2897 2898 0
-2898 2918 0
-351 -2898 2899 0
-2899 2919 0
-352 -2899 2900 0
-2900 2920 0
-353 -2900 2901 0
-2901 2921 0
-354 -2901 2902 0
-2902 2922 0
-355 -2902 2903 0
-2903 2923 0
-356 -2903 2904 0
-2904 2924 0
-357 -2904 2905 0
-2905 2925 0
-358 -2905 2906 0
-2906 2926 0
-359 -2906 2907 0
-2907 2927 0
-360 -2907 2908 0
-2908 2928 0
-361 -2908 0
-342 2909 0
-2909 2929 0
-343 -2909 2910 0
-2910 2930 0
-344 -2910 2911 0
-2911 2931 0
-345 -2911 2912 0
-2912 2932 0
-346 -2912 2913 0
-2913 2933 0
-347 -2913 2914 0
-2914 2934 0
-348 -2914 2915 0
-2915 2935 0
-349 -2915 2916 0
-2916 2936 0
-350 -2916 2917 0
-2917 2937 0
-351 -2917 2918 0
-2918 2938 0
-352 -2918 2919 0
-2919 2939 0
-353 -2919 2920 0
-2920 2940 0
-354 -2920 2921 0
-2921 2941 0
-355 -2921 2922 0
-2922 2942 0
-356 -2922 2923 0
-2923 2943 0
-357 -2923 2924 0
-2924 2944 0
-358 -2924 2925 0
-2925 2945 0
-359 -2925 2926 0
-2926 2946 0
-360 -2926 2927 0
-2927 2947 0
-361 -2927 2928 0
-2928 2948 0
-362 -2928 0
-343 2929 0
-2929 2949 0
-344 -2929 2930 0
-2930 2950 0
-345 -2930 2931 0
-2931 2951 0
-346 -2931 2932 0
-2932 2952 0
-347 -2932 2933 0
-2933 2953 0
-348 -2933 2934 0
-2934 2954 0
-349 -2934 2935 0
-2935 2955 0
-350 -2935 2936 0
-2936 2956 0
-351 -2936 2937 0
-2937 2957 0
-352 -2937 2938 0
-2938 2958 0
-353 -2938 2939 0
-2939 2959 0
-354 -2939 2940 0
-2940 2960 0
-355 -2940 2941 0
-2941 2961 0
-356 -2941 2942 0
-2942 2962 0
-357 -2942 2943 0
-2943 2963 0
-358 -2943 2944 0
-2944 2964 0
-359 -2944 2945 0
-2945 2965 0
-360 -2945 2946 0
-2946 2966 0
-361 -2946 2947 0
-2947 2967 0
-362 -2947 2948 0
-2948 2968 0
-363 -2948 0
-344 2949 0
-2949 2969 0
-345 -2949 2950 0
-2950 2970 0
-346 -2950 2951 0
-2951 2971 0
-347 -2951 2952 0
-2952 2972 0
-348 -2952 2953 0
-2953 2973 0
-349 -2953 2954 0
-2954 2974 0
-350 -2954 2955 0
-2955 2975 0
-351 -2955 2956 0
-2956 2976 0
-352 -2956 2957 0
-2957 2977 0
-353 -2957 2958 0
-2958 2978 0
-354 -2958 2959 0
-2959 2979 0
-355 -2959 2960 0
-2960 2980 0
-356 -2960 2961 0
-2961 2981 0
-357 -2961 2962 0
-2962 2982 0
-358 -2962 2963 0
-2963 2983 0
-359 -2963 2964 0
-2964 2984 0
-360 -2964 2965 0
-2965 2985 0
-361 -2965 2966 0
-2966 2986 0
-362 -2966 2967 0
-2967 2987 0
-363 -2967 2968 0
-2968 2988 0
-364 -2968 0
-345 2969 0
-2969 2989 0
-346 -2969 2970 0
-2970 2990 0
-347 -2970 2971 0
-2971 2991 0
-348 -2971 2972 0
-2972 2992 0
-349 -2972 2973 0
-2973 2993 0
-350 -2973 2974 0
-2974 2994 0
-351 -2974 2975 0
-2975 2995 0
-352 -2975 2976 0
-2976 2996 0
-353 -2976 2977 0
-2977 2997 0
-354 -2977 2978 0
-2978 2998 0
-355 -2978 2979 0
-2979 2999 0
-356 -2979 2980 0
-2980 3000 0
-357 -2980 2981 0
-2981 3001 0
-358 -2981 2982 0
-2982 3002 0
-359 -2982 2983 0
-2983 3003 0
-360 -2983 2984 0
-2984 3004 0
-361 -2984 2985 0
-2985 3005 0
-362 -2985 2986 0
-2986 3006 0
-363 -2986 2987 0
-2987 3007 0
-364 -2987 2988 0
-2988 3008 0
-365 -2988 0
-346 2989 0
-2989 3009 0
-347 -2989 2990 0
-2990 3010 0
-348 -2990 2991 0
-2991 3011 0
-349 -2991 2992 0
-2992 3012 0
-350 -2992 2993 0
-2993 3013 0
-351 -2993 2994 0
-2994 3014 0
-352 -2994 2995 0
-2995 3015 0
-353 -2995 2996 0
-2996 3016 0
-354 -2996 2997 0
-2997 3017 0
-355 -2997 2998 0
-2998 3018 0
-356 -2998 2999 0
-2999 3019 0
-357 -2999 3000 0
-3000 3020 0
-358 -3000 3001 0
-3001 3021 0
-359 -3001 3002 0
-3002 3022 0
-360 -3002 3003 0
-3003 3023 0
-361 -3003 3004 0
-3004 3024 0
-362 -3004 3005 0
-3005 3025 0
-363 -3005 3006 0
-3006 3026 0
-364 -3006 3007 0
-3007 3027 0
-365 -3007 3008 0
-3008 3028 0
-366 -3008 0
-347 3009 0
-3009 3029 0
-348 -3009 3010 0
-3010 3030 0
-349 -3010 3011 0
-3011 3031 0
-350 -3011 3012 0
-3012 3032 0
-351 -3012 3013 0
-3013 3033 0
-352 -3013 3014 0
-3014 3034 0
-353 -3014 3015 0
-3015 3035 0
-354 -3015 3016 0
-3016 3036 0
-355 -3016 3017 0
-3017 3037 0
-356 -3017 3018 0
-3018 3038 0
-357 -3018 3019 0
-3019 3039 0
-358 -3019 3020 0
-3020 3040 0
-359 -3020 3021 0
-3021 3041 0
-360 -3021 3022 0
-3022 3042 0
-361 -3022 3023 0
-3023 3043 0
-362 -3023 3024 0
-3024 3044 0
-363 -3024 3025 0
-3025 3045 0
-364 -3025 3026 0
-3026 3046 0
-365 -3026 3027 0
-3027 3047 0
-366 -3027 3028 0
-3028 3048 0
-367 -3028 0
-348 3029 0
-3029 3049 0
-349 -3029 3030 0
-3030 3050 0
-350 -3030 3031 0
-3031 3051 0
-351 -3031 3032 0
-3032 3052 0
-352 -3032 3033 0
-3033 3053 0
-353 -3033 3034 0
-3034 3054 0
-354 -3034 3035 0
-3035 3055 0
-355 -3035 3036 0
-3036 3056 0
-356 -3036 3037 0
-3037 3057 0
-357 -3037 3038 0
-3038 3058 0
-358 -3038 3039 0
-3039 3059 0
-359 -3039 3040 0
-3040 3060 0
-360 -3040 3041 0
-3041 3061 0
-361 -3041 3042 0
-3042 3062 0
-362 -3042 3043 0
-3043 3063 0
-363 -3043 3044 0
-3044 3064 0
-364 -3044 3045 0
-3045 3065 0
-365 -3045 3046 0
-3046 3066 0
-366 -3046 3047 0
-3047 3067 0
-367 -3047 3048 0
-3048 3068 0
-368 -3048 0
-349 3049 0
-3049 3069 0
-350 -3049 3050 0
-3050 3070 0
-351 -3050 3051 0
-3051 3071 0
-352 -3051 3052 0
-3052 3072 0
-353 -3052 3053 0
-3053 3073 0
-354 -3053 3054 0
-3054 3074 0
-355 -3054 3055 0
-3055 3075 0
-356 -3055 3056 0
-3056 3076 0
-357 -3056 3057 0
-3057 3077 0
-358 -3057 3058 0
-3058 3078 0
-359 -3058 3059 0
-3059 3079 0
-360 -3059 3060 0
-3060 3080 0
-361 -3060 3061 0
-3061 3081 0
-362 -3061 3062 0
-3062 3082 0
-363 -3062 3063 0
-3063 3083 0
-364 -3063 3064 0
-3064 3084 0
-365 -3064 3065 0
-3065 3085 0
-366 -3065 3066 0
-3066 3086 0
-367 -3066 3067 0
-3067 3087 0
-368 -3067 3068 0
-3068 3088 0
-369 -3068 0
-350 3069 0
-3069 3089 0
-351 -3069 3070 0
-3070 3090 0
-352 -3070 3071 0
-3071 3091 0
-353 -3071 3072 0
-3072 3092 0
-354 -3072 3073 0
-3073 3093 0
-355 -3073 3074 0
-3074 3094 0
-356 -3074 3075 0
-3075 3095 0
-357 -3075 3076 0
-3076 3096 0
-358 -3076 3077 0
-3077 3097 0
-359 -3077 3078 0
-3078 3098 0
-360 -3078 3079 0
-3079 3099 0
-361 -3079 3080 0
-3080 3100 0
-362 -3080 3081 0
-3081 3101 0
-363 -3081 3082 0
-3082 3102 0
-364 -3082 3083 0
-3083 3103 0
-365 -3083 3084 0
-3084 3104 0
-366 -3084 3085 0
-3085 3105 0
-367 -3085 3086 0
-3086 3106 0
-368 -3086 3087 0
-3087 3107 0
-369 -3087 3088 0
-3088 3108 0
-370 -3088 0
-351 3089 0
-3089 3109 0
-352 -3089 3090 0
-3090 3110 0
-353 -3090 3091 0
-3091 3111 0
-354 -3091 3092 0
-3092 3112 0
-355 -3092 3093 0
-3093 3113 0
-356 -3093 3094 0
-3094 3114 0
-357 -3094 3095 0
-3095 3115 0
-358 -3095 3096 0
-3096 3116 0
-359 -3096 3097 0
-3097 3117 0
-360 -3097 3098 0
-3098 3118 0
-361 -3098 3099 0
-3099 3119 0
-362 -3099 3100 0
-3100 3120 0
-363 -3100 3101 0
-3101 3121 0
-364 -3101 3102 0
-3102 3122 0
-365 -3102 3103 0
-3103 3123 0
-366 -3103 3104 0
-3104 3124 0
-367 -3104 3105 0
-3105 3125 0
-368 -3105 3106 0
-3106 3126 0
-369 -3106 3107 0
-3107 3127 0
-370 -3107 3108 0
-3108 3128 0
-371 -3108 0
-352 3109 0
-3109 3129 0
-353 -3109 3110 0
-3110 3130 0
-354 -3110 3111 0
-3111 3131 0
-355 -3111 3112 0
-3112 3132 0
-356 -3112 3113 0
-3113 3133 0
-357 -3113 3114 0
-3114 3134 0
-358 -3114 3115 0
-3115 3135 0
-359 -3115 3116 0
-3116 3136 0
-360 -3116 3117 0
-3117 3137 0
-361 -3117 3118 0
-3118 3138 0
-362 -3118 3119 0
-3119 3139 0
-363 -3119 3120 0
-3120 3140 0
-364 -3120 3121 0
-3121 3141 0
-365 -3121 3122 0
-3122 3142 0
-366 -3122 3123 0
-3123 3143 0
-367 -3123 3124 0
-3124 3144 0
-368 -3124 3125 0
-3125 3145 0
-369 -3125 3126 0
-3126 3146 0
-370 -3126 3127 0
-3127 3147 0
-371 -3127 3128 0
-3128 3148 0
-372 -3128 0
-353 3129 0
-3129 3149 0
-354 -3129 3130 0
-3130 3150 0
-355 -3130 3131 0
-3131 3151 0
-356 -3131 3132 0
-3132 3152 0
-357 -3132 3133 0
-3133 3153 0
-358 -3133 3134 0
-3134 3154 0
-359 -3134 3135 0
-3135 3155 0
-360 -3135 3136 0
-3136 3156 0
-361 -3136 3137 0
-3137 3157 0
-362 -3137 3138 0
-3138 3158 0
-363 -3138 3139 0
-3139 3159 0
-364 -3139 3140 0
-3140 3160 0
-365 -3140 3141 0
-3141 3161 0
-366 -3141 3142 0
-3142 3162 0
-367 -3142 3143 0
-3143 3163 0
-368 -3143 3144 0
-3144 3164 0
-369 -3144 3145 0
-3145 3165 0
-370 -3145 3146 0
-3146 3166 0
-371 -3146 3147 0
-3147 3167 0
-372 -3147 3148 0
-3148 3168 0
-373 -3148 0
-354 3149 0
-3149 3169 0
-355 -3149 3150 0
-3150 3170 0
-356 -3150 3151 0
-3151 3171 0
-357 -3151 3152 0
-3152 3172 0
-358 -3152 3153 0
-3153 3173 0
-359 -3153 3154 0
-3154 3174 0
-360 -3154 3155 0
-3155 3175 0
-361 -3155 3156 0
-3156 3176 0
-362 -3156 3157 0
-3157 3177 0
-363 -3157 3158 0
-3158 3178 0
-364 -3158 3159 0
-3159 3179 0
-365 -3159 3160 0
-3160 3180 0
-366 -3160 3161 0
-3161 3181 0
-367 -3161 3162 0
-3162 3182 0
-368 -3162 3163 0
-3163 3183 0
-369 -3163 3164 0
-3164 3184 0
-370 -3164 3165 0
-3165 3185 0
-371 -3165 3166 0
-3166 3186 0
-372 -3166 3167 0
-3167 3187 0
-373 -3167 3168 0
-3168 3188 0
-374 -3168 0
-355 3169 0
-3169 3189 0
-356 -3169 3170 0
-3170 3190 0
-357 -3170 3171 0
-3171 3191 0
-358 -3171 3172 0
-3172 3192 0
-359 -3172 3173 0
-3173 3193 0
-360 -3173 3174 0
-3174 3194 0
-361 -3174 3175 0
-3175 3195 0
-362 -3175 3176 0
-3176 3196 0
-363 -3176 3177 0
-3177 3197 0
-364 -3177 3178 0
-3178 3198 0
-365 -3178 3179 0
-3179 3199 0
-366 -3179 3180 0
-3180 3200 0
-367 -3180 3181 0
-3181 3201 0
-368 -3181 3182 0
-3182 3202 0
-369 -3182 3183 0
-3183 3203 0
-370 -3183 3184 0
-3184 3204 0
-371 -3184 3185 0
-3185 3205 0
-372 -3185 3186 0
-3186 3206 0
-373 -3186 3187 0
-3187 3207 0
-374 -3187 3188 0
-3188 3208 0
-375 -3188 0
-356 3189 0
-3189 3209 0
-357 -3189 3190 0
-3190 3210 0
-358 -3190 3191 0
-3191 3211 0
-359 -3191 3192 0
-3192 3212 0
-360 -3192 3193 0
-3193 3213 0
-361 -3193 3194 0
-3194 3214 0
-362 -3194 3195 0
-3195 3215 0
-363 -3195 3196 0
-3196 3216 0
-364 -3196 3197 0
-3197 3217 0
-365 -3197 3198 0
-3198 3218 0
-366 -3198 3199 0
-3199 3219 0
-367 -3199 3200 0
-3200 3220 0
-368 -3200 3201 0
-3201 3221 0
-369 -3201 3202 0
-3202 3222 0
-370 -3202 3203 0
-3203 3223 0
-371 -3203 3204 0
-3204 3224 0
-372 -3204 3205 0
-3205 3225 0
-373 -3205 3206 0
-3206 3226 0
-374 -3206 3207 0
-3207 3227 0
-375 -3207 3208 0
-3208 3228 0
-376 -3208 0
-357 3209 0
-3209 3229 0
-358 -3209 3210 0
-3210 3230 0
-359 -3210 3211 0
-3211 3231 0
-360 -3211 3212 0
-3212 3232 0
-361 -3212 3213 0
-3213 3233 0
-362 -3213 3214 0
-3214 3234 0
-363 -3214 3215 0
-3215 3235 0
-364 -3215 3216 0
-3216 3236 0
-365 -3216 3217 0
-3217 3237 0
-366 -3217 3218 0
-3218 3238 0
-367 -3218 3219 0
-3219 3239 0
-368 -3219 3220 0
-3220 3240 0
-369 -3220 3221 0
-3221 3241 0
-370 -3221 3222 0
-3222 3242 0
-371 -3222 3223 0
-3223 3243 0
-372 -3223 3224 0
-3224 3244 0
-373 -3224 3225 0
-3225 3245 0
-374 -3225 3226 0
-3226 3246 0
-375 -3226 3227 0
-3227 3247 0
-376 -3227 3228 0
-3228 3248 0
-377 -3228 0
-358 3229 0
-3229 3249 0
-359 -3229 3230 0
-3230 3250 0
-360 -3230 3231 0
-3231 3251 0
-361 -3231 3232 0
-3232 3252 0
-362 -3232 3233 0
-3233 3253 0
-363 -3233 3234 0
-3234 3254 0
-364 -3234 3235 0
-3235 3255 0
-365 -3235 3236 0
-3236 3256 0
-366 -3236 3237 0
-3237 3257 0
-367 -3237 3238 0
-3238 3258 0
-368 -3238 3239 0
-3239 3259 0
-369 -3239 3240 0
-3240 3260 0
-370 -3240 3241 0
-3241 3261 0
-371 -3241 3242 0
-3242 3262 0
-372 -3242 3243 0
-3243 3263 0
-373 -3243 3244 0
-3244 3264 0
-374 -3244 3245 0
-3245 3265 0
-375 -3245 3246 0
-3246 3266 0
-376 -3246 3247 0
-3247 3267 0
-377 -3247 3248 0
-3248 3268 0
-378 -3248 0
-359 3249 0
-3249 3269 0
-360 -3249 3250 0
-3250 3270 0
-361 -3250 3251 0
-3251 3271 0
-362 -3251 3252 0
-3252 3272 0
-363 -3252 3253 0
-3253 3273 0
-364 -3253 3254 0
-3254 3274 0
-365 -3254 3255 0
-3255 3275 0
-366 -3255 3256 0
-3256 3276 0
-367 -3256 3257 0
-3257 3277 0
-368 -3257 3258 0
-3258 3278 0
-369 -3258 3259 0
-3259 3279 0
-370 -3259 3260 0
-3260 3280 0
-371 -3260 3261 0
-3261 3281 0
-372 -3261 3262 0
-3262 3282 0
-373 -3262 3263 0
-3263 3283 0
-374 -3263 3264 0
-3264 3284 0
-375 -3264 3265 0
-3265 3285 0
-376 -3265 3266 0
-3266 3286 0
-377 -3266 3267 0
-3267 3287 0
-378 -3267 3268 0
-3268 3288 0
-379 -3268 0
-360 3269 0
-3269 3289 0
-361 -3269 3270 0
-3270 3290 0
-362 -3270 3271 0
-3271 3291 0
-363 -3271 3272 0
-3272 3292 0
-364 -3272 3273 0
-3273 3293 0
-365 -3273 3274 0
-3274 3294 0
-366 -3274 3275 0
-3275 3295 0
-367 -3275 3276 0
-3276 3296 0
-368 -3276 3277 0
-3277 3297 0
-369 -3277 3278 0
-3278 3298 0
-370 -3278 3279 0
-3279 3299 0
-371 -3279 3280 0
-3280 3300 0
-372 -3280 3281 0
-3281 3301 0
-373 -3281 3282 0
-3282 3302 0
-374 -3282 3283 0
-3283 3303 0
-375 -3283 3284 0
-3284 3304 0
-376 -3284 3285 0
-3285 3305 0
-377 -3285 3286 0
-3286 3306 0
-378 -3286 3287 0
-3287 3307 0
-379 -3287 3288 0
-3288 3308 0
-380 -3288 0
-361 3289 0
-3289 3309 0
-362 -3289 3290 0
-3290 3310 0
-363 -3290 3291 0
-3291 3311 0
-364 -3291 3292 0
-3292 3312 0
-365 -3292 3293 0
-3293 3313 0
-366 -3293 3294 0
-3294 3314 0
-367 -3294 3295 0
-3295 3315 0
-368 -3295 3296 0
-3296 3316 0
-369 -3296 3297 0
-3297 3317 0
-370 -3297 3298 0
-3298 3318 0
-371 -3298 3299 0
-3299 3319 0
-372 -3299 3300 0
-3300 3320 0
-373 -3300 3301 0
-3301 3321 0
-374 -3301 3302 0
-3302 3322 0
-375 -3302 3303 0
-3303 3323 0
-376 -3303 3304 0
-3304 3324 0
-377 -3304 3305 0
-3305 3325 0
-378 -3305 3306 0
-3306 3326 0
-379 -3306 3307 0
-3307 3327 0
-380 -3307 3308 0
-3308 3328 0
-381 -3308 0
-362 3309 0
-3309 3329 0
-363 -3309 3310 0
-3310 3330 0
-364 -3310 3311 0
-3311 3331 0
-365 -3311 3312 0
-3312 3332 0
-366 -3312 3313 0
-3313 3333 0
-367 -3313 3314 0
-3314 3334 0
-368 -3314 3315 0
-3315 3335 0
-369 -3315 3316 0
-3316 3336 0
-370 -3316 3317 0
-3317 3337 0
-371 -3317 3318 0
-3318 3338 0
-372 -3318 3319 0
-3319 3339 0
-373 -3319 3320 0
-3320 3340 0
-374 -3320 3321 0
-3321 3341 0
-375 -3321 3322 0
-3322 3342 0
-376 -3322 3323 0
-3323 3343 0
-377 -3323 3324 0
-3324 3344 0
-378 -3324 3325 0
-3325 3345 0
-379 -3325 3326 0
-3326 3346 0
-380 -3326 3327 0
-3327 3347 0
-381 -3327 3328 0
-3328 3348 0
-382 -3328 0
-363 3329 0
-3329 3349 0
-364 -3329 3330 0
-3330 3350 0
-365 -3330 3331 0
-3331 3351 0
-366 -3331 3332 0
-3332 3352 0
-367 -3332 3333 0
-3333 3353 0
-368 -3333 3334 0
-3334 3354 0
-369 -3334 3335 0
-3335 3355 0
-370 -3335 3336 0
-3336 3356 0
-371 -3336 3337 0
-3337 3357 0
-372 -3337 3338 0
-3338 3358 0
-373 -3338 3339 0
-3339 3359 0
-374 -3339 3340 0
-3340 3360 0
-375 -3340 3341 0
-3341 3361 0
-376 -3341 3342 0
-3342 3362 0
-377 -3342 3343 0
-3343 3363 0
-378 -3343 3344 0
-3344 3364 0
-379 -3344 3345 0
-3345 3365 0
-380 -3345 3346 0
-3346 3366 0
-381 -3346 3347 0
-3347 3367 0
-382 -3347 3348 0
-3348 3368 0
-383 -3348 0
-364 3349 0
-3349 3369 0
-365 -3349 3350 0
-3350 3370 0
-366 -3350 3351 0
-3351 3371 0
-367 -3351 3352 0
-3352 3372 0
-368 -3352 3353 0
-3353 3373 0
-369 -3353 3354 0
-3354 3374 0
-370 -3354 3355 0
-3355 3375 0
-371 -3355 3356 0
-3356 3376 0
-372 -3356 3357 0
-3357 3377 0
-373 -3357 3358 0
-3358 3378 0
-374 -3358 3359 0
-3359 3379 0
-375 -3359 3360 0
-3360 3380 0
-376 -3360 3361 0
-3361 3381 0
-377 -3361 3362 0
-3362 3382 0
-378 -3362 3363 0
-3363 3383 0
-379 -3363 3364 0
-3364 3384 0
-380 -3364 3365 0
-3365 3385 0
-381 -3365 3366 0
-3366 3386 0
-382 -3366 3367 0
-3367 3387 0
-383 -3367 3368 0
-3368 3388 0
-384 -3368 0
-365 3369 0
-3369 3389 0
-366 -3369 3370 0
-3370 3390 0
-367 -3370 3371 0
-3371 3391 0
-368 -3371 3372 0
-3372 3392 0
-369 -3372 3373 0
-3373 3393 0
-370 -3373 3374 0
-3374 3394 0
-371 -3374 3375 0
-3375 3395 0
-372 -3375 3376 0
-3376 3396 0
-373 -3376 3377 0
-3377 3397 0
-374 -3377 3378 0
-3378 3398 0
-375 -3378 3379 0
-3379 3399 0
-376 -3379 3380 0
-3380 3400 0
-377 -3380 3381 0
-3381 3401 0
-378 -3381 3382 0
-3382 3402 0
-379 -3382 3383 0
-3383 3403 0
-380 -3383 3384 0
-3384 3404 0
-381 -3384 3385 0
-3385 3405 0
-382 -3385 3386 0
-3386 3406 0
-383 -3386 3387 0
-3387 3407 0
-384 -3387 3388 0
-3388 3408 0
-385 -3388 0
-366 3389 0
-3389 3409 0
-367 -3389 3390 0
-3390 3410 0
-368 -3390 3391 0
-3391 3411 0
-369 -3391 3392 0
-3392 3412 0
-370 -3392 3393 0
-3393 3413 0
-371 -3393 3394 0
-3394 3414 0
-372 -3394 3395 0
-3395 3415 0
-373 -3395 3396 0
-3396 3416 0
-374 -3396 3397 0
-3397 3417 0
-375 -3397 3398 0
-3398 3418 0
-376 -3398 3399 0
-3399 3419 0
-377 -3399 3400 0
-3400 3420 0
-378 -3400 3401 0
-3401 3421 0
-379 -3401 3402 0
-3402 3422 0
-380 -3402 3403 0
-3403 3423 0
-381 -3403 3404 0
-3404 3424 0
-382 -3404 3405 0
-3405 3425 0
-383 -3405 3406 0
-3406 3426 0
-384 -3406 3407 0
-3407 3427 0
-385 -3407 3408 0
-3408 3428 0
-386 -3408 0
-367 3409 0
-3409 3429 0
-368 -3409 3410 0
-3410 3430 0
-369 -3410 3411 0
-3411 3431 0
-370 -3411 3412 0
-3412 3432 0
-371 -3412 3413 0
-3413 3433 0
-372 -3413 3414 0
-3414 3434 0
-373 -3414 3415 0
-3415 3435 0
-374 -3415 3416 0
-3416 3436 0
-375 -3416 3417 0
-3417 3437 0
-376 -3417 3418 0
-3418 3438 0
-377 -3418 3419 0
-3419 3439 0
-378 -3419 3420 0
-3420 3440 0
-379 -3420 3421 0
-3421 3441 0
-380 -3421 3422 0
-3422 3442 0
-381 -3422 3423 0
-3423 3443 0
-382 -3423 3424 0
-3424 3444 0
-383 -3424 3425 0
-3425 3445 0
-384 -3425 3426 0
-3426 3446 0
-385 -3426 3427 0
-3427 3447 0
-386 -3427 3428 0
-3428 3448 0
-387 -3428 0
-368 3429 0
-3429 3449 0
-369 -3429 3430 0
-3430 3450 0
-370 -3430 3431 0
-3431 3451 0
-371 -3431 3432 0
-3432 3452 0
-372 -3432 3433 0
-3433 3453 0
-373 -3433 3434 0
-3434 3454 0
-374 -3434 3435 0
-3435 3455 0
-375 -3435 3436 0
-3436 3456 0
-376 -3436 3437 0
-3437 3457 0
-377 -3437 3438 0
-3438 3458 0
-378 -3438 3439 0
-3439 3459 0
-379 -3439 3440 0
-3440 3460 0
-380 -3440 3441 0
-3441 3461 0
-381 -3441 3442 0
-3442 3462 0
-382 -3442 3443 0
-3443 3463 0
-383 -3443 3444 0
-3444 3464 0
-384 -3444 3445 0
-3445 3465 0
-385 -3445 3446 0
-3446 3466 0
-386 -3446 3447 0
-3447 3467 0
-387 -3447 3448 0
-3448 3468 0
-388 -3448 0
-369 3449 0
-3449 3469 0
-370 -3449 3450 0
-3450 3470 0
-371 -3450 3451 0
-3451 3471 0
-372 -3451 3452 0
-3452 3472 0
-373 -3452 3453 0
-3453 3473 0
-374 -3453 3454 0
-3454 3474 0
-375 -3454 3455 0
-3455 3475 0
-376 -3455 3456 0
-3456 3476 0
-377 -3456 3457 0
-3457 3477 0
-378 -3457 3458 0
-3458 3478 0
-379 -3458 3459 0
-3459 3479 0
-380 -3459 3460 0
-3460 3480 0
-381 -3460 3461 0
-3461 3481 0
-382 -3461 3462 0
-3462 3482 0
-383 -3462 3463 0
-3463 3483 0
-384 -3463 3464 0
-3464 3484 0
-385 -3464 3465 0
-3465 3485 0
-386 -3465 3466 0
-3466 3486 0
-387 -3466 3467 0
-3467 3487 0
-388 -3467 3468 0
-3468 3488 0
-389 -3468 0
-370 3469 0
-3469 3489 0
-371 -3469 3470 0
-3470 3490 0
-372 -3470 3471 0
-3471 3491 0
-373 -3471 3472 0
-3472 3492 0
-374 -3472 3473 0
-3473 3493 0
-375 -3473 3474 0
-3474 3494 0
-376 -3474 3475 0
-3475 3495 0
-377 -3475 3476 0
-3476 3496 0
-378 -3476 3477 0
-3477 3497 0
-379 -3477 3478 0
-3478 3498 0
-380 -3478 3479 0
-3479 3499 0
-381 -3479 3480 0
-3480 3500 0
-382 -3480 3481 0
-3481 3501 0
-383 -3481 3482 0
-3482 3502 0
-384 -3482 3483 0
-3483 3503 0
-385 -3483 3484 0
-3484 3504 0
-386 -3484 3485 0
-3485 3505 0
-387 -3485 3486 0
-3486 3506 0
-388 -3486 3487 0
-3487 3507 0
-389 -3487 3488 0
-3488 3508 0
-390 -3488 0
-371 3489 0
-3489 3509 0
-372 -3489 3490 0
-3490 3510 0
-373 -3490 3491 0
-3491 3511 0
-374 -3491 3492 0
-3492 3512 0
-375 -3492 3493 0
-3493 3513 0
-376 -3493 3494 0
-3494 3514 0
-377 -3494 3495 0
-3495 3515 0
-378 -3495 3496 0
-3496 3516 0
-379 -3496 3497 0
-3497 3517 0
-380 -3497 3498 0
-3498 3518 0
-381 -3498 3499 0
-3499 3519 0
-382 -3499 3500 0
-3500 3520 0
-383 -3500 3501 0
-3501 3521 0
-384 -3501 3502 0
-3502 3522 0
-385 -3502 3503 0
-3503 3523 0
-386 -3503 3504 0
-3504 3524 0
-387 -3504 3505 0
-3505 3525 0
-388 -3505 3506 0
-3506 3526 0
-389 -3506 3507 0
-3507 3527 0
-390 -3507 3508 0
-3508 3528 0
-391 -3508 0
-372 3509 0
-3509 3529 0
-373 -3509 3510 0
-3510 3530 0
-374 -3510 3511 0
-3511 3531 0
-375 -3511 3512 0
-3512 3532 0
-376 -3512 3513 0
-3513 3533 0
-377 -3513 3514 0
-3514 3534 0
-378 -3514 3515 0
-3515 3535 0
-379 -3515 3516 0
-3516 3536 0
-380 -3516 3517 0
-3517 3537 0
-381 -3517 3518 0
-3518 3538 0
-382 -3518 3519 0
-3519 3539 0
-383 -3519 3520 0
-3520 3540 0
-384 -3520 3521 0
-3521 3541 0
-385 -3521 3522 0
-3522 3542 0
-386 -3522 3523 0
-3523 3543 0
-387 -3523 3524 0
-3524 3544 0
-388 -3524 3525 0
-3525 3545 0
-389 -3525 3526 0
-3526 3546 0
-390 -3526 3527 0
-3527 3547 0
-391 -3527 3528 0
-3528 3548 0
-392 -3528 0
-373 3529 0
-3529 3549 0
-374 -3529 3530 0
-3530 3550 0
-375 -3530 3531 0
-3531 3551 0
-376 -3531 3532 0
-3532 3552 0
-377 -3532 3533 0
-3533 3553 0
-378 -3533 3534 0
-3534 3554 0
-379 -3534 3535 0
-3535 3555 0
-380 -3535 3536 0
-3536 3556 0
-381 -3536 3537 0
-3537 3557 0
-382 -3537 3538 0
-3538 3558 0
-383 -3538 3539 0
-3539 3559 0
-384 -3539 3540 0
-3540 3560 0
-385 -3540 3541 0
-3541 3561 0
-386 -3541 3542 0
-3542 3562 0
-387 -3542 3543 0
-3543 3563 0
-388 -3543 3544 0
-3544 3564 0
-389 -3544 3545 0
-3545 3565 0
-390 -3545 3546 0
-3546 3566 0
-391 -3546 3547 0
-3547 3567 0
-392 -3547 3548 0
-3548 3568 0
-393 -3548 0
-374 3549 0
-3549 3569 0
-375 -3549 3550 0
-3550 3570 0
-376 -3550 3551 0
-3551 3571 0
-377 -3551 3552 0
-3552 3572 0
-378 -3552 3553 0
-3553 3573 0
-379 -3553 3554 0
-3554 3574 0
-380 -3554 3555 0
-3555 3575 0
-381 -3555 3556 0
-3556 3576 0
-382 -3556 3557 0
-3557 3577 0
-383 -3557 3558 0
-3558 3578 0
-384 -3558 3559 0
-3559 3579 0
-385 -3559 3560 0
-3560 3580 0
-386 -3560 3561 0
-3561 3581 0
-387 -3561 3562 0
-3562 3582 0
-388 -3562 3563 0
-3563 3583 0
-389 -3563 3564 0
-3564 3584 0
-390 -3564 3565 0
-3565 3585 0
-391 -3565 3566 0
-3566 3586 0
-392 -3566 3567 0
-3567 3587 0
-393 -3567 3568 0
-3568 3588 0
-394 -3568 0
-375 3569 0
-3569 3589 0
-376 -3569 3570 0
-3570 3590 0
-377 -3570 3571 0
-3571 3591 0
-378 -3571 3572 0
-3572 3592 0
-379 -3572 3573 0
-3573 3593 0
-380 -3573 3574 0
-3574 3594 0
-381 -3574 3575 0
-3575 3595 0
-382 -3575 3576 0
-3576 3596 0
-383 -3576 3577 0
-3577 3597 0
-384 -3577 3578 0
-3578 3598 0
-385 -3578 3579 0
-3579 3599 0
-386 -3579 3580 0
-3580 3600 0
-387 -3580 3581 0
-3581 3601 0
-388 -3581 3582 0
-3582 3602 0
-389 -3582 3583 0
-3583 3603 0
-390 -3583 3584 0
-3584 3604 0
-391 -3584 3585 0
-3585 3605 0
-392 -3585 3586 0
-3586 3606 0
-393 -3586 3587 0
-3587 3607 0
-394 -3587 3588 0
-3588 3608 0
-395 -3588 0
-376 3589 0
-3589 3609 0
-377 -3589 3590 0
-3590 3610 0
-378 -3590 3591 0
-3591 3611 0
-379 -3591 3592 0
-3592 3612 0
-380 -3592 3593 0
-3593 3613 0
-381 -3593 3594 0
-3594 3614 0
-382 -3594 3595 0
-3595 3615 0
-383 -3595 3596 0
-3596 3616 0
-384 -3596 3597 0
-3597 3617 0
-385 -3597 3598 0
-3598 3618 0
-386 -3598 3599 0
-3599 3619 0
-387 -3599 3600 0
-3600 3620 0
-388 -3600 3601 0
-3601 3621 0
-389 -3601 3602 0
-3602 3622 0
-390 -3602 3603 0
-3603 3623 0
-391 -3603 3604 0
-3604 3624 0
-392 -3604 3605 0
-3605 3625 0
-393 -3605 3606 0
-3606 3626 0
-394 -3606 3607 0
-3607 3627 0
-395 -3607 3608 0
-3608 3628 0
-396 -3608 0
-377 3609 0
-3609 3629 0
-378 -3609 3610 0
-3610 3630 0
-379 -3610 3611 0
-3611 3631 0
-380 -3611 3612 0
-3612 3632 0
-381 -3612 3613 0
-3613 3633 0
-382 -3613 3614 0
-3614 3634 0
-383 -3614 3615 0
-3615 3635 0
-384 -3615 3616 0
-3616 3636 0
-385 -3616 3617 0
-3617 3637 0
-386 -3617 3618 0
-3618 3638 0
-387 -3618 3619 0
-3619 3639 0
-388 -3619 3620 0
-3620 3640 0
-389 -3620 3621 0
-3621 3641 0
-390 -3621 3622 0
-3622 3642 0
-391 -3622 3623 0
-3623 3643 0
-392 -3623 3624 0
-3624 3644 0
-393 -3624 3625 0
-3625 3645 0
-394 -3625 3626 0
-3626 3646 0
-395 -3626 3627 0
-3627 3647 0
-396 -3627 3628 0
-3628 3648 0
-397 -3628 0
-378 3629 0
-3629 3649 0
-379 -3629 3630 0
-3630 3650 0
-380 -3630 3631 0
-3631 3651 0
-381 -3631 3632 0
-3632 3652 0
-382 -3632 3633 0
-3633 3653 0
-383 -3633 3634 0
-3634 3654 0
-384 -3634 3635 0
-3635 3655 0
-385 -3635 3636 0
-3636 3656 0
-386 -3636 3637 0
-3637 3657 0
-387 -3637 3638 0
-3638 3658 0
-388 -3638 3639 0
-3639 3659 0
-389 -3639 3640 0
-3640 3660 0
-390 -3640 3641 0
-3641 3661 0
-391 -3641 3642 0
-3642 3662 0
-392 -3642 3643 0
-3643 3663 0
-393 -3643 3644 0
-3644 3664 0
-394 -3644 3645 0
-3645 3665 0
-395 -3645 3646 0
-3646 3666 0
-396 -3646 3647 0
-3647 3667 0
-397 -3647 3648 0
-3648 3668 0
-398 -3648 0
-379 3649 0
-3649 3669 0
-380 -3649 3650 0
-3650 3670 0
-381 -3650 3651 0
-3651 3671 0
-382 -3651 3652 0
-3652 3672 0
-383 -3652 3653 0
-3653 3673 0
-384 -3653 3654 0
-3654 3674 0
-385 -3654 3655 0
-3655 3675 0
-386 -3655 3656 0
-3656 3676 0
-387 -3656 3657 0
-3657 3677 0
-388 -3657 3658 0
-3658 3678 0
-389 -3658 3659 0
-3659 3679 0
-390 -3659 3660 0
-3660 3680 0
-391 -3660 3661 0
-3661 3681 0
-392 -3661 3662 0
-3662 3682 0
-393 -3662 3663 0
-3663 3683 0
-394 -3663 3664 0
-3664 3684 0
-395 -3664 3665 0
-3665 3685 0
-396 -3665 3666 0
-3666 3686 0
-397 -3666 3667 0
-3667 3687 0
-398 -3667 3668 0
-3668 3688 0
-399 -3668 0
-380 3669 0
-3669 3689 0
-381 -3669 3670 0
-3670 3690 0
-382 -3670 3671 0
-3671 3691 0
-383 -3671 3672 0
-3672 3692 0
-384 -3672 3673 0
-3673 3693 0
-385 -3673 3674 0
-3674 3694 0
-386 -3674 3675 0
-3675 3695 0
-387 -3675 3676 0
-3676 3696 0
-388 -3676 3677 0
-3677 3697 0
-389 -3677 3678 0
-3678 3698 0
-390 -3678 3679 0
-3679 3699 0
-391 -3679 3680 0
-3680 3700 0
-392 -3680 3681 0
-3681 3701 0
-393 -3681 3682 0
-3682 3702 0
-394 -3682 3683 0
-3683 3703 0
-395 -3683 3684 0
-3684 3704 0
-396 -3684 3685 0
-3685 3705 0
-397 -3685 3686 0
-3686 3706 0
-398 -3686 3687 0
-3687 3707 0
-399 -3687 3688 0
-3688 3708 0
-400 -3688 0
-381 3689 0
-3689 3709 0
-382 -3689 3690 0
-3690 3710 0
-383 -3690 3691 0
-3691 3711 0
-384 -3691 3692 0
-3692 3712 0
-385 -3692 3693 0
-3693 3713 0
-386 -3693 3694 0
-3694 3714 0
-387 -3694 3695 0
-3695 3715 0
-388 -3695 3696 0
-3696 3716 0
-389 -3696 3697 0
-3697 3717 0
-390 -3697 3698 0
-3698 3718 0
-391 -3698 3699 0
-3699 3719 0
-392 -3699 3700 0
-3700 3720 0
-393 -3700 3701 0
-3701 3721 0
-394 -3701 3702 0
-3702 3722 0
-395 -3702 3703 0
-3703 3723 0
-396 -3703 3704 0
-3704 3724 0
-397 -3704 3705 0
-3705 3725 0
-398 -3705 3706 0
-3706 3726 0
-399 -3706 3707 0
-3707 3727 0
-400 -3707 3708 0
-3708 3728 0
-401 -3708 0
-382 3709 0
-3709 3729 0
-383 -3709 3710 0
-3710 3730 0
-384 -3710 3711 0
-3711 3731 0
-385 -3711 3712 0
-3712 3732 0
-386 -3712 3713 0
-3713 3733 0
-387 -3713 3714 0
-3714 3734 0
-388 -3714 3715 0
-3715 3735 0
-389 -3715 3716 0
-3716 3736 0
-390 -3716 3717 0
-3717 3737 0
-391 -3717 3718 0
-3718 3738 0
-392 -3718 3719 0
-3719 3739 0
-393 -3719 3720 0
-3720 3740 0
-394 -3720 3721 0
-3721 3741 0
-395 -3721 3722 0
-3722 3742 0
-396 -3722 3723 0
-3723 3743 0
-397 -3723 3724 0
-3724 3744 0
-398 -3724 3725 0
-3725 3745 0
-399 -3725 3726 0
-3726 3746 0
-400 -3726 3727 0
-3727 3747 0
-401 -3727 3728 0
-3728 3748 0
-402 -3728 0
-383 3729 0
-3729 3749 0
-384 -3729 3730 0
-3730 3750 0
-385 -3730 3731 0
-3731 3751 0
-386 -3731 3732 0
-3732 3752 0
-387 -3732 3733 0
-3733 3753 0
-388 -3733 3734 0
-3734 3754 0
-389 -3734 3735 0
-3735 3755 0
-390 -3735 3736 0
-3736 3756 0
-391 -3736 3737 0
-3737 3757 0
-392 -3737 3738 0
-3738 3758 0
-393 -3738 3739 0
-3739 3759 0
-394 -3739 3740 0
-3740 3760 0
-395 -3740 3741 0
-3741 3761 0
-396 -3741 3742 0
-3742 3762 0
-397 -3742 3743 0
-3743 3763 0
-398 -3743 3744 0
-3744 3764 0
-399 -3744 3745 0
-3745 3765 0
-400 -3745 3746 0
-3746 3766 0
-401 -3746 3747 0
-3747 3767 0
-402 -3747 3748 0
-3748 3768 0
-403 -3748 0
-384 3749 0
-3749 3769 0
-385 -3749 3750 0
-3750 3770 0
-386 -3750 3751 0
-3751 3771 0
-387 -3751 3752 0
-3752 3772 0
-388 -3752 3753 0
-3753 3773 0
-389 -3753 3754 0
-3754 3774 0
-390 -3754 3755 0
-3755 3775 0
-391 -3755 3756 0
-3756 3776 0
-392 -3756 3757 0
-3757 3777 0
-393 -3757 3758 0
-3758 3778 0
-394 -3758 3759 0
-3759 3779 0
-395 -3759 3760 0
-3760 3780 0
-396 -3760 3761 0
-3761 3781 0
-397 -3761 3762 0
-3762 3782 0
-398 -3762 3763 0
-3763 3783 0
-399 -3763 3764 0
-3764 3784 0
-400 -3764 3765 0
-3765 3785 0
-401 -3765 3766 0
-3766 3786 0
-402 -3766 3767 0
-3767 3787 0
-403 -3767 3768 0
-3768 3788 0
-404 -3768 0
-385 3769 0
-3769 3789 0
-386 -3769 3770 0
-3770 3790 0
-387 -3770 3771 0
-3771 3791 0
-388 -3771 3772 0
-3772 3792 0
-389 -3772 3773 0
-3773 3793 0
-390 -3773 3774 0
-3774 3794 0
-391 -3774 3775 0
-3775 3795 0
-392 -3775 3776 0
-3776 3796 0
-393 -3776 3777 0
-3777 3797 0
-394 -3777 3778 0
-3778 3798 0
-395 -3778 3779 0
-3779 3799 0
-396 -3779 3780 0
-3780 3800 0
-397 -3780 3781 0
-3781 3801 0
-398 -3781 3782 0
-3782 3802 0
-399 -3782 3783 0
-3783 3803 0
-400 -3783 3784 0
-3784 3804 0
-401 -3784 3785 0
-3785 3805 0
-402 -3785 3786 0
-3786 3806 0
-403 -3786 3787 0
-3787 3807 0
-404 -3787 3788 0
-3788 3808 0
-405 -3788 0
-386 3789 0
-3789 3809 0
-387 -3789 3790 0
-3790 3810 0
-388 -3790 3791 0
-3791 3811 0
-389 -3791 3792 0
-3792 3812 0
-390 -3792 3793 0
-3793 3813 0
-391 -3793 3794 0
-3794 3814 0
-392 -3794 3795 0
-3795 3815 0
-393 -3795 3796 0
-3796 3816 0
-394 -3796 3797 0
-3797 3817 0
-395 -3797 3798 0
-3798 3818 0
-396 -3798 3799 0
-3799 3819 0
-397 -3799 3800 0
-3800 3820 0
-398 -3800 3801 0
-3801 3821 0
-399 -3801 3802 0
-3802 3822 0
-400 -3802 3803 0
-3803 3823 0
-401 -3803 3804 0
-3804 3824 0
-402 -3804 3805 0
-3805 3825 0
-403 -3805 3806 0
-3806 3826 0
-404 -3806 3807 0
-3807 3827 0
-405 -3807 3808 0
-3808 3828 0
-406 -3808 0
-387 3809 0
-3809 3829 0
-388 -3809 3810 0
-3810 3830 0
-389 -3810 3811 0
-3811 3831 0
-390 -3811 3812 0
-3812 3832 0
-391 -3812 3813 0
-3813 3833 0
-392 -3813 3814 0
-3814 3834 0
-393 -3814 3815 0
-3815 3835 0
-394 -3815 3816 0
-3816 3836 0
-395 -3816 3817 0
-3817 3837 0
-396 -3817 3818 0
-3818 3838 0
-397 -3818 3819 0
-3819 3839 0
-398 -3819 3820 0
-3820 3840 0
-399 -3820 3821 0
-3821 3841 0
-400 -3821 3822 0
-3822 3842 0
-401 -3822 3823 0
-3823 3843 0
-402 -3823 3824 0
-3824 3844 0
-403 -3824 3825 0
-3825 3845 0
-404 -3825 3826 0
-3826 3846 0
-405 -3826 3827 0
-3827 3847 0
-406 -3827 3828 0
-3828 3848 0
-407 -3828 0
-388 3829 0
-3829 3849 0
-389 -3829 3830 0
-3830 3850 0
-390 -3830 3831 0
-3831 3851 0
-391 -3831 3832 0
-3832 3852 0
-392 -3832 3833 0
-3833 3853 0
-393 -3833 3834 0
-3834 3854 0
-394 -3834 3835 0
-3835 3855 0
-395 -3835 3836 0
-3836 3856 0
-396 -3836 3837 0
-3837 3857 0
-397 -3837 3838 0
-3838 3858 0
-398 -3838 3839 0
-3839 3859 0
-399 -3839 3840 0
-3840 3860 0
-400 -3840 3841 0
-3841 3861 0
-401 -3841 3842 0
-3842 3862 0
-402 -3842 3843 0
-3843 3863 0
-403 -3843 3844 0
-3844 3864 0
-404 -3844 3845 0
-3845 3865 0
-405 -3845 3846 0
-3846 3866 0
-406 -3846 3847 0
-3847 3867 0
-407 -3847 3848 0
-3848 3868 0
-408 -3848 0
-389 3849 0
-3849 3869 0
-390 -3849 3850 0
-3850 3870 0
-391 -3850 3851 0
-3851 3871 0
-392 -3851 3852 0
-3852 3872 0
-393 -3852 3853 0
-3853 3873 0
-394 -3853 3854 0
-3854 3874 0
-395 -3854 3855 0
-3855 3875 0
-396 -3855 3856 0
-3856 3876 0
-397 -3856 3857 0
-3857 3877 0
-398 -3857 3858 0
-3858 3878 0
-399 -3858 3859 0
-3859 3879 0
-400 -3859 3860 0
-3860 3880 0
-401 -3860 3861 0
-3861 3881 0
-402 -3861 3862 0
-3862 3882 0
-403 -3862 3863 0
-3863 3883 0
-404 -3863 3864 0
-3864 3884 0
-405 -3864 3865 0
-3865 3885 0
-406 -3865 3866 0
-3866 3886 0
-407 -3866 3867 0
-3867 3887 0
-408 -3867 3868 0
-3868 3888 0
-409 -3868 0
-390 3869 0
-3869 3889 0
-391 -3869 3870 0
-3870 3890 0
-392 -3870 3871 0
-3871 3891 0
-393 -3871 3872 0
-3872 3892 0
-394 -3872 3873 0
-3873 3893 0
-395 -3873 3874 0
-3874 3894 0
-396 -3874 3875 0
-3875 3895 0
-397 -3875 3876 0
-3876 3896 0
-398 -3876 3877 0
-3877 3897 0
-399 -3877 3878 0
-3878 3898 0
-400 -3878 3879 0
-3879 3899 0
-401 -3879 3880 0
-3880 3900 0
-402 -3880 3881 0
-3881 3901 0
-403 -3881 3882 0
-3882 3902 0
-404 -3882 3883 0
-3883 3903 0
-405 -3883 3884 0
-3884 3904 0
-406 -3884 3885 0
-3885 3905 0
-407 -3885 3886 0
-3886 3906 0
-408 -3886 3887 0
-3887 3907 0
-409 -3887 3888 0
-3888 3908 0
-410 -3888 0
-391 3889 0
-3889 3909 0
-392 -3889 3890 0
-3890 3910 0
-393 -3890 3891 0
-3891 3911 0
-394 -3891 3892 0
-3892 3912 0
-395 -3892 3893 0
-3893 3913 0
-396 -3893 3894 0
-3894 3914 0
-397 -3894 3895 0
-3895 3915 0
-398 -3895 3896 0
-3896 3916 0
-399 -3896 3897 0
-3897 3917 0
-400 -3897 3898 0
-3898 3918 0
-401 -3898 3899 0
-3899 3919 0
-402 -3899 3900 0
-3900 3920 0
-403 -3900 3901 0
-3901 3921 0
-404 -3901 3902 0
-3902 3922 0
-405 -3902 3903 0
-3903 3923 0
-406 -3903 3904 0
-3904 3924 0
-407 -3904 3905 0
-3905 3925 0
-408 -3905 3906 0
-3906 3926 0
-409 -3906 3907 0
-3907 3927 0
-410 -3907 3908 0
-3908 3928 0
-411 -3908 0
-392 3909 0
-3909 3929 0
-393 -3909 3910 0
-3910 3930 0
-394 -3910 3911 0
-3911 3931 0
-395 -3911 3912 0
-3912 3932 0
-396 -3912 3913 0
-3913 3933 0
-397 -3913 3914 0
-3914 3934 0
-398 -3914 3915 0
-3915 3935 0
-399 -3915 3916 0
-3916 3936 0
-400 -3916 3917 0
-3917 3937 0
-401 -3917 3918 0
-3918 3938 0
-402 -3918 3919 0
-3919 3939 0
-403 -3919 3920 0
-3920 3940 0
-404 -3920 3921 0
-3921 3941 0
-405 -3921 3922 0
-3922 3942 0
-406 -3922 3923 0
-3923 3943 0
-407 -3923 3924 0
-3924 3944 0
-408 -3924 3925 0
-3925 3945 0
-409 -3925 3926 0
-3926 3946 0
-410 -3926 3927 0
-3927 3947 0
-411 -3927 3928 0
-3928 3948 0
-412 -3928 0
-393 3929 0
-3929 3949 0
-394 -3929 3930 0
-3930 3950 0
-395 -3930 3931 0
-3931 3951 0
-396 -3931 3932 0
-3932 3952 0
-397 -3932 3933 0
-3933 3953 0
-398 -3933 3934 0
-3934 3954 0
-399 -3934 3935 0
-3935 3955 0
-400 -3935 3936 0
-3936 3956 0
-401 -3936 3937 0
-3937 3957 0
-402 -3937 3938 0
-3938 3958 0
-403 -3938 3939 0
-3939 3959 0
-404 -3939 3940 0
-3940 3960 0
-405 -3940 3941 0
-3941 3961 0
-406 -3941 3942 0
-3942 3962 0
-407 -3942 3943 0
-3943 3963 0
-408 -3943 3944 0
-3944 3964 0
-409 -3944 3945 0
-3945 3965 0
-410 -3945 3946 0
-3946 3966 0
-411 -3946 3947 0
-3947 3967 0
-412 -3947 3948 0
-3948 3968 0
-413 -3948 0
-394 3949 0
-3949 3969 0
-395 -3949 3950 0
-3950 3970 0
-396 -3950 3951 0
-3951 3971 0
-397 -3951 3952 0
-3952 3972 0
-398 -3952 3953 0
-3953 3973 0
-399 -3953 3954 0
-3954 3974 0
-400 -3954 3955 0
-3955 3975 0
-401 -3955 3956 0
-3956 3976 0
-402 -3956 3957 0
-3957 3977 0
-403 -3957 3958 0
-3958 3978 0
-404 -3958 3959 0
-3959 3979 0
-405 -3959 3960 0
-3960 3980 0
-406 -3960 3961 0
-3961 3981 0
-407 -3961 3962 0
-3962 3982 0
-408 -3962 3963 0
-3963 3983 0
-409 -3963 3964 0
-3964 3984 0
-410 -3964 3965 0
-3965 3985 0
-411 -3965 3966 0
-3966 3986 0
-412 -3966 3967 0
-3967 3987 0
-413 -3967 3968 0
-3968 3988 0
-414 -3968 0
-395 3969 0
-3969 3989 0
-396 -3969 3970 0
-3970 3990 0
-397 -3970 3971 0
-3971 3991 0
-398 -3971 3972 0
-3972 3992 0
-399 -3972 3973 0
-3973 3993 0
-400 -3973 3974 0
-3974 3994 0
-401 -3974 3975 0
-3975 3995 0
-402 -3975 3976 0
-3976 3996 0
-403 -3976 3977 0
-3977 3997 0
-404 -3977 3978 0
-3978 3998 0
-405 -3978 3979 0
-3979 3999 0
-406 -3979 3980 0
-3980 4000 0
-407 -3980 3981 0
-3981 4001 0
-408 -3981 3982 0
-3982 4002 0
-409 -3982 3983 0
-3983 4003 0
-410 -3983 3984 0
-3984 4004 0
-411 -3984 3985 0
-3985 4005 0
-412 -3985 3986 0
-3986 4006 0
-413 -3986 3987 0
-3987 4007 0
-414 -3987 3988 0
-3988 4008 0
-415 -3988 0
-396 3989 0
-3989 4009 0
-397 -3989 3990 0
-3990 4010 0
-398 -3990 3991 0
-3991 4011 0
-399 -3991 3992 0
-3992 4012 0
-400 -3992 3993 0
-3993 4013 0
-401 -3993 3994 0
-3994 4014 0
-402 -3994 3995 0
-3995 4015 0
-403 -3995 3996 0
-3996 4016 0
-404 -3996 3997 0
-3997 4017 0
-405 -3997 3998 0
-3998 4018 0
-406 -3998 3999 0
-3999 4019 0
-407 -3999 4000 0
-4000 4020 0
-408 -4000 4001 0
-4001 4021 0
-409 -4001 4002 0
-4002 4022 0
-410 -4002 4003 0
-4003 4023 0
-411 -4003 4004 0
-4004 4024 0
-412 -4004 4005 0
-4005 4025 0
-413 -4005 4006 0
-4006 4026 0
-414 -4006 4007 0
-4007 4027 0
-415 -4007 4008 0
-4008 4028 0
-416 -4008 0
-397 4009 0
-4009 4029 0
-398 -4009 4010 0
-4010 4030 0
-399 -4010 4011 0
-4011 4031 0
-400 -4011 4012 0
-4012 4032 0
-401 -4012 4013 0
-4013 4033 0
-402 -4013 4014 0
-4014 4034 0
-403 -4014 4015 0
-4015 4035 0
-404 -4015 4016 0
-4016 4036 0
-405 -4016 4017 0
-4017 4037 0
-406 -4017 4018 0
-4018 4038 0
-407 -4018 4019 0
-4019 4039 0
-408 -4019 4020 0
-4020 4040 0
-409 -4020 4021 0
-4021 4041 0
-410 -4021 4022 0
-4022 4042 0
-411 -4022 4023 0
-4023 4043 0
-412 -4023 4024 0
-4024 4044 0
-413 -4024 4025 0
-4025 4045 0
-414 -4025 4026 0
-4026 4046 0
-415 -4026 4027 0
-4027 4047 0
-416 -4027 4028 0
-4028 4048 0
-417 -4028 0
-398 4029 0
-4029 4049 0
-399 -4029 4030 0
-4030 4050 0
-400 -4030 4031 0
-4031 4051 0
-401 -4031 4032 0
-4032 4052 0
-402 -4032 4033 0
-4033 4053 0
-403 -4033 4034 0
-4034 4054 0
-404 -4034 4035 0
-4035 4055 0
-405 -4035 4036 0
-4036 4056 0
-406 -4036 4037 0
-4037 4057 0
-407 -4037 4038 0
-4038 4058 0
-408 -4038 4039 0
-4039 4059 0
-409 -4039 4040 0
-4040 4060 0
-410 -4040 4041 0
-4041 4061 0
-411 -4041 4042 0
-4042 4062 0
-412 -4042 4043 0
-4043 4063 0
-413 -4043 4044 0
-4044 4064 0
-414 -4044 4045 0
-4045 4065 0
-415 -4045 4046 0
-4046 4066 0
-416 -4046 4047 0
-4047 4067 0
-417 -4047 4048 0
-4048 4068 0
-418 -4048 0
-399 4049 0
-4049 4069 0
-400 -4049 4050 0
-4050 4070 0
-401 -4050 4051 0
-4051 4071 0
-402 -4051 4052 0
-4052 4072 0
-403 -4052 4053 0
-4053 4073 0
-404 -4053 4054 0
-4054 4074 0
-405 -4054 4055 0
-4055 4075 0
-406 -4055 4056 0
-4056 4076 0
-407 -4056 4057 0
-4057 4077 0
-408 -4057 4058 0
-4058 4078 0
-409 -4058 4059 0
-4059 4079 0
-410 -4059 4060 0
-4060 4080 0
-411 -4060 4061 0
-4061 4081 0
-412 -4061 4062 0
-4062 4082 0
-413 -4062 4063 0
-4063 4083 0
-414 -4063 4064 0
-4064 4084 0
-415 -4064 4065 0
-4065 4085 0
-416 -4065 4066 0
-4066 4086 0
-417 -4066 4067 0
-4067 4087 0
-418 -4067 4068 0
-4068 4088 0
-419 -4068 0
-400 4069 0
-4069 4089 0
-401 -4069 4070 0
-4070 4090 0
-402 -4070 4071 0
-4071 4091 0
-403 -4071 4072 0
-4072 4092 0
-404 -4072 4073 0
-4073 4093 0
-405 -4073 4074 0
-4074 4094 0
-406 -4074 4075 0
-4075 4095 0
-407 -4075 4076 0
-4076 4096 0
-408 -4076 4077 0
-4077 4097 0
-409 -4077 4078 0
-4078 4098 0
-410 -4078 4079 0
-4079 4099 0
-411 -4079 4080 0
-4080 4100 0
-412 -4080 4081 0
-4081 4101 0
-413 -4081 4082 0
-4082 4102 0
-414 -4082 4083 0
-4083 4103 0
-415 -4083 4084 0
-4084 4104 0
-416 -4084 4085 0
-4085 4105 0
-417 -4085 4086 0
-4086 4106 0
-418 -4086 4087 0
-4087 4107 0
-419 -4087 4088 0
-4088 4108 0
-420 -4088 0
-401 4089 0
-4089 4109 0
-402 -4089 4090 0
-4090 4110 0
-403 -4090 4091 0
-4091 4111 0
-404 -4091 4092 0
-4092 4112 0
-405 -4092 4093 0
-4093 4113 0
-406 -4093 4094 0
-4094 4114 0
-407 -4094 4095 0
-4095 4115 0
-408 -4095 4096 0
-4096 4116 0
-409 -4096 4097 0
-4097 4117 0
-410 -4097 4098 0
-4098 4118 0
-411 -4098 4099 0
-4099 4119 0
-412 -4099 4100 0
-4100 4120 0
-413 -4100 4101 0
-4101 4121 0
-414 -4101 4102 0
-4102 4122 0
-415 -4102 4103 0
-4103 4123 0
-416 -4103 4104 0
-4104 4124 0
-417 -4104 4105 0
-4105 4125 0
-418 -4105 4106 0
-4106 4126 0
-419 -4106 4107 0
-4107 4127 0
-420 -4107 4108 0
-4108 4128 0
-421 -4108 0
-402 4109 0
-4109 4129 0
-403 -4109 4110 0
-4110 4130 0
-404 -4110 4111 0
-4111 4131 0
-405 -4111 4112 0
-4112 4132 0
-406 -4112 4113 0
-4113 4133 0
-407 -4113 4114 0
-4114 4134 0
-408 -4114 4115 0
-4115 4135 0
-409 -4115 4116 0
-4116 4136 0
-410 -4116 4117 0
-4117 4137 0
-411 -4117 4118 0
-4118 4138 0
-412 -4118 4119 0
-4119 4139 0
-413 -4119 4120 0
-4120 4140 0
-414 -4120 4121 0
-4121 4141 0
-415 -4121 4122 0
-4122 4142 0
-416 -4122 4123 0
-4123 4143 0
-417 -4123 4124 0
-4124 4144 0
-418 -4124 4125 0
-4125 4145 0
-419 -4125 4126 0
-4126 4146 0
-420 -4126 4127 0
-4127 4147 0
-421 -4127 4128 0
-4128 4148 0
-422 -4128 0
-403 4129 0
-4129 4149 0
-404 -4129 4130 0
-4130 4150 0
-405 -4130 4131 0
-4131 4151 0
-406 -4131 4132 0
-4132 4152 0
-407 -4132 4133 0
-4133 4153 0
-408 -4133 4134 0
-4134 4154 0
-409 -4134 4135 0
-4135 4155 0
-410 -4135 4136 0
-4136 4156 0
-411 -4136 4137 0
-4137 4157 0
-412 -4137 4138 0
-4138 4158 0
-413 -4138 4139 0
-4139 4159 0
-414 -4139 4140 0
-4140 4160 0
-415 -4140 4141 0
-4141 4161 0
-416 -4141 4142 0
-4142 4162 0
-417 -4142 4143 0
-4143 4163 0
-418 -4143 4144 0
-4144 4164 0
-419 -4144 4145 0
-4145 4165 0
-420 -4145 4146 0
-4146 4166 0
-421 -4146 4147 0
-4147 4167 0
-422 -4147 4148 0
-4148 4168 0
-423 -4148 0
-404 4149 0
-4149 4169 0
-405 -4149 4150 0
-4150 4170 0
-406 -4150 4151 0
-4151 4171 0
-407 -4151 4152 0
-4152 4172 0
-408 -4152 4153 0
-4153 4173 0
-409 -4153 4154 0
-4154 4174 0
-410 -4154 4155 0
-4155 4175 0
-411 -4155 4156 0
-4156 4176 0
-412 -4156 4157 0
-4157 4177 0
-413 -4157 4158 0
-4158 4178 0
-414 -4158 4159 0
-4159 4179 0
-415 -4159 4160 0
-4160 4180 0
-416 -4160 4161 0
-4161 4181 0
-417 -4161 4162 0
-4162 4182 0
-418 -4162 4163 0
-4163 4183 0
-419 -4163 4164 0
-4164 4184 0
-420 -4164 4165 0
-4165 4185 0
-421 -4165 4166 0
-4166 4186 0
-422 -4166 4167 0
-4167 4187 0
-423 -4167 4168 0
-4168 4188 0
-424 -4168 0
-405 4169 0
-4169 4189 0
-406 -4169 4170 0
-4170 4190 0
-407 -4170 4171 0
-4171 4191 0
-408 -4171 4172 0
-4172 4192 0
-409 -4172 4173 0
-4173 4193 0
-410 -4173 4174 0
-4174 4194 0
-411 -4174 4175 0
-4175 4195 0
-412 -4175 4176 0
-4176 4196 0
-413 -4176 4177 0
-4177 4197 0
-414 -4177 4178 0
-4178 4198 0
-415 -4178 4179 0
-4179 4199 0
-416 -4179 4180 0
-4180 4200 0
-417 -4180 4181 0
-4181 4201 0
-418 -4181 4182 0
-4182 4202 0
-419 -4182 4183 0
-4183 4203 0
-420 -4183 4184 0
-4184 4204 0
-421 -4184 4185 0
-4185 4205 0
-422 -4185 4186 0
-4186 4206 0
-423 -4186 4187 0
-4187 4207 0
-424 -4187 4188 0
-4188 4208 0
-425 -4188 0
-406 4189 0
-4189 4209 0
-407 -4189 4190 0
-4190 4210 0
-408 -4190 4191 0
-4191 4211 0
-409 -4191 4192 0
-4192 4212 0
-410 -4192 4193 0
-4193 4213 0
-411 -4193 4194 0
-4194 4214 0
-412 -4194 4195 0
-4195 4215 0
-413 -4195 4196 0
-4196 4216 0
-414 -4196 4197 0
-4197 4217 0
-415 -4197 4198 0
-4198 4218 0
-416 -4198 4199 0
-4199 4219 0
-417 -4199 4200 0
-4200 4220 0
-418 -4200 4201 0
-4201 4221 0
-419 -4201 4202 0
-4202 4222 0
-420 -4202 4203 0
-4203 4223 0
-421 -4203 4204 0
-4204 4224 0
-422 -4204 4205 0
-4205 4225 0
-423 -4205 4206 0
-4206 4226 0
-424 -4206 4207 0
-4207 4227 0
-425 -4207 4208 0
-4208 4228 0
-426 -4208 0
-407 4209 0
-4209 4229 0
-408 -4209 4210 0
-4210 4230 0
-409 -4210 4211 0
-4211 4231 0
-410 -4211 4212 0
-4212 4232 0
-411 -4212 4213 0
-4213 4233 0
-412 -4213 4214 0
-4214 4234 0
-413 -4214 4215 0
-4215 4235 0
-414 -4215 4216 0
-4216 4236 0
-415 -4216 4217 0
-4217 4237 0
-416 -4217 4218 0
-4218 4238 0
-417 -4218 4219 0
-4219 4239 0
-418 -4219 4220 0
-4220 4240 0
-419 -4220 4221 0
-4221 4241 0
-420 -4221 4222 0
-4222 4242 0
-421 -4222 4223 0
-4223 4243 0
-422 -4223 4224 0
-4224 4244 0
-423 -4224 4225 0
-4225 4245 0
-424 -4225 4226 0
-4226 4246 0
-425 -4226 4227 0
-4227 4247 0
-426 -4227 4228 0
-4228 4248 0
-427 -4228 0
-408 4229 0
-4229 4249 0
-409 -4229 4230 0
-4230 4250 0
-410 -4230 4231 0
-4231 4251 0
-411 -4231 4232 0
-4232 4252 0
-412 -4232 4233 0
-4233 4253 0
-413 -4233 4234 0
-4234 4254 0
-414 -4234 4235 0
-4235 4255 0
-415 -4235 4236 0
-4236 4256 0
-416 -4236 4237 0
-4237 4257 0
-417 -4237 4238 0
-4238 4258 0
-418 -4238 4239 0
-4239 4259 0
-419 -4239 4240 0
-4240 4260 0
-420 -4240 4241 0
-4241 4261 0
-421 -4241 4242 0
-4242 4262 0
-422 -4242 4243 0
-4243 4263 0
-423 -4243 4244 0
-4244 4264 0
-424 -4244 4245 0
-4245 4265 0
-425 -4245 4246 0
-4246 4266 0
-426 -4246 4247 0
-4247 4267 0
-427 -4247 4248 0
-4248 4268 0
-428 -4248 0
-409 4249 0
-4249 4269 0
-410 -4249 4250 0
-4250 4270 0
-411 -4250 4251 0
-4251 4271 0
-412 -4251 4252 0
-4252 4272 0
-413 -4252 4253 0
-4253 4273 0
-414 -4253 4254 0
-4254 4274 0
-415 -4254 4255 0
-4255 4275 0
-416 -4255 4256 0
-4256 4276 0
-417 -4256 4257 0
-4257 4277 0
-418 -4257 4258 0
-4258 4278 0
-419 -4258 4259 0
-4259 4279 0
-420 -4259 4260 0
-4260 4280 0
-421 -4260 4261 0
-4261 4281 0
-422 -4261 4262 0
-4262 4282 0
-423 -4262 4263 0
-4263 4283 0
-424 -4263 4264 0
-4264 4284 0
-425 -4264 4265 0
-4265 4285 0
-426 -4265 4266 0
-4266 4286 0
-427 -4266 4267 0
-4267 4287 0
-428 -4267 4268 0
-4268 4288 0
-429 -4268 0
-410 4269 0
-4269 4289 0
-411 -4269 4270 0
-4270 4290 0
-412 -4270 4271 0
-4271 4291 0
-413 -4271 4272 0
-4272 4292 0
-414 -4272 4273 0
-4273 4293 0
-415 -4273 4274 0
-4274 4294 0
-416 -4274 4275 0
-4275 4295 0
-417 -4275 4276 0
-4276 4296 0
-418 -4276 4277 0
-4277 4297 0
-419 -4277 4278 0
-4278 4298 0
-420 -4278 4279 0
-4279 4299 0
-421 -4279 4280 0
-4280 4300 0
-422 -4280 4281 0
-4281 4301 0
-423 -4281 4282 0
-4282 4302 0
-424 -4282 4283 0
-4283 4303 0
-425 -4283 4284 0
-4284 4304 0
-426 -4284 4285 0
-4285 4305 0
-427 -4285 4286 0
-4286 4306 0
-428 -4286 4287 0
-4287 4307 0
-429 -4287 4288 0
-4288 4308 0
-430 -4288 0
-411 4289 0
-4289 4309 0
-412 -4289 4290 0
-4290 4310 0
-413 -4290 4291 0
-4291 4311 0
-414 -4291 4292 0
-4292 4312 0
-415 -4292 4293 0
-4293 4313 0
-416 -4293 4294 0
-4294 4314 0
-417 -4294 4295 0
-4295 4315 0
-418 -4295 4296 0
-4296 4316 0
-419 -4296 4297 0
-4297 4317 0
-420 -4297 4298 0
-4298 4318 0
-421 -4298 4299 0
-4299 4319 0
-422 -4299 4300 0
-4300 4320 0
-423 -4300 4301 0
-4301 4321 0
-424 -4301 4302 0
-4302 4322 0
-425 -4302 4303 0
-4303 4323 0
-426 -4303 4304 0
-4304 4324 0
-427 -4304 4305 0
-4305 4325 0
-428 -4305 4306 0
-4306 4326 0
-429 -4306 4307 0
-4307 4327 0
-430 -4307 4308 0
-4308 4328 0
-431 -4308 0
-412 4309 0
-4309 4329 0
-413 -4309 4310 0
-4310 4330 0
-414 -4310 4311 0
-4311 4331 0
-415 -4311 4312 0
-4312 4332 0
-416 -4312 4313 0
-4313 4333 0
-417 -4313 4314 0
-4314 4334 0
-418 -4314 4315 0
-4315 4335 0
-419 -4315 4316 0
-4316 4336 0
-420 -4316 4317 0
-4317 4337 0
-421 -4317 4318 0
-4318 4338 0
-422 -4318 4319 0
-4319 4339 0
-423 -4319 4320 0
-4320 4340 0
-424 -4320 4321 0
-4321 4341 0
-425 -4321 4322 0
-4322 4342 0
-426 -4322 4323 0
-4323 4343 0
-427 -4323 4324 0
-4324 4344 0
-428 -4324 4325 0
-4325 4345 0
-429 -4325 4326 0
-4326 4346 0
-430 -4326 4327 0
-4327 4347 0
-431 -4327 4328 0
-4328 4348 0
-432 -4328 0
-413 4329 0
-4329 4349 0
-414 -4329 4330 0
-4330 4350 0
-415 -4330 4331 0
-4331 4351 0
-416 -4331 4332 0
-4332 4352 0
-417 -4332 4333 0
-4333 4353 0
-418 -4333 4334 0
-4334 4354 0
-419 -4334 4335 0
-4335 4355 0
-420 -4335 4336 0
-4336 4356 0
-421 -4336 4337 0
-4337 4357 0
-422 -4337 4338 0
-4338 4358 0
-423 -4338 4339 0
-4339 4359 0
-424 -4339 4340 0
-4340 4360 0
-425 -4340 4341 0
-4341 4361 0
-426 -4341 4342 0
-4342 4362 0
-427 -4342 4343 0
-4343 4363 0
-428 -4343 4344 0
-4344 4364 0
-429 -4344 4345 0
-4345 4365 0
-430 -4345 4346 0
-4346 4366 0
-431 -4346 4347 0
-4347 4367 0
-432 -4347 4348 0
-4348 4368 0
-433 -4348 0
-414 4349 0
-4349 4369 0
-415 -4349 4350 0
-4350 4370 0
-416 -4350 4351 0
-4351 4371 0
-417 -4351 4352 0
-4352 4372 0
-418 -4352 4353 0
-4353 4373 0
-419 -4353 4354 0
-4354 4374 0
-420 -4354 4355 0
-4355 4375 0
-421 -4355 4356 0
-4356 4376 0
-422 -4356 4357 0
-4357 4377 0
-423 -4357 4358 0
-4358 4378 0
-424 -4358 4359 0
-4359 4379 0
-425 -4359 4360 0
-4360 4380 0
-426 -4360 4361 0
-4361 4381 0
-427 -4361 4362 0
-4362 4382 0
-428 -4362 4363 0
-4363 4383 0
-429 -4363 4364 0
-4364 4384 0
-430 -4364 4365 0
-4365 4385 0
-431 -4365 4366 0
-4366 4386 0
-432 -4366 4367 0
-4367 4387 0
-433 -4367 4368 0
-4368 4388 0
-434 -4368 0
-415 4369 0
-4369 4389 0
-416 -4369 4370 0
-4370 4390 0
-417 -4370 4371 0
-4371 4391 0
-418 -4371 4372 0
-4372 4392 0
-419 -4372 4373 0
-4373 4393 0
-420 -4373 4374 0
-4374 4394 0
-421 -4374 4375 0
-4375 4395 0
-422 -4375 4376 0
-4376 4396 0
-423 -4376 4377 0
-4377 4397 0
-424 -4377 4378 0
-4378 4398 0
-425 -4378 4379 0
-4379 4399 0
-426 -4379 4380 0
-4380 4400 0
-427 -4380 4381 0
-4381 4401 0
-428 -4381 4382 0
-4382 4402 0
-429 -4382 4383 0
-4383 4403 0
-430 -4383 4384 0
-4384 4404 0
-431 -4384 4385 0
-4385 4405 0
-432 -4385 4386 0
-4386 4406 0
-433 -4386 4387 0
-4387 4407 0
-434 -4387 4388 0
-4388 4408 0
-435 -4388 0
-416 4389 0
-4389 4409 0
-417 -4389 4390 0
-4390 4410 0
-418 -4390 4391 0
-4391 4411 0
-419 -4391 4392 0
-4392 4412 0
-420 -4392 4393 0
-4393 4413 0
-421 -4393 4394 0
-4394 4414 0
-422 -4394 4395 0
-4395 4415 0
-423 -4395 4396 0
-4396 4416 0
-424 -4396 4397 0
-4397 4417 0
-425 -4397 4398 0
-4398 4418 0
-426 -4398 4399 0
-4399 4419 0
-427 -4399 4400 0
-4400 4420 0
-428 -4400 4401 0
-4401 4421 0
-429 -4401 4402 0
-4402 4422 0
-430 -4402 4403 0
-4403 4423 0
-431 -4403 4404 0
-4404 4424 0
-432 -4404 4405 0
-4405 4425 0
-433 -4405 4406 0
-4406 4426 0
-434 -4406 4407 0
-4407 4427 0
-435 -4407 4408 0
-4408 4428 0
-436 -4408 0
-417 4409 0
-4409 4429 0
-418 -4409 4410 0
-4410 4430 0
-419 -4410 4411 0
-4411 4431 0
-420 -4411 4412 0
-4412 4432 0
-421 -4412 4413 0
-4413 4433 0
-422 -4413 4414 0
-4414 4434 0
-423 -4414 4415 0
-4415 4435 0
-424 -4415 4416 0
-4416 4436 0
-425 -4416 4417 0
-4417 4437 0
-426 -4417 4418 0
-4418 4438 0
-427 -4418 4419 0
-4419 4439 0
-428 -4419 4420 0
-4420 4440 0
-429 -4420 4421 0
-4421 4441 0
-430 -4421 4422 0
-4422 4442 0
-431 -4422 4423 0
-4423 4443 0
-432 -4423 4424 0
-4424 4444 0
-433 -4424 4425 0
-4425 4445 0
-434 -4425 4426 0
-4426 4446 0
-435 -4426 4427 0
-4427 4447 0
-436 -4427 4428 0
-4428 4448 0
-437 -4428 0
-418 4429 0
-4429 4449 0
-419 -4429 4430 0
-4430 4450 0
-420 -4430 4431 0
-4431 4451 0
-421 -4431 4432 0
-4432 4452 0
-422 -4432 4433 0
-4433 4453 0
-423 -4433 4434 0
-4434 4454 0
-424 -4434 4435 0
-4435 4455 0
-425 -4435 4436 0
-4436 4456 0
-426 -4436 4437 0
-4437 4457 0
-427 -4437 4438 0
-4438 4458 0
-428 -4438 4439 0
-4439 4459 0
-429 -4439 4440 0
-4440 4460 0
-430 -4440 4441 0
-4441 4461 0
-431 -4441 4442 0
-4442 4462 0
-432 -4442 4443 0
-4443 4463 0
-433 -4443 4444 0
-4444 4464 0
-434 -4444 4445 0
-4445 4465 0
-435 -4445 4446 0
-4446 4466 0
-436 -4446 4447 0
-4447 4467 0
-437 -4447 4448 0
-4448 4468 0
-438 -4448 0
-419 4449 0
-4449 4469 0
-420 -4449 4450 0
-4450 4470 0
-421 -4450 4451 0
-4451 4471 0
-422 -4451 4452 0
-4452 4472 0
-423 -4452 4453 0
-4453 4473 0
-424 -4453 4454 0
-4454 4474 0
-425 -4454 4455 0
-4455 4475 0
-426 -4455 4456 0
-4456 4476 0
-427 -4456 4457 0
-4457 4477 0
-428 -4457 4458 0
-4458 4478 0
-429 -4458 4459 0
-4459 4479 0
-430 -4459 4460 0
-4460 4480 0
-431 -4460 4461 0
-4461 4481 0
-432 -4461 4462 0
-4462 4482 0
-433 -4462 4463 0
-4463 4483 0
-434 -4463 4464 0
-4464 4484 0
-435 -4464 4465 0
-4465 4485 0
-436 -4465 4466 0
-4466 4486 0
-437 -4466 4467 0
-4467 4487 0
-438 -4467 4468 0
-4468 4488 0
-439 -4468 0
-420 4469 0
-4469 4489 0
-421 -4469 4470 0
-4470 4490 0
-422 -4470 4471 0
-4471 4491 0
-423 -4471 4472 0
-4472 4492 0
-424 -4472 4473 0
-4473 4493 0
-425 -4473 4474 0
-4474 4494 0
-426 -4474 4475 0
-4475 4495 0
-427 -4475 4476 0
-4476 4496 0
-428 -4476 4477 0
-4477 4497 0
-429 -4477 4478 0
-4478 4498 0
-430 -4478 4479 0
-4479 4499 0
-431 -4479 4480 0
-4480 4500 0
-432 -4480 4481 0
-4481 4501 0
-433 -4481 4482 0
-4482 4502 0
-434 -4482 4483 0
-4483 4503 0
-435 -4483 4484 0
-4484 4504 0
-436 -4484 4485 0
-4485 4505 0
-437 -4485 4486 0
-4486 4506 0
-438 -4486 4487 0
-4487 4507 0
-439 -4487 4488 0
-4488 4508 0
-440 -4488 0
-421 4489 0
-4489 4509 0
-422 -4489 4490 0
-4490 4510 0
-423 -4490 4491 0
-4491 4511 0
-424 -4491 4492 0
-4492 4512 0
-425 -4492 4493 0
-4493 4513 0
-426 -4493 4494 0
-4494 4514 0
-427 -4494 4495 0
-4495 4515 0
-428 -4495 4496 0
-4496 4516 0
-429 -4496 4497 0
-4497 4517 0
-430 -4497 4498 0
-4498 4518 0
-431 -4498 4499 0
-4499 4519 0
-432 -4499 4500 0
-4500 4520 0
-433 -4500 4501 0
-4501 4521 0
-434 -4501 4502 0
-4502 4522 0
-435 -4502 4503 0
-4503 4523 0
-436 -4503 4504 0
-4504 4524 0
-437 -4504 4505 0
-4505 4525 0
-438 -4505 4506 0
-4506 4526 0
-439 -4506 4507 0
-4507 4527 0
-440 -4507 4508 0
-4508 4528 0
-441 -4508 0
-422 4509 0
-4509 4529 0
-423 -4509 4510 0
-4510 4530 0
-424 -4510 4511 0
-4511 4531 0
-425 -4511 4512 0
-4512 4532 0
-426 -4512 4513 0
-4513 4533 0
-427 -4513 4514 0
-4514 4534 0
-428 -4514 4515 0
-4515 4535 0
-429 -4515 4516 0
-4516 4536 0
-430 -4516 4517 0
-4517 4537 0
-431 -4517 4518 0
-4518 4538 0
-432 -4518 4519 0
-4519 4539 0
-433 -4519 4520 0
-4520 4540 0
-434 -4520 4521 0
-4521 4541 0
-435 -4521 4522 0
-4522 4542 0
-436 -4522 4523 0
-4523 4543 0
-437 -4523 4524 0
-4524 4544 0
-438 -4524 4525 0
-4525 4545 0
-439 -4525 4526 0
-4526 4546 0
-440 -4526 4527 0
-4527 4547 0
-441 -4527 4528 0
-4528 4548 0
-442 -4528 0
-423 4529 0
-4529 4549 0
-424 -4529 4530 0
-4530 4550 0
-425 -4530 4531 0
-4531 4551 0
-426 -4531 4532 0
-4532 4552 0
-427 -4532 4533 0
-4533 4553 0
-428 -4533 4534 0
-4534 4554 0
-429 -4534 4535 0
-4535 4555 0
-430 -4535 4536 0
-4536 4556 0
-431 -4536 4537 0
-4537 4557 0
-432 -4537 4538 0
-4538 4558 0
-433 -4538 4539 0
-4539 4559 0
-434 -4539 4540 0
-4540 4560 0
-435 -4540 4541 0
-4541 4561 0
-436 -4541 4542 0
-4542 4562 0
-437 -4542 4543 0
-4543 4563 0
-438 -4543 4544 0
-4544 4564 0
-439 -4544 4545 0
-4545 4565 0
-440 -4545 4546 0
-4546 4566 0
-441 -4546 4547 0
-4547 4567 0
-442 -4547 4548 0
-4548 4568 0
-443 -4548 0
-424 4549 0
-4549 4569 0
-425 -4549 4550 0
-4550 4570 0
-426 -4550 4551 0
-4551 4571 0
-427 -4551 4552 0
-4552 4572 0
-428 -4552 4553 0
-4553 4573 0
-429 -4553 4554 0
-4554 4574 0
-430 -4554 4555 0
-4555 4575 0
-431 -4555 4556 0
-4556 4576 0
-432 -4556 4557 0
-4557 4577 0
-433 -4557 4558 0
-4558 4578 0
-434 -4558 4559 0
-4559 4579 0
-435 -4559 4560 0
-4560 4580 0
-436 -4560 4561 0
-4561 4581 0
-437 -4561 4562 0
-4562 4582 0
-438 -4562 4563 0
-4563 4583 0
-439 -4563 4564 0
-4564 4584 0
-440 -4564 4565 0
-4565 4585 0
-441 -4565 4566 0
-4566 4586 0
-442 -4566 4567 0
-4567 4587 0
-443 -4567 4568 0
-4568 4588 0
-444 -4568 0
-425 4569 0
-4569 4589 0
-426 -4569 4570 0
-4570 4590 0
-427 -4570 4571 0
-4571 4591 0
-428 -4571 4572 0
-4572 4592 0
-429 -4572 4573 0
-4573 4593 0
-430 -4573 4574 0
-4574 4594 0
-431 -4574 4575 0
-4575 4595 0
-432 -4575 4576 0
-4576 4596 0
-433 -4576 4577 0
-4577 4597 0
-434 -4577 4578 0
-4578 4598 0
-435 -4578 4579 0
-4579 4599 0
-436 -4579 4580 0
-4580 4600 0
-437 -4580 4581 0
-4581 4601 0
-438 -4581 4582 0
-4582 4602 0
-439 -4582 4583 0
-4583 4603 0
-440 -4583 4584 0
-4584 4604 0
-441 -4584 4585 0
-4585 4605 0
-442 -4585 4586 0
-4586 4606 0
-443 -4586 4587 0
-4587 4607 0
-444 -4587 4588 0
-4588 4608 0
-445 -4588 0
-426 4589 0
-4589 4609 0
-427 -4589 4590 0
-4590 4610 0
-428 -4590 4591 0
-4591 4611 0
-429 -4591 4592 0
-4592 4612 0
-430 -4592 4593 0
-4593 4613 0
-431 -4593 4594 0
-4594 4614 0
-432 -4594 4595 0
-4595 4615 0
-433 -4595 4596 0
-4596 4616 0
-434 -4596 4597 0
-4597 4617 0
-435 -4597 4598 0
-4598 4618 0
-436 -4598 4599 0
-4599 4619 0
-437 -4599 4600 0
-4600 4620 0
-438 -4600 4601 0
-4601 4621 0
-439 -4601 4602 0
-4602 4622 0
-440 -4602 4603 0
-4603 4623 0
-441 -4603 4604 0
-4604 4624 0
-442 -4604 4605 0
-4605 4625 0
-443 -4605 4606 0
-4606 4626 0
-444 -4606 4607 0
-4607 4627 0
-445 -4607 4608 0
-4608 4628 0
-446 -4608 0
-427 4609 0
-4609 4629 0
-428 -4609 4610 0
-4610 4630 0
-429 -4610 4611 0
-4611 4631 0
-430 -4611 4612 0
-4612 4632 0
-431 -4612 4613 0
-4613 4633 0
-432 -4613 4614 0
-4614 4634 0
-433 -4614 4615 0
-4615 4635 0
-434 -4615 4616 0
-4616 4636 0
-435 -4616 4617 0
-4617 4637 0
-436 -4617 4618 0
-4618 4638 0
-437 -4618 4619 0
-4619 4639 0
-438 -4619 4620 0
-4620 4640 0
-439 -4620 4621 0
-4621 4641 0
-440 -4621 4622 0
-4622 4642 0
-441 -4622 4623 0
-4623 4643 0
-442 -4623 4624 0
-4624 4644 0
-443 -4624 4625 0
-4625 4645 0
-444 -4625 4626 0
-4626 4646 0
-445 -4626 4627 0
-4627 4647 0
-446 -4627 4628 0
-4628 4648 0
-447 -4628 0
-428 4629 0
-429 -4629 4630 0
-430 -4630 4631 0
-431 -4631 4632 0
-432 -4632 4633 0
-433 -4633 4634 0
-434 -4634 4635 0
-435 -4635 4636 0
-436 -4636 4637 0
-437 -4637 4638 0
-438 -4638 4639 0
-439 -4639 4640 0
-440 -4640 4641 0
-441 -4641 4642 0
-442 -4642 4643 0
-443 -4643 4644 0
-444 -4644 4645 0
-445 -4645 4646 0
-446 -4646 4647 0
-447 -4647 4648 0
-448 -4648 0
-5 -47 -73 -7 0
-9 -51 -119 -145 -105 -65 -31 -29 -37 -11 0
-1 -43 -69 -3 0
-2 -60 -94 -4 0
-10 -34 -32 -30 -56 -116 -150 -126 -70 -12 0
-6 -64 -66 -8 0
