p cnf 496 7918
-1 -12 -46 0
-1 -12 -47 0
-1 -12 -48 0
-1 -12 -49 0
-1 -46 -47 0
-1 -46 -48 0
-1 -46 -49 0
-1 -47 -48 0
-1 -47 -49 0
-1 -48 -49 0
-12 -46 -47 0
-12 -46 -48 0
-12 -46 -49 0
-12 -47 -48 0
-12 -47 -49 0
-12 -48 -49 0
-46 -47 -48 0
-46 -47 -49 0
-46 -48 -49 0
-47 -48 -49 0
12 46 47 48 49 0
1 46 47 48 49 0
1 12 47 48 49 0
1 12 46 48 49 0
1 12 46 47 49 0
1 12 46 47 48 0
-2 -16 -50 0
-2 -16 -51 0
-2 -16 -52 0
-2 -16 -53 0
-2 -50 -51 0
-2 -50 -52 0
-2 -50 -53 0
-2 -51 -52 0
-2 -51 -53 0
-2 -52 -53 0
-16 -50 -51 0
-16 -50 -52 0
-16 -50 -53 0
-16 -51 -52 0
-16 -51 -53 0
-16 -52 -53 0
-50 -51 -52 0
-50 -51 -53 0
-50 -52 -53 0
-51 -52 -53 0
16 50 51 52 53 0
2 50 51 52 53 0
2 16 51 52 53 0
2 16 50 52 53 0
2 16 50 51 53 0
2 16 50 51 52 0
-3 -10 -43 0
-3 -10 -54 0
-3 -10 -88 0
-3 -10 -89 0
-3 -10 -90 0
-3 -10 -91 0
-3 -43 -54 0
-3 -43 -88 0
-3 -43 -89 0
-3 -43 -90 0
-3 -43 -91 0
-3 -54 -88 0
-3 -54 -89 0
-3 -54 -90 0
-3 -54 -91 0
-3 -88 -89 0
-3 -88 -90 0
-3 -88 -91 0
-3 -89 -90 0
-3 -89 -91 0
-3 -90 -91 0
-10 -43 -54 0
-10 -43 -88 0
-10 -43 -89 0
-10 -43 -90 0
-10 -43 -91 0
-10 -54 -88 0
-10 -54 -89 0
-10 -54 -90 0
-10 -54 -91 0
-10 -88 -89 0
-10 -88 -90 0
-10 -88 -91 0
-10 -89 -90 0
-10 -89 -91 0
-10 -90 -91 0
-43 -54 -88 0
-43 -54 -89 0
-43 -54 -90 0
-43 -54 -91 0
-43 -88 -89 0
-43 -88 -90 0
-43 -88 -91 0
-43 -89 -90 0
-43 -89 -91 0
-43 -90 -91 0
-54 -88 -89 0
-54 -88 -90 0
-54 -88 -91 0
-54 -89 -90 0
-54 -89 -91 0
-54 -90 -91 0
-88 -89 -90 0
-88 -89 -91 0
-88 -90 -91 0
-89 -90 -91 0
10 43 54 88 89 90 91 0
3 43 54 88 89 90 91 0
3 10 54 88 89 90 91 0
3 10 43 88 89 90 91 0
3 10 43 54 89 90 91 0
3 10 43 54 88 90 91 0
3 10 43 54 88 89 91 0
3 10 43 54 88 89 90 0
-4 -5 -6 0
-4 -5 -7 0
-4 -6 -7 0
-5 -6 -7 0
5 6 7 0
4 6 7 0
4 5 7 0
4 5 6 0
-5 -20 -54 0
-5 -20 -55 0
-5 -20 -56 0
-5 -20 -57 0
-5 -54 -55 0
-5 -54 -56 0
-5 -54 -57 0
-5 -55 -56 0
-5 -55 -57 0
-5 -56 -57 0
-20 -54 -55 0
-20 -54 -56 0
-20 -54 -57 0
-20 -55 -56 0
-20 -55 -57 0
-20 -56 -57 0
-54 -55 -56 0
-54 -55 -57 0
-54 -56 -57 0
-55 -56 -57 0
20 54 55 56 57 0
5 54 55 56 57 0
5 20 55 56 57 0
5 20 54 56 57 0
5 20 54 55 57 0
5 20 54 55 56 0
-6 -50 -86 0
-6 -50 -87 0
-6 -86 -87 0
-50 -86 -87 0
-7 -14 -44 0
-7 -14 -58 0
-7 -14 -92 0
-7 -14 -93 0
-7 -14 -94 0
-7 -14 -95 0
-7 -44 -58 0
-7 -44 -92 0
-7 -44 -93 0
-7 -44 -94 0
-7 -44 -95 0
-7 -58 -92 0
-7 -58 -93 0
-7 -58 -94 0
-7 -58 -95 0
-7 -92 -93 0
-7 -92 -94 0
-7 -92 -95 0
-7 -93 -94 0
-7 -93 -95 0
-7 -94 -95 0
-14 -44 -58 0
-14 -44 -92 0
-14 -44 -93 0
-14 -44 -94 0
-14 -44 -95 0
-14 -58 -92 0
-14 -58 -93 0
-14 -58 -94 0
-14 -58 -95 0
-14 -92 -93 0
-14 -92 -94 0
-14 -92 -95 0
-14 -93 -94 0
-14 -93 -95 0
-14 -94 -95 0
-44 -58 -92 0
-44 -58 -93 0
-44 -58 -94 0
-44 -58 -95 0
-44 -92 -93 0
-44 -92 -94 0
-44 -92 -95 0
-44 -93 -94 0
-44 -93 -95 0
-44 -94 -95 0
-58 -92 -93 0
-58 -92 -94 0
-58 -92 -95 0
-58 -93 -94 0
-58 -93 -95 0
-58 -94 -95 0
-92 -93 -94 0
-92 -93 -95 0
-92 -94 -95 0
-93 -94 -95 0
14 44 58 92 93 94 95 0
7 44 58 92 93 94 95 0
7 14 58 92 93 94 95 0
7 14 44 92 93 94 95 0
7 14 44 58 93 94 95 0
7 14 44 58 92 94 95 0
7 14 44 58 92 93 95 0
7 14 44 58 92 93 94 0
-8 -9 -10 0
-8 -9 -11 0
-8 -10 -11 0
-9 -10 -11 0
9 10 11 0
8 10 11 0
8 9 11 0
8 9 10 0
-8 -44 -45 0
-9 -24 -58 0
-9 -24 -59 0
-9 -24 -60 0
-9 -24 -61 0
-9 -58 -59 0
-9 -58 -60 0
-9 -58 -61 0
-9 -59 -60 0
-9 -59 -61 0
-9 -60 -61 0
-24 -58 -59 0
-24 -58 -60 0
-24 -58 -61 0
-24 -59 -60 0
-24 -59 -61 0
-24 -60 -61 0
-58 -59 -60 0
-58 -59 -61 0
-58 -60 -61 0
-59 -60 -61 0
24 58 59 60 61 0
9 58 59 60 61 0
9 24 59 60 61 0
9 24 58 60 61 0
9 24 58 59 61 0
9 24 58 59 60 0
-11 -18 -47 0
-11 -18 -62 0
-11 -18 -96 0
-11 -18 -97 0
-11 -18 -98 0
-11 -18 -99 0
-11 -47 -62 0
-11 -47 -96 0
-11 -47 -97 0
-11 -47 -98 0
-11 -47 -99 0
-11 -62 -96 0
-11 -62 -97 0
-11 -62 -98 0
-11 -62 -99 0
-11 -96 -97 0
-11 -96 -98 0
-11 -96 -99 0
-11 -97 -98 0
-11 -97 -99 0
-11 -98 -99 0
-18 -47 -62 0
-18 -47 -96 0
-18 -47 -97 0
-18 -47 -98 0
-18 -47 -99 0
-18 -62 -96 0
-18 -62 -97 0
-18 -62 -98 0
-18 -62 -99 0
-18 -96 -97 0
-18 -96 -98 0
-18 -96 -99 0
-18 -97 -98 0
-18 -97 -99 0
-18 -98 -99 0
-47 -62 -96 0
-47 -62 -97 0
-47 -62 -98 0
-47 -62 -99 0
-47 -96 -97 0
-47 -96 -98 0
-47 -96 -99 0
-47 -97 -98 0
-47 -97 -99 0
-47 -98 -99 0
-62 -96 -97 0
-62 -96 -98 0
-62 -96 -99 0
-62 -97 -98 0
-62 -97 -99 0
-62 -98 -99 0
-96 -97 -98 0
-96 -97 -99 0
-96 -98 -99 0
-97 -98 -99 0
18 47 62 96 97 98 99 0
11 47 62 96 97 98 99 0
11 18 62 96 97 98 99 0
11 18 47 96 97 98 99 0
11 18 47 62 97 98 99 0
11 18 47 62 96 98 99 0
11 18 47 62 96 97 99 0
11 18 47 62 96 97 98 0
-12 -13 -14 0
-12 -13 -15 0
-12 -14 -15 0
-13 -14 -15 0
13 14 15 0
12 14 15 0
12 13 15 0
12 13 14 0
-13 -28 -62 0
-13 -28 -63 0
-13 -28 -64 0
-13 -28 -65 0
-13 -62 -63 0
-13 -62 -64 0
-13 -62 -65 0
-13 -63 -64 0
-13 -63 -65 0
-13 -64 -65 0
-28 -62 -63 0
-28 -62 -64 0
-28 -62 -65 0
-28 -63 -64 0
-28 -63 -65 0
-28 -64 -65 0
-62 -63 -64 0
-62 -63 -65 0
-62 -64 -65 0
-63 -64 -65 0
28 62 63 64 65 0
13 62 63 64 65 0
13 28 63 64 65 0
13 28 62 64 65 0
13 28 62 63 65 0
13 28 62 63 64 0
-15 -22 -51 0
-15 -22 -66 0
-15 -22 -100 0
-15 -22 -101 0
-15 -22 -102 0
-15 -22 -103 0
-15 -51 -66 0
-15 -51 -100 0
-15 -51 -101 0
-15 -51 -102 0
-15 -51 -103 0
-15 -66 -100 0
-15 -66 -101 0
-15 -66 -102 0
-15 -66 -103 0
-15 -100 -101 0
-15 -100 -102 0
-15 -100 -103 0
-15 -101 -102 0
-15 -101 -103 0
-15 -102 -103 0
-22 -51 -66 0
-22 -51 -100 0
-22 -51 -101 0
-22 -51 -102 0
-22 -51 -103 0
-22 -66 -100 0
-22 -66 -101 0
-22 -66 -102 0
-22 -66 -103 0
-22 -100 -101 0
-22 -100 -102 0
-22 -100 -103 0
-22 -101 -102 0
-22 -101 -103 0
-22 -102 -103 0
-51 -66 -100 0
-51 -66 -101 0
-51 -66 -102 0
-51 -66 -103 0
-51 -100 -101 0
-51 -100 -102 0
-51 -100 -103 0
-51 -101 -102 0
-51 -101 -103 0
-51 -102 -103 0
-66 -100 -101 0
-66 -100 -102 0
-66 -100 -103 0
-66 -101 -102 0
-66 -101 -103 0
-66 -102 -103 0
-100 -101 -102 0
-100 -101 -103 0
-100 -102 -103 0
-101 -102 -103 0
22 51 66 100 101 102 103 0
15 51 66 100 101 102 103 0
15 22 66 100 101 102 103 0
15 22 51 100 101 102 103 0
15 22 51 66 101 102 103 0
15 22 51 66 100 102 103 0
15 22 51 66 100 101 103 0
15 22 51 66 100 101 102 0
-16 -17 -18 0
-16 -17 -19 0
-16 -18 -19 0
-17 -18 -19 0
17 18 19 0
16 18 19 0
16 17 19 0
16 17 18 0
-17 -32 -66 0
-17 -32 -67 0
-17 -32 -68 0
-17 -32 -69 0
-17 -66 -67 0
-17 -66 -68 0
-17 -66 -69 0
-17 -67 -68 0
-17 -67 -69 0
-17 -68 -69 0
-32 -66 -67 0
-32 -66 -68 0
-32 -66 -69 0
-32 -67 -68 0
-32 -67 -69 0
-32 -68 -69 0
-66 -67 -68 0
-66 -67 -69 0
-66 -68 -69 0
-67 -68 -69 0
32 66 67 68 69 0
17 66 67 68 69 0
17 32 67 68 69 0
17 32 66 68 69 0
17 32 66 67 69 0
17 32 66 67 68 0
-19 -26 -55 0
-19 -26 -70 0
-19 -26 -104 0
-19 -26 -105 0
-19 -26 -106 0
-19 -26 -107 0
-19 -55 -70 0
-19 -55 -104 0
-19 -55 -105 0
-19 -55 -106 0
-19 -55 -107 0
-19 -70 -104 0
-19 -70 -105 0
-19 -70 -106 0
-19 -70 -107 0
-19 -104 -105 0
-19 -104 -106 0
-19 -104 -107 0
-19 -105 -106 0
-19 -105 -107 0
-19 -106 -107 0
-26 -55 -70 0
-26 -55 -104 0
-26 -55 -105 0
-26 -55 -106 0
-26 -55 -107 0
-26 -70 -104 0
-26 -70 -105 0
-26 -70 -106 0
-26 -70 -107 0
-26 -104 -105 0
-26 -104 -106 0
-26 -104 -107 0
-26 -105 -106 0
-26 -105 -107 0
-26 -106 -107 0
-55 -70 -104 0
-55 -70 -105 0
-55 -70 -106 0
-55 -70 -107 0
-55 -104 -105 0
-55 -104 -106 0
-55 -104 -107 0
-55 -105 -106 0
-55 -105 -107 0
-55 -106 -107 0
-70 -104 -105 0
-70 -104 -106 0
-70 -104 -107 0
-70 -105 -106 0
-70 -105 -107 0
-70 -106 -107 0
-104 -105 -106 0
-104 -105 -107 0
-104 -106 -107 0
-105 -106 -107 0
26 55 70 104 105 106 107 0
19 55 70 104 105 106 107 0
19 26 70 104 105 106 107 0
19 26 55 104 105 106 107 0
19 26 55 70 105 106 107 0
19 26 55 70 104 106 107 0
19 26 55 70 104 105 107 0
19 26 55 70 104 105 106 0
-20 -21 -22 0
-20 -21 -23 0
-20 -22 -23 0
-21 -22 -23 0
21 22 23 0
20 22 23 0
20 21 23 0
20 21 22 0
-21 -36 -70 0
-21 -36 -71 0
-21 -36 -72 0
-21 -36 -73 0
-21 -70 -71 0
-21 -70 -72 0
-21 -70 -73 0
-21 -71 -72 0
-21 -71 -73 0
-21 -72 -73 0
-36 -70 -71 0
-36 -70 -72 0
-36 -70 -73 0
-36 -71 -72 0
-36 -71 -73 0
-36 -72 -73 0
-70 -71 -72 0
-70 -71 -73 0
-70 -72 -73 0
-71 -72 -73 0
36 70 71 72 73 0
21 70 71 72 73 0
21 36 71 72 73 0
21 36 70 72 73 0
21 36 70 71 73 0
21 36 70 71 72 0
-23 -30 -59 0
-23 -30 -74 0
-23 -30 -108 0
-23 -30 -109 0
-23 -30 -110 0
-23 -30 -111 0
-23 -59 -74 0
-23 -59 -108 0
-23 -59 -109 0
-23 -59 -110 0
-23 -59 -111 0
-23 -74 -108 0
-23 -74 -109 0
-23 -74 -110 0
-23 -74 -111 0
-23 -108 -109 0
-23 -108 -110 0
-23 -108 -111 0
-23 -109 -110 0
-23 -109 -111 0
-23 -110 -111 0
-30 -59 -74 0
-30 -59 -108 0
-30 -59 -109 0
-30 -59 -110 0
-30 -59 -111 0
-30 -74 -108 0
-30 -74 -109 0
-30 -74 -110 0
-30 -74 -111 0
-30 -108 -109 0
-30 -108 -110 0
-30 -108 -111 0
-30 -109 -110 0
-30 -109 -111 0
-30 -110 -111 0
-59 -74 -108 0
-59 -74 -109 0
-59 -74 -110 0
-59 -74 -111 0
-59 -108 -109 0
-59 -108 -110 0
-59 -108 -111 0
-59 -109 -110 0
-59 -109 -111 0
-59 -110 -111 0
-74 -108 -109 0
-74 -108 -110 0
-74 -108 -111 0
-74 -109 -110 0
-74 -109 -111 0
-74 -110 -111 0
-108 -109 -110 0
-108 -109 -111 0
-108 -110 -111 0
-109 -110 -111 0
30 59 74 108 109 110 111 0
23 59 74 108 109 110 111 0
23 30 74 108 109 110 111 0
23 30 59 108 109 110 111 0
23 30 59 74 109 110 111 0
23 30 59 74 108 110 111 0
23 30 59 74 108 109 111 0
23 30 59 74 108 109 110 0
-24 -25 -26 0
-24 -25 -27 0
-24 -26 -27 0
-25 -26 -27 0
25 26 27 0
24 26 27 0
24 25 27 0
24 25 26 0
-25 -40 -74 0
-25 -40 -75 0
-25 -40 -76 0
-25 -40 -77 0
-25 -74 -75 0
-25 -74 -76 0
-25 -74 -77 0
-25 -75 -76 0
-25 -75 -77 0
-25 -76 -77 0
-40 -74 -75 0
-40 -74 -76 0
-40 -74 -77 0
-40 -75 -76 0
-40 -75 -77 0
-40 -76 -77 0
-74 -75 -76 0
-74 -75 -77 0
-74 -76 -77 0
-75 -76 -77 0
40 74 75 76 77 0
25 74 75 76 77 0
25 40 75 76 77 0
25 40 74 76 77 0
25 40 74 75 77 0
25 40 74 75 76 0
-27 -34 -63 0
-27 -34 -78 0
-27 -34 -112 0
-27 -34 -113 0
-27 -34 -114 0
-27 -34 -115 0
-27 -63 -78 0
-27 -63 -112 0
-27 -63 -113 0
-27 -63 -114 0
-27 -63 -115 0
-27 -78 -112 0
-27 -78 -113 0
-27 -78 -114 0
-27 -78 -115 0
-27 -112 -113 0
-27 -112 -114 0
-27 -112 -115 0
-27 -113 -114 0
-27 -113 -115 0
-27 -114 -115 0
-34 -63 -78 0
-34 -63 -112 0
-34 -63 -113 0
-34 -63 -114 0
-34 -63 -115 0
-34 -78 -112 0
-34 -78 -113 0
-34 -78 -114 0
-34 -78 -115 0
-34 -112 -113 0
-34 -112 -114 0
-34 -112 -115 0
-34 -113 -114 0
-34 -113 -115 0
-34 -114 -115 0
-63 -78 -112 0
-63 -78 -113 0
-63 -78 -114 0
-63 -78 -115 0
-63 -112 -113 0
-63 -112 -114 0
-63 -112 -115 0
-63 -113 -114 0
-63 -113 -115 0
-63 -114 -115 0
-78 -112 -113 0
-78 -112 -114 0
-78 -112 -115 0
-78 -113 -114 0
-78 -113 -115 0
-78 -114 -115 0
-112 -113 -114 0
-112 -113 -115 0
-112 -114 -115 0
-113 -114 -115 0
34 63 78 112 113 114 115 0
27 63 78 112 113 114 115 0
27 34 78 112 113 114 115 0
27 34 63 112 113 114 115 0
27 34 63 78 113 114 115 0
27 34 63 78 112 114 115 0
27 34 63 78 112 113 115 0
27 34 63 78 112 113 114 0
-28 -29 -30 0
-28 -29 -31 0
-28 -30 -31 0
-29 -30 -31 0
29 30 31 0
28 30 31 0
28 29 31 0
28 29 30 0
-29 -42 -78 0
-29 -42 -79 0
-29 -42 -80 0
-29 -42 -81 0
-29 -78 -79 0
-29 -78 -80 0
-29 -78 -81 0
-29 -79 -80 0
-29 -79 -81 0
-29 -80 -81 0
-42 -78 -79 0
-42 -78 -80 0
-42 -78 -81 0
-42 -79 -80 0
-42 -79 -81 0
-42 -80 -81 0
-78 -79 -80 0
-78 -79 -81 0
-78 -80 -81 0
-79 -80 -81 0
42 78 79 80 81 0
29 78 79 80 81 0
29 42 79 80 81 0
29 42 78 80 81 0
29 42 78 79 81 0
29 42 78 79 80 0
-31 -38 -67 0
-31 -38 -82 0
-31 -38 -116 0
-31 -38 -117 0
-31 -38 -118 0
-31 -38 -119 0
-31 -67 -82 0
-31 -67 -116 0
-31 -67 -117 0
-31 -67 -118 0
-31 -67 -119 0
-31 -82 -116 0
-31 -82 -117 0
-31 -82 -118 0
-31 -82 -119 0
-31 -116 -117 0
-31 -116 -118 0
-31 -116 -119 0
-31 -117 -118 0
-31 -117 -119 0
-31 -118 -119 0
-38 -67 -82 0
-38 -67 -116 0
-38 -67 -117 0
-38 -67 -118 0
-38 -67 -119 0
-38 -82 -116 0
-38 -82 -117 0
-38 -82 -118 0
-38 -82 -119 0
-38 -116 -117 0
-38 -116 -118 0
-38 -116 -119 0
-38 -117 -118 0
-38 -117 -119 0
-38 -118 -119 0
-67 -82 -116 0
-67 -82 -117 0
-67 -82 -118 0
-67 -82 -119 0
-67 -116 -117 0
-67 -116 -118 0
-67 -116 -119 0
-67 -117 -118 0
-67 -117 -119 0
-67 -118 -119 0
-82 -116 -117 0
-82 -116 -118 0
-82 -116 -119 0
-82 -117 -118 0
-82 -117 -119 0
-82 -118 -119 0
-116 -117 -118 0
-116 -117 -119 0
-116 -118 -119 0
-117 -118 -119 0
38 67 82 116 117 118 119 0
31 67 82 116 117 118 119 0
31 38 82 116 117 118 119 0
31 38 67 116 117 118 119 0
31 38 67 82 117 118 119 0
31 38 67 82 116 118 119 0
31 38 67 82 116 117 119 0
31 38 67 82 116 117 118 0
-32 -33 -34 0
-32 -33 -35 0
-32 -34 -35 0
-33 -34 -35 0
33 34 35 0
32 34 35 0
32 33 35 0
32 33 34 0
-33 -82 -83 0
-35 -41 -71 0
-35 -41 -84 0
-35 -41 -120 0
-35 -41 -121 0
-35 -41 -122 0
-35 -41 -123 0
-35 -71 -84 0
-35 -71 -120 0
-35 -71 -121 0
-35 -71 -122 0
-35 -71 -123 0
-35 -84 -120 0
-35 -84 -121 0
-35 -84 -122 0
-35 -84 -123 0
-35 -120 -121 0
-35 -120 -122 0
-35 -120 -123 0
-35 -121 -122 0
-35 -121 -123 0
-35 -122 -123 0
-41 -71 -84 0
-41 -71 -120 0
-41 -71 -121 0
-41 -71 -122 0
-41 -71 -123 0
-41 -84 -120 0
-41 -84 -121 0
-41 -84 -122 0
-41 -84 -123 0
-41 -120 -121 0
-41 -120 -122 0
-41 -120 -123 0
-41 -121 -122 0
-41 -121 -123 0
-41 -122 -123 0
-71 -84 -120 0
-71 -84 -121 0
-71 -84 -122 0
-71 -84 -123 0
-71 -120 -121 0
-71 -120 -122 0
-71 -120 -123 0
-71 -121 -122 0
-71 -121 -123 0
-71 -122 -123 0
-84 -120 -121 0
-84 -120 -122 0
-84 -120 -123 0
-84 -121 -122 0
-84 -121 -123 0
-84 -122 -123 0
-120 -121 -122 0
-120 -121 -123 0
-120 -122 -123 0
-121 -122 -123 0
41 71 84 120 121 122 123 0
35 71 84 120 121 122 123 0
35 41 84 120 121 122 123 0
35 41 71 120 121 122 123 0
35 41 71 84 121 122 123 0
35 41 71 84 120 122 123 0
35 41 71 84 120 121 123 0
35 41 71 84 120 121 122 0
-36 -37 -38 0
-36 -37 -39 0
-36 -38 -39 0
-37 -38 -39 0
37 38 39 0
36 38 39 0
36 37 39 0
36 37 38 0
-39 -75 -124 0
-39 -75 -125 0
-39 -124 -125 0
-75 -124 -125 0
-45 -52 -85 0
-45 -52 -96 0
-45 -52 -130 0
-45 -52 -131 0
-45 -52 -132 0
-45 -52 -133 0
-45 -85 -96 0
-45 -85 -130 0
-45 -85 -131 0
-45 -85 -132 0
-45 -85 -133 0
-45 -96 -130 0
-45 -96 -131 0
-45 -96 -132 0
-45 -96 -133 0
-45 -130 -131 0
-45 -130 -132 0
-45 -130 -133 0
-45 -131 -132 0
-45 -131 -133 0
-45 -132 -133 0
-52 -85 -96 0
-52 -85 -130 0
-52 -85 -131 0
-52 -85 -132 0
-52 -85 -133 0
-52 -96 -130 0
-52 -96 -131 0
-52 -96 -132 0
-52 -96 -133 0
-52 -130 -131 0
-52 -130 -132 0
-52 -130 -133 0
-52 -131 -132 0
-52 -131 -133 0
-52 -132 -133 0
-85 -96 -130 0
-85 -96 -131 0
-85 -96 -132 0
-85 -96 -133 0
-85 -130 -131 0
-85 -130 -132 0
-85 -130 -133 0
-85 -131 -132 0
-85 -131 -133 0
-85 -132 -133 0
-96 -130 -131 0
-96 -130 -132 0
-96 -130 -133 0
-96 -131 -132 0
-96 -131 -133 0
-96 -132 -133 0
-130 -131 -132 0
-130 -131 -133 0
-130 -132 -133 0
-131 -132 -133 0
52 85 96 130 131 132 133 0
45 85 96 130 131 132 133 0
45 52 96 130 131 132 133 0
45 52 85 130 131 132 133 0
45 52 85 96 131 132 133 0
45 52 85 96 130 132 133 0
45 52 85 96 130 131 133 0
45 52 85 96 130 131 132 0
-48 -92 -128 0
-48 -92 -129 0
-48 -128 -129 0
-92 -128 -129 0
-49 -56 -86 0
-49 -56 -100 0
-49 -56 -134 0
-49 -56 -135 0
-49 -56 -136 0
-49 -56 -137 0
-49 -86 -100 0
-49 -86 -134 0
-49 -86 -135 0
-49 -86 -136 0
-49 -86 -137 0
-49 -100 -134 0
-49 -100 -135 0
-49 -100 -136 0
-49 -100 -137 0
-49 -134 -135 0
-49 -134 -136 0
-49 -134 -137 0
-49 -135 -136 0
-49 -135 -137 0
-49 -136 -137 0
-56 -86 -100 0
-56 -86 -134 0
-56 -86 -135 0
-56 -86 -136 0
-56 -86 -137 0
-56 -100 -134 0
-56 -100 -135 0
-56 -100 -136 0
-56 -100 -137 0
-56 -134 -135 0
-56 -134 -136 0
-56 -134 -137 0
-56 -135 -136 0
-56 -135 -137 0
-56 -136 -137 0
-86 -100 -134 0
-86 -100 -135 0
-86 -100 -136 0
-86 -100 -137 0
-86 -134 -135 0
-86 -134 -136 0
-86 -134 -137 0
-86 -135 -136 0
-86 -135 -137 0
-86 -136 -137 0
-100 -134 -135 0
-100 -134 -136 0
-100 -134 -137 0
-100 -135 -136 0
-100 -135 -137 0
-100 -136 -137 0
-134 -135 -136 0
-134 -135 -137 0
-134 -136 -137 0
-135 -136 -137 0
56 86 100 134 135 136 137 0
49 86 100 134 135 136 137 0
49 56 100 134 135 136 137 0
49 56 86 134 135 136 137 0
49 56 86 100 135 136 137 0
49 56 86 100 134 136 137 0
49 56 86 100 134 135 137 0
49 56 86 100 134 135 136 0
-53 -60 -89 0
-53 -60 -104 0
-53 -60 -138 0
-53 -60 -139 0
-53 -60 -140 0
-53 -60 -141 0
-53 -89 -104 0
-53 -89 -138 0
-53 -89 -139 0
-53 -89 -140 0
-53 -89 -141 0
-53 -104 -138 0
-53 -104 -139 0
-53 -104 -140 0
-53 -104 -141 0
-53 -138 -139 0
-53 -138 -140 0
-53 -138 -141 0
-53 -139 -140 0
-53 -139 -141 0
-53 -140 -141 0
-60 -89 -104 0
-60 -89 -138 0
-60 -89 -139 0
-60 -89 -140 0
-60 -89 -141 0
-60 -104 -138 0
-60 -104 -139 0
-60 -104 -140 0
-60 -104 -141 0
-60 -138 -139 0
-60 -138 -140 0
-60 -138 -141 0
-60 -139 -140 0
-60 -139 -141 0
-60 -140 -141 0
-89 -104 -138 0
-89 -104 -139 0
-89 -104 -140 0
-89 -104 -141 0
-89 -138 -139 0
-89 -138 -140 0
-89 -138 -141 0
-89 -139 -140 0
-89 -139 -141 0
-89 -140 -141 0
-104 -138 -139 0
-104 -138 -140 0
-104 -138 -141 0
-104 -139 -140 0
-104 -139 -141 0
-104 -140 -141 0
-138 -139 -140 0
-138 -139 -141 0
-138 -140 -141 0
-139 -140 -141 0
60 89 104 138 139 140 141 0
53 89 104 138 139 140 141 0
53 60 104 138 139 140 141 0
53 60 89 138 139 140 141 0
53 60 89 104 139 140 141 0
53 60 89 104 138 140 141 0
53 60 89 104 138 139 141 0
53 60 89 104 138 139 140 0
-57 -64 -93 0
-57 -64 -108 0
-57 -64 -142 0
-57 -64 -143 0
-57 -64 -144 0
-57 -64 -145 0
-57 -93 -108 0
-57 -93 -142 0
-57 -93 -143 0
-57 -93 -144 0
-57 -93 -145 0
-57 -108 -142 0
-57 -108 -143 0
-57 -108 -144 0
-57 -108 -145 0
-57 -142 -143 0
-57 -142 -144 0
-57 -142 -145 0
-57 -143 -144 0
-57 -143 -145 0
-57 -144 -145 0
-64 -93 -108 0
-64 -93 -142 0
-64 -93 -143 0
-64 -93 -144 0
-64 -93 -145 0
-64 -108 -142 0
-64 -108 -143 0
-64 -108 -144 0
-64 -108 -145 0
-64 -142 -143 0
-64 -142 -144 0
-64 -142 -145 0
-64 -143 -144 0
-64 -143 -145 0
-64 -144 -145 0
-93 -108 -142 0
-93 -108 -143 0
-93 -108 -144 0
-93 -108 -145 0
-93 -142 -143 0
-93 -142 -144 0
-93 -142 -145 0
-93 -143 -144 0
-93 -143 -145 0
-93 -144 -145 0
-108 -142 -143 0
-108 -142 -144 0
-108 -142 -145 0
-108 -143 -144 0
-108 -143 -145 0
-108 -144 -145 0
-142 -143 -144 0
-142 -143 -145 0
-142 -144 -145 0
-143 -144 -145 0
64 93 108 142 143 144 145 0
57 93 108 142 143 144 145 0
57 64 108 142 143 144 145 0
57 64 93 142 143 144 145 0
57 64 93 108 143 144 145 0
57 64 93 108 142 144 145 0
57 64 93 108 142 143 145 0
57 64 93 108 142 143 144 0
-61 -68 -97 0
-61 -68 -112 0
-61 -68 -146 0
-61 -68 -147 0
-61 -68 -148 0
-61 -68 -149 0
-61 -97 -112 0
-61 -97 -146 0
-61 -97 -147 0
-61 -97 -148 0
-61 -97 -149 0
-61 -112 -146 0
-61 -112 -147 0
-61 -112 -148 0
-61 -112 -149 0
-61 -146 -147 0
-61 -146 -148 0
-61 -146 -149 0
-61 -147 -148 0
-61 -147 -149 0
-61 -148 -149 0
-68 -97 -112 0
-68 -97 -146 0
-68 -97 -147 0
-68 -97 -148 0
-68 -97 -149 0
-68 -112 -146 0
-68 -112 -147 0
-68 -112 -148 0
-68 -112 -149 0
-68 -146 -147 0
-68 -146 -148 0
-68 -146 -149 0
-68 -147 -148 0
-68 -147 -149 0
-68 -148 -149 0
-97 -112 -146 0
-97 -112 -147 0
-97 -112 -148 0
-97 -112 -149 0
-97 -146 -147 0
-97 -146 -148 0
-97 -146 -149 0
-97 -147 -148 0
-97 -147 -149 0
-97 -148 -149 0
-112 -146 -147 0
-112 -146 -148 0
-112 -146 -149 0
-112 -147 -148 0
-112 -147 -149 0
-112 -148 -149 0
-146 -147 -148 0
-146 -147 -149 0
-146 -148 -149 0
-147 -148 -149 0
68 97 112 146 147 148 149 0
61 97 112 146 147 148 149 0
61 68 112 146 147 148 149 0
61 68 97 146 147 148 149 0
61 68 97 112 147 148 149 0
61 68 97 112 146 148 149 0
61 68 97 112 146 147 149 0
61 68 97 112 146 147 148 0
-65 -72 -101 0
-65 -72 -116 0
-65 -72 -150 0
-65 -72 -151 0
-65 -72 -152 0
-65 -72 -153 0
-65 -101 -116 0
-65 -101 -150 0
-65 -101 -151 0
-65 -101 -152 0
-65 -101 -153 0
-65 -116 -150 0
-65 -116 -151 0
-65 -116 -152 0
-65 -116 -153 0
-65 -150 -151 0
-65 -150 -152 0
-65 -150 -153 0
-65 -151 -152 0
-65 -151 -153 0
-65 -152 -153 0
-72 -101 -116 0
-72 -101 -150 0
-72 -101 -151 0
-72 -101 -152 0
-72 -101 -153 0
-72 -116 -150 0
-72 -116 -151 0
-72 -116 -152 0
-72 -116 -153 0
-72 -150 -151 0
-72 -150 -152 0
-72 -150 -153 0
-72 -151 -152 0
-72 -151 -153 0
-72 -152 -153 0
-101 -116 -150 0
-101 -116 -151 0
-101 -116 -152 0
-101 -116 -153 0
-101 -150 -151 0
-101 -150 -152 0
-101 -150 -153 0
-101 -151 -152 0
-101 -151 -153 0
-101 -152 -153 0
-116 -150 -151 0
-116 -150 -152 0
-116 -150 -153 0
-116 -151 -152 0
-116 -151 -153 0
-116 -152 -153 0
-150 -151 -152 0
-150 -151 -153 0
-150 -152 -153 0
-151 -152 -153 0
72 101 116 150 151 152 153 0
65 101 116 150 151 152 153 0
65 72 116 150 151 152 153 0
65 72 101 150 151 152 153 0
65 72 101 116 151 152 153 0
65 72 101 116 150 152 153 0
65 72 101 116 150 151 153 0
65 72 101 116 150 151 152 0
-69 -76 -105 0
-69 -76 -120 0
-69 -76 -154 0
-69 -76 -155 0
-69 -76 -156 0
-69 -76 -157 0
-69 -105 -120 0
-69 -105 -154 0
-69 -105 -155 0
-69 -105 -156 0
-69 -105 -157 0
-69 -120 -154 0
-69 -120 -155 0
-69 -120 -156 0
-69 -120 -157 0
-69 -154 -155 0
-69 -154 -156 0
-69 -154 -157 0
-69 -155 -156 0
-69 -155 -157 0
-69 -156 -157 0
-76 -105 -120 0
-76 -105 -154 0
-76 -105 -155 0
-76 -105 -156 0
-76 -105 -157 0
-76 -120 -154 0
-76 -120 -155 0
-76 -120 -156 0
-76 -120 -157 0
-76 -154 -155 0
-76 -154 -156 0
-76 -154 -157 0
-76 -155 -156 0
-76 -155 -157 0
-76 -156 -157 0
-105 -120 -154 0
-105 -120 -155 0
-105 -120 -156 0
-105 -120 -157 0
-105 -154 -155 0
-105 -154 -156 0
-105 -154 -157 0
-105 -155 -156 0
-105 -155 -157 0
-105 -156 -157 0
-120 -154 -155 0
-120 -154 -156 0
-120 -154 -157 0
-120 -155 -156 0
-120 -155 -157 0
-120 -156 -157 0
-154 -155 -156 0
-154 -155 -157 0
-154 -156 -157 0
-155 -156 -157 0
76 105 120 154 155 156 157 0
69 105 120 154 155 156 157 0
69 76 120 154 155 156 157 0
69 76 105 154 155 156 157 0
69 76 105 120 155 156 157 0
69 76 105 120 154 156 157 0
69 76 105 120 154 155 157 0
69 76 105 120 154 155 156 0
-73 -80 -109 0
-73 -80 -124 0
-73 -80 -158 0
-73 -80 -159 0
-73 -80 -160 0
-73 -80 -161 0
-73 -109 -124 0
-73 -109 -158 0
-73 -109 -159 0
-73 -109 -160 0
-73 -109 -161 0
-73 -124 -158 0
-73 -124 -159 0
-73 -124 -160 0
-73 -124 -161 0
-73 -158 -159 0
-73 -158 -160 0
-73 -158 -161 0
-73 -159 -160 0
-73 -159 -161 0
-73 -160 -161 0
-80 -109 -124 0
-80 -109 -158 0
-80 -109 -159 0
-80 -109 -160 0
-80 -109 -161 0
-80 -124 -158 0
-80 -124 -159 0
-80 -124 -160 0
-80 -124 -161 0
-80 -158 -159 0
-80 -158 -160 0
-80 -158 -161 0
-80 -159 -160 0
-80 -159 -161 0
-80 -160 -161 0
-109 -124 -158 0
-109 -124 -159 0
-109 -124 -160 0
-109 -124 -161 0
-109 -158 -159 0
-109 -158 -160 0
-109 -158 -161 0
-109 -159 -160 0
-109 -159 -161 0
-109 -160 -161 0
-124 -158 -159 0
-124 -158 -160 0
-124 -158 -161 0
-124 -159 -160 0
-124 -159 -161 0
-124 -160 -161 0
-158 -159 -160 0
-158 -159 -161 0
-158 -160 -161 0
-159 -160 -161 0
80 109 124 158 159 160 161 0
73 109 124 158 159 160 161 0
73 80 124 158 159 160 161 0
73 80 109 158 159 160 161 0
73 80 109 124 159 160 161 0
73 80 109 124 158 160 161 0
73 80 109 124 158 159 161 0
73 80 109 124 158 159 160 0
-77 -83 -113 0
-77 -83 -126 0
-77 -83 -162 0
-77 -83 -163 0
-77 -83 -164 0
-77 -83 -165 0
-77 -113 -126 0
-77 -113 -162 0
-77 -113 -163 0
-77 -113 -164 0
-77 -113 -165 0
-77 -126 -162 0
-77 -126 -163 0
-77 -126 -164 0
-77 -126 -165 0
-77 -162 -163 0
-77 -162 -164 0
-77 -162 -165 0
-77 -163 -164 0
-77 -163 -165 0
-77 -164 -165 0
-83 -113 -126 0
-83 -113 -162 0
-83 -113 -163 0
-83 -113 -164 0
-83 -113 -165 0
-83 -126 -162 0
-83 -126 -163 0
-83 -126 -164 0
-83 -126 -165 0
-83 -162 -163 0
-83 -162 -164 0
-83 -162 -165 0
-83 -163 -164 0
-83 -163 -165 0
-83 -164 -165 0
-113 -126 -162 0
-113 -126 -163 0
-113 -126 -164 0
-113 -126 -165 0
-113 -162 -163 0
-113 -162 -164 0
-113 -162 -165 0
-113 -163 -164 0
-113 -163 -165 0
-113 -164 -165 0
-126 -162 -163 0
-126 -162 -164 0
-126 -162 -165 0
-126 -163 -164 0
-126 -163 -165 0
-126 -164 -165 0
-162 -163 -164 0
-162 -163 -165 0
-162 -164 -165 0
-163 -164 -165 0
83 113 126 162 163 164 165 0
77 113 126 162 163 164 165 0
77 83 126 162 163 164 165 0
77 83 113 162 163 164 165 0
77 83 113 126 163 164 165 0
77 83 113 126 162 164 165 0
77 83 113 126 162 163 165 0
77 83 113 126 162 163 164 0
-81 -117 -166 0
-81 -117 -167 0
-81 -166 -167 0
-117 -166 -167 0
-87 -94 -127 0
-87 -94 -138 0
-87 -94 -172 0
-87 -94 -173 0
-87 -94 -174 0
-87 -94 -175 0
-87 -127 -138 0
-87 -127 -172 0
-87 -127 -173 0
-87 -127 -174 0
-87 -127 -175 0
-87 -138 -172 0
-87 -138 -173 0
-87 -138 -174 0
-87 -138 -175 0
-87 -172 -173 0
-87 -172 -174 0
-87 -172 -175 0
-87 -173 -174 0
-87 -173 -175 0
-87 -174 -175 0
-94 -127 -138 0
-94 -127 -172 0
-94 -127 -173 0
-94 -127 -174 0
-94 -127 -175 0
-94 -138 -172 0
-94 -138 -173 0
-94 -138 -174 0
-94 -138 -175 0
-94 -172 -173 0
-94 -172 -174 0
-94 -172 -175 0
-94 -173 -174 0
-94 -173 -175 0
-94 -174 -175 0
-127 -138 -172 0
-127 -138 -173 0
-127 -138 -174 0
-127 -138 -175 0
-127 -172 -173 0
-127 -172 -174 0
-127 -172 -175 0
-127 -173 -174 0
-127 -173 -175 0
-127 -174 -175 0
-138 -172 -173 0
-138 -172 -174 0
-138 -172 -175 0
-138 -173 -174 0
-138 -173 -175 0
-138 -174 -175 0
-172 -173 -174 0
-172 -173 -175 0
-172 -174 -175 0
-173 -174 -175 0
94 127 138 172 173 174 175 0
87 127 138 172 173 174 175 0
87 94 138 172 173 174 175 0
87 94 127 172 173 174 175 0
87 94 127 138 173 174 175 0
87 94 127 138 172 174 175 0
87 94 127 138 172 173 175 0
87 94 127 138 172 173 174 0
-90 -134 -170 0
-90 -134 -171 0
-90 -170 -171 0
-134 -170 -171 0
-91 -98 -128 0
-91 -98 -142 0
-91 -98 -176 0
-91 -98 -177 0
-91 -98 -178 0
-91 -98 -179 0
-91 -128 -142 0
-91 -128 -176 0
-91 -128 -177 0
-91 -128 -178 0
-91 -128 -179 0
-91 -142 -176 0
-91 -142 -177 0
-91 -142 -178 0
-91 -142 -179 0
-91 -176 -177 0
-91 -176 -178 0
-91 -176 -179 0
-91 -177 -178 0
-91 -177 -179 0
-91 -178 -179 0
-98 -128 -142 0
-98 -128 -176 0
-98 -128 -177 0
-98 -128 -178 0
-98 -128 -179 0
-98 -142 -176 0
-98 -142 -177 0
-98 -142 -178 0
-98 -142 -179 0
-98 -176 -177 0
-98 -176 -178 0
-98 -176 -179 0
-98 -177 -178 0
-98 -177 -179 0
-98 -178 -179 0
-128 -142 -176 0
-128 -142 -177 0
-128 -142 -178 0
-128 -142 -179 0
-128 -176 -177 0
-128 -176 -178 0
-128 -176 -179 0
-128 -177 -178 0
-128 -177 -179 0
-128 -178 -179 0
-142 -176 -177 0
-142 -176 -178 0
-142 -176 -179 0
-142 -177 -178 0
-142 -177 -179 0
-142 -178 -179 0
-176 -177 -178 0
-176 -177 -179 0
-176 -178 -179 0
-177 -178 -179 0
98 128 142 176 177 178 179 0
91 128 142 176 177 178 179 0
91 98 142 176 177 178 179 0
91 98 128 176 177 178 179 0
91 98 128 142 177 178 179 0
91 98 128 142 176 178 179 0
91 98 128 142 176 177 179 0
91 98 128 142 176 177 178 0
-95 -102 -131 0
-95 -102 -146 0
-95 -102 -180 0
-95 -102 -181 0
-95 -102 -182 0
-95 -102 -183 0
-95 -131 -146 0
-95 -131 -180 0
-95 -131 -181 0
-95 -131 -182 0
-95 -131 -183 0
-95 -146 -180 0
-95 -146 -181 0
-95 -146 -182 0
-95 -146 -183 0
-95 -180 -181 0
-95 -180 -182 0
-95 -180 -183 0
-95 -181 -182 0
-95 -181 -183 0
-95 -182 -183 0
-102 -131 -146 0
-102 -131 -180 0
-102 -131 -181 0
-102 -131 -182 0
-102 -131 -183 0
-102 -146 -180 0
-102 -146 -181 0
-102 -146 -182 0
-102 -146 -183 0
-102 -180 -181 0
-102 -180 -182 0
-102 -180 -183 0
-102 -181 -182 0
-102 -181 -183 0
-102 -182 -183 0
-131 -146 -180 0
-131 -146 -181 0
-131 -146 -182 0
-131 -146 -183 0
-131 -180 -181 0
-131 -180 -182 0
-131 -180 -183 0
-131 -181 -182 0
-131 -181 -183 0
-131 -182 -183 0
-146 -180 -181 0
-146 -180 -182 0
-146 -180 -183 0
-146 -181 -182 0
-146 -181 -183 0
-146 -182 -183 0
-180 -181 -182 0
-180 -181 -183 0
-180 -182 -183 0
-181 -182 -183 0
102 131 146 180 181 182 183 0
95 131 146 180 181 182 183 0
95 102 146 180 181 182 183 0
95 102 131 180 181 182 183 0
95 102 131 146 181 182 183 0
95 102 131 146 180 182 183 0
95 102 131 146 180 181 183 0
95 102 131 146 180 181 182 0
-99 -106 -135 0
-99 -106 -150 0
-99 -106 -184 0
-99 -106 -185 0
-99 -106 -186 0
-99 -106 -187 0
-99 -135 -150 0
-99 -135 -184 0
-99 -135 -185 0
-99 -135 -186 0
-99 -135 -187 0
-99 -150 -184 0
-99 -150 -185 0
-99 -150 -186 0
-99 -150 -187 0
-99 -184 -185 0
-99 -184 -186 0
-99 -184 -187 0
-99 -185 -186 0
-99 -185 -187 0
-99 -186 -187 0
-106 -135 -150 0
-106 -135 -184 0
-106 -135 -185 0
-106 -135 -186 0
-106 -135 -187 0
-106 -150 -184 0
-106 -150 -185 0
-106 -150 -186 0
-106 -150 -187 0
-106 -184 -185 0
-106 -184 -186 0
-106 -184 -187 0
-106 -185 -186 0
-106 -185 -187 0
-106 -186 -187 0
-135 -150 -184 0
-135 -150 -185 0
-135 -150 -186 0
-135 -150 -187 0
-135 -184 -185 0
-135 -184 -186 0
-135 -184 -187 0
-135 -185 -186 0
-135 -185 -187 0
-135 -186 -187 0
-150 -184 -185 0
-150 -184 -186 0
-150 -184 -187 0
-150 -185 -186 0
-150 -185 -187 0
-150 -186 -187 0
-184 -185 -186 0
-184 -185 -187 0
-184 -186 -187 0
-185 -186 -187 0
106 135 150 184 185 186 187 0
99 135 150 184 185 186 187 0
99 106 150 184 185 186 187 0
99 106 135 184 185 186 187 0
99 106 135 150 185 186 187 0
99 106 135 150 184 186 187 0
99 106 135 150 184 185 187 0
99 106 135 150 184 185 186 0
-103 -110 -139 0
-103 -110 -154 0
-103 -110 -188 0
-103 -110 -189 0
-103 -110 -190 0
-103 -110 -191 0
-103 -139 -154 0
-103 -139 -188 0
-103 -139 -189 0
-103 -139 -190 0
-103 -139 -191 0
-103 -154 -188 0
-103 -154 -189 0
-103 -154 -190 0
-103 -154 -191 0
-103 -188 -189 0
-103 -188 -190 0
-103 -188 -191 0
-103 -189 -190 0
-103 -189 -191 0
-103 -190 -191 0
-110 -139 -154 0
-110 -139 -188 0
-110 -139 -189 0
-110 -139 -190 0
-110 -139 -191 0
-110 -154 -188 0
-110 -154 -189 0
-110 -154 -190 0
-110 -154 -191 0
-110 -188 -189 0
-110 -188 -190 0
-110 -188 -191 0
-110 -189 -190 0
-110 -189 -191 0
-110 -190 -191 0
-139 -154 -188 0
-139 -154 -189 0
-139 -154 -190 0
-139 -154 -191 0
-139 -188 -189 0
-139 -188 -190 0
-139 -188 -191 0
-139 -189 -190 0
-139 -189 -191 0
-139 -190 -191 0
-154 -188 -189 0
-154 -188 -190 0
-154 -188 -191 0
-154 -189 -190 0
-154 -189 -191 0
-154 -190 -191 0
-188 -189 -190 0
-188 -189 -191 0
-188 -190 -191 0
-189 -190 -191 0
110 139 154 188 189 190 191 0
103 139 154 188 189 190 191 0
103 110 154 188 189 190 191 0
103 110 139 188 189 190 191 0
103 110 139 154 189 190 191 0
103 110 139 154 188 190 191 0
103 110 139 154 188 189 191 0
103 110 139 154 188 189 190 0
-107 -114 -143 0
-107 -114 -158 0
-107 -114 -192 0
-107 -114 -193 0
-107 -114 -194 0
-107 -114 -195 0
-107 -143 -158 0
-107 -143 -192 0
-107 -143 -193 0
-107 -143 -194 0
-107 -143 -195 0
-107 -158 -192 0
-107 -158 -193 0
-107 -158 -194 0
-107 -158 -195 0
-107 -192 -193 0
-107 -192 -194 0
-107 -192 -195 0
-107 -193 -194 0
-107 -193 -195 0
-107 -194 -195 0
-114 -143 -158 0
-114 -143 -192 0
-114 -143 -193 0
-114 -143 -194 0
-114 -143 -195 0
-114 -158 -192 0
-114 -158 -193 0
-114 -158 -194 0
-114 -158 -195 0
-114 -192 -193 0
-114 -192 -194 0
-114 -192 -195 0
-114 -193 -194 0
-114 -193 -195 0
-114 -194 -195 0
-143 -158 -192 0
-143 -158 -193 0
-143 -158 -194 0
-143 -158 -195 0
-143 -192 -193 0
-143 -192 -194 0
-143 -192 -195 0
-143 -193 -194 0
-143 -193 -195 0
-143 -194 -195 0
-158 -192 -193 0
-158 -192 -194 0
-158 -192 -195 0
-158 -193 -194 0
-158 -193 -195 0
-158 -194 -195 0
-192 -193 -194 0
-192 -193 -195 0
-192 -194 -195 0
-193 -194 -195 0
114 143 158 192 193 194 195 0
107 143 158 192 193 194 195 0
107 114 158 192 193 194 195 0
107 114 143 192 193 194 195 0
107 114 143 158 193 194 195 0
107 114 143 158 192 194 195 0
107 114 143 158 192 193 195 0
107 114 143 158 192 193 194 0
-111 -118 -147 0
-111 -118 -162 0
-111 -118 -196 0
-111 -118 -197 0
-111 -118 -198 0
-111 -118 -199 0
-111 -147 -162 0
-111 -147 -196 0
-111 -147 -197 0
-111 -147 -198 0
-111 -147 -199 0
-111 -162 -196 0
-111 -162 -197 0
-111 -162 -198 0
-111 -162 -199 0
-111 -196 -197 0
-111 -196 -198 0
-111 -196 -199 0
-111 -197 -198 0
-111 -197 -199 0
-111 -198 -199 0
-118 -147 -162 0
-118 -147 -196 0
-118 -147 -197 0
-118 -147 -198 0
-118 -147 -199 0
-118 -162 -196 0
-118 -162 -197 0
-118 -162 -198 0
-118 -162 -199 0
-118 -196 -197 0
-118 -196 -198 0
-118 -196 -199 0
-118 -197 -198 0
-118 -197 -199 0
-118 -198 -199 0
-147 -162 -196 0
-147 -162 -197 0
-147 -162 -198 0
-147 -162 -199 0
-147 -196 -197 0
-147 -196 -198 0
-147 -196 -199 0
-147 -197 -198 0
-147 -197 -199 0
-147 -198 -199 0
-162 -196 -197 0
-162 -196 -198 0
-162 -196 -199 0
-162 -197 -198 0
-162 -197 -199 0
-162 -198 -199 0
-196 -197 -198 0
-196 -197 -199 0
-196 -198 -199 0
-197 -198 -199 0
118 147 162 196 197 198 199 0
111 147 162 196 197 198 199 0
111 118 162 196 197 198 199 0
111 118 147 196 197 198 199 0
111 118 147 162 197 198 199 0
111 118 147 162 196 198 199 0
111 118 147 162 196 197 199 0
111 118 147 162 196 197 198 0
-115 -122 -151 0
-115 -122 -166 0
-115 -122 -200 0
-115 -122 -201 0
-115 -122 -202 0
-115 -122 -203 0
-115 -151 -166 0
-115 -151 -200 0
-115 -151 -201 0
-115 -151 -202 0
-115 -151 -203 0
-115 -166 -200 0
-115 -166 -201 0
-115 -166 -202 0
-115 -166 -203 0
-115 -200 -201 0
-115 -200 -202 0
-115 -200 -203 0
-115 -201 -202 0
-115 -201 -203 0
-115 -202 -203 0
-122 -151 -166 0
-122 -151 -200 0
-122 -151 -201 0
-122 -151 -202 0
-122 -151 -203 0
-122 -166 -200 0
-122 -166 -201 0
-122 -166 -202 0
-122 -166 -203 0
-122 -200 -201 0
-122 -200 -202 0
-122 -200 -203 0
-122 -201 -202 0
-122 -201 -203 0
-122 -202 -203 0
-151 -166 -200 0
-151 -166 -201 0
-151 -166 -202 0
-151 -166 -203 0
-151 -200 -201 0
-151 -200 -202 0
-151 -200 -203 0
-151 -201 -202 0
-151 -201 -203 0
-151 -202 -203 0
-166 -200 -201 0
-166 -200 -202 0
-166 -200 -203 0
-166 -201 -202 0
-166 -201 -203 0
-166 -202 -203 0
-200 -201 -202 0
-200 -201 -203 0
-200 -202 -203 0
-201 -202 -203 0
122 151 166 200 201 202 203 0
115 151 166 200 201 202 203 0
115 122 166 200 201 202 203 0
115 122 151 200 201 202 203 0
115 122 151 166 201 202 203 0
115 122 151 166 200 202 203 0
115 122 151 166 200 201 203 0
115 122 151 166 200 201 202 0
-119 -125 -155 0
-119 -125 -168 0
-119 -125 -204 0
-119 -125 -205 0
-119 -125 -206 0
-119 -125 -207 0
-119 -155 -168 0
-119 -155 -204 0
-119 -155 -205 0
-119 -155 -206 0
-119 -155 -207 0
-119 -168 -204 0
-119 -168 -205 0
-119 -168 -206 0
-119 -168 -207 0
-119 -204 -205 0
-119 -204 -206 0
-119 -204 -207 0
-119 -205 -206 0
-119 -205 -207 0
-119 -206 -207 0
-125 -155 -168 0
-125 -155 -204 0
-125 -155 -205 0
-125 -155 -206 0
-125 -155 -207 0
-125 -168 -204 0
-125 -168 -205 0
-125 -168 -206 0
-125 -168 -207 0
-125 -204 -205 0
-125 -204 -206 0
-125 -204 -207 0
-125 -205 -206 0
-125 -205 -207 0
-125 -206 -207 0
-155 -168 -204 0
-155 -168 -205 0
-155 -168 -206 0
-155 -168 -207 0
-155 -204 -205 0
-155 -204 -206 0
-155 -204 -207 0
-155 -205 -206 0
-155 -205 -207 0
-155 -206 -207 0
-168 -204 -205 0
-168 -204 -206 0
-168 -204 -207 0
-168 -205 -206 0
-168 -205 -207 0
-168 -206 -207 0
-204 -205 -206 0
-204 -205 -207 0
-204 -206 -207 0
-205 -206 -207 0
125 155 168 204 205 206 207 0
119 155 168 204 205 206 207 0
119 125 168 204 205 206 207 0
119 125 155 204 205 206 207 0
119 125 155 168 205 206 207 0
119 125 155 168 204 206 207 0
119 125 155 168 204 205 207 0
119 125 155 168 204 205 206 0
-123 -159 -208 0
-123 -159 -209 0
-123 -208 -209 0
-159 -208 -209 0
-129 -136 -169 0
-129 -136 -180 0
-129 -136 -214 0
-129 -136 -215 0
-129 -136 -216 0
-129 -136 -217 0
-129 -169 -180 0
-129 -169 -214 0
-129 -169 -215 0
-129 -169 -216 0
-129 -169 -217 0
-129 -180 -214 0
-129 -180 -215 0
-129 -180 -216 0
-129 -180 -217 0
-129 -214 -215 0
-129 -214 -216 0
-129 -214 -217 0
-129 -215 -216 0
-129 -215 -217 0
-129 -216 -217 0
-136 -169 -180 0
-136 -169 -214 0
-136 -169 -215 0
-136 -169 -216 0
-136 -169 -217 0
-136 -180 -214 0
-136 -180 -215 0
-136 -180 -216 0
-136 -180 -217 0
-136 -214 -215 0
-136 -214 -216 0
-136 -214 -217 0
-136 -215 -216 0
-136 -215 -217 0
-136 -216 -217 0
-169 -180 -214 0
-169 -180 -215 0
-169 -180 -216 0
-169 -180 -217 0
-169 -214 -215 0
-169 -214 -216 0
-169 -214 -217 0
-169 -215 -216 0
-169 -215 -217 0
-169 -216 -217 0
-180 -214 -215 0
-180 -214 -216 0
-180 -214 -217 0
-180 -215 -216 0
-180 -215 -217 0
-180 -216 -217 0
-214 -215 -216 0
-214 -215 -217 0
-214 -216 -217 0
-215 -216 -217 0
136 169 180 214 215 216 217 0
129 169 180 214 215 216 217 0
129 136 180 214 215 216 217 0
129 136 169 214 215 216 217 0
129 136 169 180 215 216 217 0
129 136 169 180 214 216 217 0
129 136 169 180 214 215 217 0
129 136 169 180 214 215 216 0
-132 -176 -212 0
-132 -176 -213 0
-132 -212 -213 0
-176 -212 -213 0
-133 -140 -170 0
-133 -140 -184 0
-133 -140 -218 0
-133 -140 -219 0
-133 -140 -220 0
-133 -140 -221 0
-133 -170 -184 0
-133 -170 -218 0
-133 -170 -219 0
-133 -170 -220 0
-133 -170 -221 0
-133 -184 -218 0
-133 -184 -219 0
-133 -184 -220 0
-133 -184 -221 0
-133 -218 -219 0
-133 -218 -220 0
-133 -218 -221 0
-133 -219 -220 0
-133 -219 -221 0
-133 -220 -221 0
-140 -170 -184 0
-140 -170 -218 0
-140 -170 -219 0
-140 -170 -220 0
-140 -170 -221 0
-140 -184 -218 0
-140 -184 -219 0
-140 -184 -220 0
-140 -184 -221 0
-140 -218 -219 0
-140 -218 -220 0
-140 -218 -221 0
-140 -219 -220 0
-140 -219 -221 0
-140 -220 -221 0
-170 -184 -218 0
-170 -184 -219 0
-170 -184 -220 0
-170 -184 -221 0
-170 -218 -219 0
-170 -218 -220 0
-170 -218 -221 0
-170 -219 -220 0
-170 -219 -221 0
-170 -220 -221 0
-184 -218 -219 0
-184 -218 -220 0
-184 -218 -221 0
-184 -219 -220 0
-184 -219 -221 0
-184 -220 -221 0
-218 -219 -220 0
-218 -219 -221 0
-218 -220 -221 0
-219 -220 -221 0
140 170 184 218 219 220 221 0
133 170 184 218 219 220 221 0
133 140 184 218 219 220 221 0
133 140 170 218 219 220 221 0
133 140 170 184 219 220 221 0
133 140 170 184 218 220 221 0
133 140 170 184 218 219 221 0
133 140 170 184 218 219 220 0
-137 -144 -173 0
-137 -144 -188 0
-137 -144 -222 0
-137 -144 -223 0
-137 -144 -224 0
-137 -144 -225 0
-137 -173 -188 0
-137 -173 -222 0
-137 -173 -223 0
-137 -173 -224 0
-137 -173 -225 0
-137 -188 -222 0
-137 -188 -223 0
-137 -188 -224 0
-137 -188 -225 0
-137 -222 -223 0
-137 -222 -224 0
-137 -222 -225 0
-137 -223 -224 0
-137 -223 -225 0
-137 -224 -225 0
-144 -173 -188 0
-144 -173 -222 0
-144 -173 -223 0
-144 -173 -224 0
-144 -173 -225 0
-144 -188 -222 0
-144 -188 -223 0
-144 -188 -224 0
-144 -188 -225 0
-144 -222 -223 0
-144 -222 -224 0
-144 -222 -225 0
-144 -223 -224 0
-144 -223 -225 0
-144 -224 -225 0
-173 -188 -222 0
-173 -188 -223 0
-173 -188 -224 0
-173 -188 -225 0
-173 -222 -223 0
-173 -222 -224 0
-173 -222 -225 0
-173 -223 -224 0
-173 -223 -225 0
-173 -224 -225 0
-188 -222 -223 0
-188 -222 -224 0
-188 -222 -225 0
-188 -223 -224 0
-188 -223 -225 0
-188 -224 -225 0
-222 -223 -224 0
-222 -223 -225 0
-222 -224 -225 0
-223 -224 -225 0
144 173 188 222 223 224 225 0
137 173 188 222 223 224 225 0
137 144 188 222 223 224 225 0
137 144 173 222 223 224 225 0
137 144 173 188 223 224 225 0
137 144 173 188 222 224 225 0
137 144 173 188 222 223 225 0
137 144 173 188 222 223 224 0
-141 -148 -177 0
-141 -148 -192 0
-141 -148 -226 0
-141 -148 -227 0
-141 -148 -228 0
-141 -148 -229 0
-141 -177 -192 0
-141 -177 -226 0
-141 -177 -227 0
-141 -177 -228 0
-141 -177 -229 0
-141 -192 -226 0
-141 -192 -227 0
-141 -192 -228 0
-141 -192 -229 0
-141 -226 -227 0
-141 -226 -228 0
-141 -226 -229 0
-141 -227 -228 0
-141 -227 -229 0
-141 -228 -229 0
-148 -177 -192 0
-148 -177 -226 0
-148 -177 -227 0
-148 -177 -228 0
-148 -177 -229 0
-148 -192 -226 0
-148 -192 -227 0
-148 -192 -228 0
-148 -192 -229 0
-148 -226 -227 0
-148 -226 -228 0
-148 -226 -229 0
-148 -227 -228 0
-148 -227 -229 0
-148 -228 -229 0
-177 -192 -226 0
-177 -192 -227 0
-177 -192 -228 0
-177 -192 -229 0
-177 -226 -227 0
-177 -226 -228 0
-177 -226 -229 0
-177 -227 -228 0
-177 -227 -229 0
-177 -228 -229 0
-192 -226 -227 0
-192 -226 -228 0
-192 -226 -229 0
-192 -227 -228 0
-192 -227 -229 0
-192 -228 -229 0
-226 -227 -228 0
-226 -227 -229 0
-226 -228 -229 0
-227 -228 -229 0
148 177 192 226 227 228 229 0
141 177 192 226 227 228 229 0
141 148 192 226 227 228 229 0
141 148 177 226 227 228 229 0
141 148 177 192 227 228 229 0
141 148 177 192 226 228 229 0
141 148 177 192 226 227 229 0
141 148 177 192 226 227 228 0
-145 -152 -181 0
-145 -152 -196 0
-145 -152 -230 0
-145 -152 -231 0
-145 -152 -232 0
-145 -152 -233 0
-145 -181 -196 0
-145 -181 -230 0
-145 -181 -231 0
-145 -181 -232 0
-145 -181 -233 0
-145 -196 -230 0
-145 -196 -231 0
-145 -196 -232 0
-145 -196 -233 0
-145 -230 -231 0
-145 -230 -232 0
-145 -230 -233 0
-145 -231 -232 0
-145 -231 -233 0
-145 -232 -233 0
-152 -181 -196 0
-152 -181 -230 0
-152 -181 -231 0
-152 -181 -232 0
-152 -181 -233 0
-152 -196 -230 0
-152 -196 -231 0
-152 -196 -232 0
-152 -196 -233 0
-152 -230 -231 0
-152 -230 -232 0
-152 -230 -233 0
-152 -231 -232 0
-152 -231 -233 0
-152 -232 -233 0
-181 -196 -230 0
-181 -196 -231 0
-181 -196 -232 0
-181 -196 -233 0
-181 -230 -231 0
-181 -230 -232 0
-181 -230 -233 0
-181 -231 -232 0
-181 -231 -233 0
-181 -232 -233 0
-196 -230 -231 0
-196 -230 -232 0
-196 -230 -233 0
-196 -231 -232 0
-196 -231 -233 0
-196 -232 -233 0
-230 -231 -232 0
-230 -231 -233 0
-230 -232 -233 0
-231 -232 -233 0
152 181 196 230 231 232 233 0
145 181 196 230 231 232 233 0
145 152 196 230 231 232 233 0
145 152 181 230 231 232 233 0
145 152 181 196 231 232 233 0
145 152 181 196 230 232 233 0
145 152 181 196 230 231 233 0
145 152 181 196 230 231 232 0
-149 -156 -185 0
-149 -156 -200 0
-149 -156 -234 0
-149 -156 -235 0
-149 -156 -236 0
-149 -156 -237 0
-149 -185 -200 0
-149 -185 -234 0
-149 -185 -235 0
-149 -185 -236 0
-149 -185 -237 0
-149 -200 -234 0
-149 -200 -235 0
-149 -200 -236 0
-149 -200 -237 0
-149 -234 -235 0
-149 -234 -236 0
-149 -234 -237 0
-149 -235 -236 0
-149 -235 -237 0
-149 -236 -237 0
-156 -185 -200 0
-156 -185 -234 0
-156 -185 -235 0
-156 -185 -236 0
-156 -185 -237 0
-156 -200 -234 0
-156 -200 -235 0
-156 -200 -236 0
-156 -200 -237 0
-156 -234 -235 0
-156 -234 -236 0
-156 -234 -237 0
-156 -235 -236 0
-156 -235 -237 0
-156 -236 -237 0
-185 -200 -234 0
-185 -200 -235 0
-185 -200 -236 0
-185 -200 -237 0
-185 -234 -235 0
-185 -234 -236 0
-185 -234 -237 0
-185 -235 -236 0
-185 -235 -237 0
-185 -236 -237 0
-200 -234 -235 0
-200 -234 -236 0
-200 -234 -237 0
-200 -235 -236 0
-200 -235 -237 0
-200 -236 -237 0
-234 -235 -236 0
-234 -235 -237 0
-234 -236 -237 0
-235 -236 -237 0
156 185 200 234 235 236 237 0
149 185 200 234 235 236 237 0
149 156 200 234 235 236 237 0
149 156 185 234 235 236 237 0
149 156 185 200 235 236 237 0
149 156 185 200 234 236 237 0
149 156 185 200 234 235 237 0
149 156 185 200 234 235 236 0
-153 -160 -189 0
-153 -160 -204 0
-153 -160 -238 0
-153 -160 -239 0
-153 -160 -240 0
-153 -160 -241 0
-153 -189 -204 0
-153 -189 -238 0
-153 -189 -239 0
-153 -189 -240 0
-153 -189 -241 0
-153 -204 -238 0
-153 -204 -239 0
-153 -204 -240 0
-153 -204 -241 0
-153 -238 -239 0
-153 -238 -240 0
-153 -238 -241 0
-153 -239 -240 0
-153 -239 -241 0
-153 -240 -241 0
-160 -189 -204 0
-160 -189 -238 0
-160 -189 -239 0
-160 -189 -240 0
-160 -189 -241 0
-160 -204 -238 0
-160 -204 -239 0
-160 -204 -240 0
-160 -204 -241 0
-160 -238 -239 0
-160 -238 -240 0
-160 -238 -241 0
-160 -239 -240 0
-160 -239 -241 0
-160 -240 -241 0
-189 -204 -238 0
-189 -204 -239 0
-189 -204 -240 0
-189 -204 -241 0
-189 -238 -239 0
-189 -238 -240 0
-189 -238 -241 0
-189 -239 -240 0
-189 -239 -241 0
-189 -240 -241 0
-204 -238 -239 0
-204 -238 -240 0
-204 -238 -241 0
-204 -239 -240 0
-204 -239 -241 0
-204 -240 -241 0
-238 -239 -240 0
-238 -239 -241 0
-238 -240 -241 0
-239 -240 -241 0
160 189 204 238 239 240 241 0
153 189 204 238 239 240 241 0
153 160 204 238 239 240 241 0
153 160 189 238 239 240 241 0
153 160 189 204 239 240 241 0
153 160 189 204 238 240 241 0
153 160 189 204 238 239 241 0
153 160 189 204 238 239 240 0
-157 -164 -193 0
-157 -164 -208 0
-157 -164 -242 0
-157 -164 -243 0
-157 -164 -244 0
-157 -164 -245 0
-157 -193 -208 0
-157 -193 -242 0
-157 -193 -243 0
-157 -193 -244 0
-157 -193 -245 0
-157 -208 -242 0
-157 -208 -243 0
-157 -208 -244 0
-157 -208 -245 0
-157 -242 -243 0
-157 -242 -244 0
-157 -242 -245 0
-157 -243 -244 0
-157 -243 -245 0
-157 -244 -245 0
-164 -193 -208 0
-164 -193 -242 0
-164 -193 -243 0
-164 -193 -244 0
-164 -193 -245 0
-164 -208 -242 0
-164 -208 -243 0
-164 -208 -244 0
-164 -208 -245 0
-164 -242 -243 0
-164 -242 -244 0
-164 -242 -245 0
-164 -243 -244 0
-164 -243 -245 0
-164 -244 -245 0
-193 -208 -242 0
-193 -208 -243 0
-193 -208 -244 0
-193 -208 -245 0
-193 -242 -243 0
-193 -242 -244 0
-193 -242 -245 0
-193 -243 -244 0
-193 -243 -245 0
-193 -244 -245 0
-208 -242 -243 0
-208 -242 -244 0
-208 -242 -245 0
-208 -243 -244 0
-208 -243 -245 0
-208 -244 -245 0
-242 -243 -244 0
-242 -243 -245 0
-242 -244 -245 0
-243 -244 -245 0
164 193 208 242 243 244 245 0
157 193 208 242 243 244 245 0
157 164 208 242 243 244 245 0
157 164 193 242 243 244 245 0
157 164 193 208 243 244 245 0
157 164 193 208 242 244 245 0
157 164 193 208 242 243 245 0
157 164 193 208 242 243 244 0
-161 -167 -197 0
-161 -167 -210 0
-161 -167 -246 0
-161 -167 -247 0
-161 -167 -248 0
-161 -167 -249 0
-161 -197 -210 0
-161 -197 -246 0
-161 -197 -247 0
-161 -197 -248 0
-161 -197 -249 0
-161 -210 -246 0
-161 -210 -247 0
-161 -210 -248 0
-161 -210 -249 0
-161 -246 -247 0
-161 -246 -248 0
-161 -246 -249 0
-161 -247 -248 0
-161 -247 -249 0
-161 -248 -249 0
-167 -197 -210 0
-167 -197 -246 0
-167 -197 -247 0
-167 -197 -248 0
-167 -197 -249 0
-167 -210 -246 0
-167 -210 -247 0
-167 -210 -248 0
-167 -210 -249 0
-167 -246 -247 0
-167 -246 -248 0
-167 -246 -249 0
-167 -247 -248 0
-167 -247 -249 0
-167 -248 -249 0
-197 -210 -246 0
-197 -210 -247 0
-197 -210 -248 0
-197 -210 -249 0
-197 -246 -247 0
-197 -246 -248 0
-197 -246 -249 0
-197 -247 -248 0
-197 -247 -249 0
-197 -248 -249 0
-210 -246 -247 0
-210 -246 -248 0
-210 -246 -249 0
-210 -247 -248 0
-210 -247 -249 0
-210 -248 -249 0
-246 -247 -248 0
-246 -247 -249 0
-246 -248 -249 0
-247 -248 -249 0
167 197 210 246 247 248 249 0
161 197 210 246 247 248 249 0
161 167 210 246 247 248 249 0
161 167 197 246 247 248 249 0
161 167 197 210 247 248 249 0
161 167 197 210 246 248 249 0
161 167 197 210 246 247 249 0
161 167 197 210 246 247 248 0
-165 -201 -250 0
-165 -201 -251 0
-165 -250 -251 0
-201 -250 -251 0
-171 -178 -211 0
-171 -178 -222 0
-171 -178 -256 0
-171 -178 -257 0
-171 -178 -258 0
-171 -178 -259 0
-171 -211 -222 0
-171 -211 -256 0
-171 -211 -257 0
-171 -211 -258 0
-171 -211 -259 0
-171 -222 -256 0
-171 -222 -257 0
-171 -222 -258 0
-171 -222 -259 0
-171 -256 -257 0
-171 -256 -258 0
-171 -256 -259 0
-171 -257 -258 0
-171 -257 -259 0
-171 -258 -259 0
-178 -211 -222 0
-178 -211 -256 0
-178 -211 -257 0
-178 -211 -258 0
-178 -211 -259 0
-178 -222 -256 0
-178 -222 -257 0
-178 -222 -258 0
-178 -222 -259 0
-178 -256 -257 0
-178 -256 -258 0
-178 -256 -259 0
-178 -257 -258 0
-178 -257 -259 0
-178 -258 -259 0
-211 -222 -256 0
-211 -222 -257 0
-211 -222 -258 0
-211 -222 -259 0
-211 -256 -257 0
-211 -256 -258 0
-211 -256 -259 0
-211 -257 -258 0
-211 -257 -259 0
-211 -258 -259 0
-222 -256 -257 0
-222 -256 -258 0
-222 -256 -259 0
-222 -257 -258 0
-222 -257 -259 0
-222 -258 -259 0
-256 -257 -258 0
-256 -257 -259 0
-256 -258 -259 0
-257 -258 -259 0
178 211 222 256 257 258 259 0
171 211 222 256 257 258 259 0
171 178 222 256 257 258 259 0
171 178 211 256 257 258 259 0
171 178 211 222 257 258 259 0
171 178 211 222 256 258 259 0
171 178 211 222 256 257 259 0
171 178 211 222 256 257 258 0
-174 -218 -254 0
-174 -218 -255 0
-174 -254 -255 0
-218 -254 -255 0
-175 -182 -212 0
-175 -182 -226 0
-175 -182 -260 0
-175 -182 -261 0
-175 -182 -262 0
-175 -182 -263 0
-175 -212 -226 0
-175 -212 -260 0
-175 -212 -261 0
-175 -212 -262 0
-175 -212 -263 0
-175 -226 -260 0
-175 -226 -261 0
-175 -226 -262 0
-175 -226 -263 0
-175 -260 -261 0
-175 -260 -262 0
-175 -260 -263 0
-175 -261 -262 0
-175 -261 -263 0
-175 -262 -263 0
-182 -212 -226 0
-182 -212 -260 0
-182 -212 -261 0
-182 -212 -262 0
-182 -212 -263 0
-182 -226 -260 0
-182 -226 -261 0
-182 -226 -262 0
-182 -226 -263 0
-182 -260 -261 0
-182 -260 -262 0
-182 -260 -263 0
-182 -261 -262 0
-182 -261 -263 0
-182 -262 -263 0
-212 -226 -260 0
-212 -226 -261 0
-212 -226 -262 0
-212 -226 -263 0
-212 -260 -261 0
-212 -260 -262 0
-212 -260 -263 0
-212 -261 -262 0
-212 -261 -263 0
-212 -262 -263 0
-226 -260 -261 0
-226 -260 -262 0
-226 -260 -263 0
-226 -261 -262 0
-226 -261 -263 0
-226 -262 -263 0
-260 -261 -262 0
-260 -261 -263 0
-260 -262 -263 0
-261 -262 -263 0
182 212 226 260 261 262 263 0
175 212 226 260 261 262 263 0
175 182 226 260 261 262 263 0
175 182 212 260 261 262 263 0
175 182 212 226 261 262 263 0
175 182 212 226 260 262 263 0
175 182 212 226 260 261 263 0
175 182 212 226 260 261 262 0
-179 -186 -215 0
-179 -186 -230 0
-179 -186 -264 0
-179 -186 -265 0
-179 -186 -266 0
-179 -186 -267 0
-179 -215 -230 0
-179 -215 -264 0
-179 -215 -265 0
-179 -215 -266 0
-179 -215 -267 0
-179 -230 -264 0
-179 -230 -265 0
-179 -230 -266 0
-179 -230 -267 0
-179 -264 -265 0
-179 -264 -266 0
-179 -264 -267 0
-179 -265 -266 0
-179 -265 -267 0
-179 -266 -267 0
-186 -215 -230 0
-186 -215 -264 0
-186 -215 -265 0
-186 -215 -266 0
-186 -215 -267 0
-186 -230 -264 0
-186 -230 -265 0
-186 -230 -266 0
-186 -230 -267 0
-186 -264 -265 0
-186 -264 -266 0
-186 -264 -267 0
-186 -265 -266 0
-186 -265 -267 0
-186 -266 -267 0
-215 -230 -264 0
-215 -230 -265 0
-215 -230 -266 0
-215 -230 -267 0
-215 -264 -265 0
-215 -264 -266 0
-215 -264 -267 0
-215 -265 -266 0
-215 -265 -267 0
-215 -266 -267 0
-230 -264 -265 0
-230 -264 -266 0
-230 -264 -267 0
-230 -265 -266 0
-230 -265 -267 0
-230 -266 -267 0
-264 -265 -266 0
-264 -265 -267 0
-264 -266 -267 0
-265 -266 -267 0
186 215 230 264 265 266 267 0
179 215 230 264 265 266 267 0
179 186 230 264 265 266 267 0
179 186 215 264 265 266 267 0
179 186 215 230 265 266 267 0
179 186 215 230 264 266 267 0
179 186 215 230 264 265 267 0
179 186 215 230 264 265 266 0
-183 -190 -219 0
-183 -190 -234 0
-183 -190 -268 0
-183 -190 -269 0
-183 -190 -270 0
-183 -190 -271 0
-183 -219 -234 0
-183 -219 -268 0
-183 -219 -269 0
-183 -219 -270 0
-183 -219 -271 0
-183 -234 -268 0
-183 -234 -269 0
-183 -234 -270 0
-183 -234 -271 0
-183 -268 -269 0
-183 -268 -270 0
-183 -268 -271 0
-183 -269 -270 0
-183 -269 -271 0
-183 -270 -271 0
-190 -219 -234 0
-190 -219 -268 0
-190 -219 -269 0
-190 -219 -270 0
-190 -219 -271 0
-190 -234 -268 0
-190 -234 -269 0
-190 -234 -270 0
-190 -234 -271 0
-190 -268 -269 0
-190 -268 -270 0
-190 -268 -271 0
-190 -269 -270 0
-190 -269 -271 0
-190 -270 -271 0
-219 -234 -268 0
-219 -234 -269 0
-219 -234 -270 0
-219 -234 -271 0
-219 -268 -269 0
-219 -268 -270 0
-219 -268 -271 0
-219 -269 -270 0
-219 -269 -271 0
-219 -270 -271 0
-234 -268 -269 0
-234 -268 -270 0
-234 -268 -271 0
-234 -269 -270 0
-234 -269 -271 0
-234 -270 -271 0
-268 -269 -270 0
-268 -269 -271 0
-268 -270 -271 0
-269 -270 -271 0
190 219 234 268 269 270 271 0
183 219 234 268 269 270 271 0
183 190 234 268 269 270 271 0
183 190 219 268 269 270 271 0
183 190 219 234 269 270 271 0
183 190 219 234 268 270 271 0
183 190 219 234 268 269 271 0
183 190 219 234 268 269 270 0
-187 -194 -223 0
-187 -194 -238 0
-187 -194 -272 0
-187 -194 -273 0
-187 -194 -274 0
-187 -194 -275 0
-187 -223 -238 0
-187 -223 -272 0
-187 -223 -273 0
-187 -223 -274 0
-187 -223 -275 0
-187 -238 -272 0
-187 -238 -273 0
-187 -238 -274 0
-187 -238 -275 0
-187 -272 -273 0
-187 -272 -274 0
-187 -272 -275 0
-187 -273 -274 0
-187 -273 -275 0
-187 -274 -275 0
-194 -223 -238 0
-194 -223 -272 0
-194 -223 -273 0
-194 -223 -274 0
-194 -223 -275 0
-194 -238 -272 0
-194 -238 -273 0
-194 -238 -274 0
-194 -238 -275 0
-194 -272 -273 0
-194 -272 -274 0
-194 -272 -275 0
-194 -273 -274 0
-194 -273 -275 0
-194 -274 -275 0
-223 -238 -272 0
-223 -238 -273 0
-223 -238 -274 0
-223 -238 -275 0
-223 -272 -273 0
-223 -272 -274 0
-223 -272 -275 0
-223 -273 -274 0
-223 -273 -275 0
-223 -274 -275 0
-238 -272 -273 0
-238 -272 -274 0
-238 -272 -275 0
-238 -273 -274 0
-238 -273 -275 0
-238 -274 -275 0
-272 -273 -274 0
-272 -273 -275 0
-272 -274 -275 0
-273 -274 -275 0
194 223 238 272 273 274 275 0
187 223 238 272 273 274 275 0
187 194 238 272 273 274 275 0
187 194 223 272 273 274 275 0
187 194 223 238 273 274 275 0
187 194 223 238 272 274 275 0
187 194 223 238 272 273 275 0
187 194 223 238 272 273 274 0
-191 -198 -227 0
-191 -198 -242 0
-191 -198 -276 0
-191 -198 -277 0
-191 -198 -278 0
-191 -198 -279 0
-191 -227 -242 0
-191 -227 -276 0
-191 -227 -277 0
-191 -227 -278 0
-191 -227 -279 0
-191 -242 -276 0
-191 -242 -277 0
-191 -242 -278 0
-191 -242 -279 0
-191 -276 -277 0
-191 -276 -278 0
-191 -276 -279 0
-191 -277 -278 0
-191 -277 -279 0
-191 -278 -279 0
-198 -227 -242 0
-198 -227 -276 0
-198 -227 -277 0
-198 -227 -278 0
-198 -227 -279 0
-198 -242 -276 0
-198 -242 -277 0
-198 -242 -278 0
-198 -242 -279 0
-198 -276 -277 0
-198 -276 -278 0
-198 -276 -279 0
-198 -277 -278 0
-198 -277 -279 0
-198 -278 -279 0
-227 -242 -276 0
-227 -242 -277 0
-227 -242 -278 0
-227 -242 -279 0
-227 -276 -277 0
-227 -276 -278 0
-227 -276 -279 0
-227 -277 -278 0
-227 -277 -279 0
-227 -278 -279 0
-242 -276 -277 0
-242 -276 -278 0
-242 -276 -279 0
-242 -277 -278 0
-242 -277 -279 0
-242 -278 -279 0
-276 -277 -278 0
-276 -277 -279 0
-276 -278 -279 0
-277 -278 -279 0
198 227 242 276 277 278 279 0
191 227 242 276 277 278 279 0
191 198 242 276 277 278 279 0
191 198 227 276 277 278 279 0
191 198 227 242 277 278 279 0
191 198 227 242 276 278 279 0
191 198 227 242 276 277 279 0
191 198 227 242 276 277 278 0
-195 -202 -231 0
-195 -202 -246 0
-195 -202 -280 0
-195 -202 -281 0
-195 -202 -282 0
-195 -202 -283 0
-195 -231 -246 0
-195 -231 -280 0
-195 -231 -281 0
-195 -231 -282 0
-195 -231 -283 0
-195 -246 -280 0
-195 -246 -281 0
-195 -246 -282 0
-195 -246 -283 0
-195 -280 -281 0
-195 -280 -282 0
-195 -280 -283 0
-195 -281 -282 0
-195 -281 -283 0
-195 -282 -283 0
-202 -231 -246 0
-202 -231 -280 0
-202 -231 -281 0
-202 -231 -282 0
-202 -231 -283 0
-202 -246 -280 0
-202 -246 -281 0
-202 -246 -282 0
-202 -246 -283 0
-202 -280 -281 0
-202 -280 -282 0
-202 -280 -283 0
-202 -281 -282 0
-202 -281 -283 0
-202 -282 -283 0
-231 -246 -280 0
-231 -246 -281 0
-231 -246 -282 0
-231 -246 -283 0
-231 -280 -281 0
-231 -280 -282 0
-231 -280 -283 0
-231 -281 -282 0
-231 -281 -283 0
-231 -282 -283 0
-246 -280 -281 0
-246 -280 -282 0
-246 -280 -283 0
-246 -281 -282 0
-246 -281 -283 0
-246 -282 -283 0
-280 -281 -282 0
-280 -281 -283 0
-280 -282 -283 0
-281 -282 -283 0
202 231 246 280 281 282 283 0
195 231 246 280 281 282 283 0
195 202 246 280 281 282 283 0
195 202 231 280 281 282 283 0
195 202 231 246 281 282 283 0
195 202 231 246 280 282 283 0
195 202 231 246 280 281 283 0
195 202 231 246 280 281 282 0
-199 -206 -235 0
-199 -206 -250 0
-199 -206 -284 0
-199 -206 -285 0
-199 -206 -286 0
-199 -206 -287 0
-199 -235 -250 0
-199 -235 -284 0
-199 -235 -285 0
-199 -235 -286 0
-199 -235 -287 0
-199 -250 -284 0
-199 -250 -285 0
-199 -250 -286 0
-199 -250 -287 0
-199 -284 -285 0
-199 -284 -286 0
-199 -284 -287 0
-199 -285 -286 0
-199 -285 -287 0
-199 -286 -287 0
-206 -235 -250 0
-206 -235 -284 0
-206 -235 -285 0
-206 -235 -286 0
-206 -235 -287 0
-206 -250 -284 0
-206 -250 -285 0
-206 -250 -286 0
-206 -250 -287 0
-206 -284 -285 0
-206 -284 -286 0
-206 -284 -287 0
-206 -285 -286 0
-206 -285 -287 0
-206 -286 -287 0
-235 -250 -284 0
-235 -250 -285 0
-235 -250 -286 0
-235 -250 -287 0
-235 -284 -285 0
-235 -284 -286 0
-235 -284 -287 0
-235 -285 -286 0
-235 -285 -287 0
-235 -286 -287 0
-250 -284 -285 0
-250 -284 -286 0
-250 -284 -287 0
-250 -285 -286 0
-250 -285 -287 0
-250 -286 -287 0
-284 -285 -286 0
-284 -285 -287 0
-284 -286 -287 0
-285 -286 -287 0
206 235 250 284 285 286 287 0
199 235 250 284 285 286 287 0
199 206 250 284 285 286 287 0
199 206 235 284 285 286 287 0
199 206 235 250 285 286 287 0
199 206 235 250 284 286 287 0
199 206 235 250 284 285 287 0
199 206 235 250 284 285 286 0
-203 -209 -239 0
-203 -209 -252 0
-203 -209 -288 0
-203 -209 -289 0
-203 -209 -290 0
-203 -209 -291 0
-203 -239 -252 0
-203 -239 -288 0
-203 -239 -289 0
-203 -239 -290 0
-203 -239 -291 0
-203 -252 -288 0
-203 -252 -289 0
-203 -252 -290 0
-203 -252 -291 0
-203 -288 -289 0
-203 -288 -290 0
-203 -288 -291 0
-203 -289 -290 0
-203 -289 -291 0
-203 -290 -291 0
-209 -239 -252 0
-209 -239 -288 0
-209 -239 -289 0
-209 -239 -290 0
-209 -239 -291 0
-209 -252 -288 0
-209 -252 -289 0
-209 -252 -290 0
-209 -252 -291 0
-209 -288 -289 0
-209 -288 -290 0
-209 -288 -291 0
-209 -289 -290 0
-209 -289 -291 0
-209 -290 -291 0
-239 -252 -288 0
-239 -252 -289 0
-239 -252 -290 0
-239 -252 -291 0
-239 -288 -289 0
-239 -288 -290 0
-239 -288 -291 0
-239 -289 -290 0
-239 -289 -291 0
-239 -290 -291 0
-252 -288 -289 0
-252 -288 -290 0
-252 -288 -291 0
-252 -289 -290 0
-252 -289 -291 0
-252 -290 -291 0
-288 -289 -290 0
-288 -289 -291 0
-288 -290 -291 0
-289 -290 -291 0
209 239 252 288 289 290 291 0
203 239 252 288 289 290 291 0
203 209 252 288 289 290 291 0
203 209 239 288 289 290 291 0
203 209 239 252 289 290 291 0
203 209 239 252 288 290 291 0
203 209 239 252 288 289 291 0
203 209 239 252 288 289 290 0
-207 -243 -292 0
-207 -243 -293 0
-207 -292 -293 0
-243 -292 -293 0
-213 -220 -253 0
-213 -220 -264 0
-213 -220 -298 0
-213 -220 -299 0
-213 -220 -300 0
-213 -220 -301 0
-213 -253 -264 0
-213 -253 -298 0
-213 -253 -299 0
-213 -253 -300 0
-213 -253 -301 0
-213 -264 -298 0
-213 -264 -299 0
-213 -264 -300 0
-213 -264 -301 0
-213 -298 -299 0
-213 -298 -300 0
-213 -298 -301 0
-213 -299 -300 0
-213 -299 -301 0
-213 -300 -301 0
-220 -253 -264 0
-220 -253 -298 0
-220 -253 -299 0
-220 -253 -300 0
-220 -253 -301 0
-220 -264 -298 0
-220 -264 -299 0
-220 -264 -300 0
-220 -264 -301 0
-220 -298 -299 0
-220 -298 -300 0
-220 -298 -301 0
-220 -299 -300 0
-220 -299 -301 0
-220 -300 -301 0
-253 -264 -298 0
-253 -264 -299 0
-253 -264 -300 0
-253 -264 -301 0
-253 -298 -299 0
-253 -298 -300 0
-253 -298 -301 0
-253 -299 -300 0
-253 -299 -301 0
-253 -300 -301 0
-264 -298 -299 0
-264 -298 -300 0
-264 -298 -301 0
-264 -299 -300 0
-264 -299 -301 0
-264 -300 -301 0
-298 -299 -300 0
-298 -299 -301 0
-298 -300 -301 0
-299 -300 -301 0
220 253 264 298 299 300 301 0
213 253 264 298 299 300 301 0
213 220 264 298 299 300 301 0
213 220 253 298 299 300 301 0
213 220 253 264 299 300 301 0
213 220 253 264 298 300 301 0
213 220 253 264 298 299 301 0
213 220 253 264 298 299 300 0
-216 -260 -296 0
-216 -260 -297 0
-216 -296 -297 0
-260 -296 -297 0
-217 -224 -254 0
-217 -224 -268 0
-217 -224 -302 0
-217 -224 -303 0
-217 -224 -304 0
-217 -224 -305 0
-217 -254 -268 0
-217 -254 -302 0
-217 -254 -303 0
-217 -254 -304 0
-217 -254 -305 0
-217 -268 -302 0
-217 -268 -303 0
-217 -268 -304 0
-217 -268 -305 0
-217 -302 -303 0
-217 -302 -304 0
-217 -302 -305 0
-217 -303 -304 0
-217 -303 -305 0
-217 -304 -305 0
-224 -254 -268 0
-224 -254 -302 0
-224 -254 -303 0
-224 -254 -304 0
-224 -254 -305 0
-224 -268 -302 0
-224 -268 -303 0
-224 -268 -304 0
-224 -268 -305 0
-224 -302 -303 0
-224 -302 -304 0
-224 -302 -305 0
-224 -303 -304 0
-224 -303 -305 0
-224 -304 -305 0
-254 -268 -302 0
-254 -268 -303 0
-254 -268 -304 0
-254 -268 -305 0
-254 -302 -303 0
-254 -302 -304 0
-254 -302 -305 0
-254 -303 -304 0
-254 -303 -305 0
-254 -304 -305 0
-268 -302 -303 0
-268 -302 -304 0
-268 -302 -305 0
-268 -303 -304 0
-268 -303 -305 0
-268 -304 -305 0
-302 -303 -304 0
-302 -303 -305 0
-302 -304 -305 0
-303 -304 -305 0
224 254 268 302 303 304 305 0
217 254 268 302 303 304 305 0
217 224 268 302 303 304 305 0
217 224 254 302 303 304 305 0
217 224 254 268 303 304 305 0
217 224 254 268 302 304 305 0
217 224 254 268 302 303 305 0
217 224 254 268 302 303 304 0
-221 -228 -257 0
-221 -228 -272 0
-221 -228 -306 0
-221 -228 -307 0
-221 -228 -308 0
-221 -228 -309 0
-221 -257 -272 0
-221 -257 -306 0
-221 -257 -307 0
-221 -257 -308 0
-221 -257 -309 0
-221 -272 -306 0
-221 -272 -307 0
-221 -272 -308 0
-221 -272 -309 0
-221 -306 -307 0
-221 -306 -308 0
-221 -306 -309 0
-221 -307 -308 0
-221 -307 -309 0
-221 -308 -309 0
-228 -257 -272 0
-228 -257 -306 0
-228 -257 -307 0
-228 -257 -308 0
-228 -257 -309 0
-228 -272 -306 0
-228 -272 -307 0
-228 -272 -308 0
-228 -272 -309 0
-228 -306 -307 0
-228 -306 -308 0
-228 -306 -309 0
-228 -307 -308 0
-228 -307 -309 0
-228 -308 -309 0
-257 -272 -306 0
-257 -272 -307 0
-257 -272 -308 0
-257 -272 -309 0
-257 -306 -307 0
-257 -306 -308 0
-257 -306 -309 0
-257 -307 -308 0
-257 -307 -309 0
-257 -308 -309 0
-272 -306 -307 0
-272 -306 -308 0
-272 -306 -309 0
-272 -307 -308 0
-272 -307 -309 0
-272 -308 -309 0
-306 -307 -308 0
-306 -307 -309 0
-306 -308 -309 0
-307 -308 -309 0
228 257 272 306 307 308 309 0
221 257 272 306 307 308 309 0
221 228 272 306 307 308 309 0
221 228 257 306 307 308 309 0
221 228 257 272 307 308 309 0
221 228 257 272 306 308 309 0
221 228 257 272 306 307 309 0
221 228 257 272 306 307 308 0
-225 -232 -261 0
-225 -232 -276 0
-225 -232 -310 0
-225 -232 -311 0
-225 -232 -312 0
-225 -232 -313 0
-225 -261 -276 0
-225 -261 -310 0
-225 -261 -311 0
-225 -261 -312 0
-225 -261 -313 0
-225 -276 -310 0
-225 -276 -311 0
-225 -276 -312 0
-225 -276 -313 0
-225 -310 -311 0
-225 -310 -312 0
-225 -310 -313 0
-225 -311 -312 0
-225 -311 -313 0
-225 -312 -313 0
-232 -261 -276 0
-232 -261 -310 0
-232 -261 -311 0
-232 -261 -312 0
-232 -261 -313 0
-232 -276 -310 0
-232 -276 -311 0
-232 -276 -312 0
-232 -276 -313 0
-232 -310 -311 0
-232 -310 -312 0
-232 -310 -313 0
-232 -311 -312 0
-232 -311 -313 0
-232 -312 -313 0
-261 -276 -310 0
-261 -276 -311 0
-261 -276 -312 0
-261 -276 -313 0
-261 -310 -311 0
-261 -310 -312 0
-261 -310 -313 0
-261 -311 -312 0
-261 -311 -313 0
-261 -312 -313 0
-276 -310 -311 0
-276 -310 -312 0
-276 -310 -313 0
-276 -311 -312 0
-276 -311 -313 0
-276 -312 -313 0
-310 -311 -312 0
-310 -311 -313 0
-310 -312 -313 0
-311 -312 -313 0
232 261 276 310 311 312 313 0
225 261 276 310 311 312 313 0
225 232 276 310 311 312 313 0
225 232 261 310 311 312 313 0
225 232 261 276 311 312 313 0
225 232 261 276 310 312 313 0
225 232 261 276 310 311 313 0
225 232 261 276 310 311 312 0
-229 -236 -265 0
-229 -236 -280 0
-229 -236 -314 0
-229 -236 -315 0
-229 -236 -316 0
-229 -236 -317 0
-229 -265 -280 0
-229 -265 -314 0
-229 -265 -315 0
-229 -265 -316 0
-229 -265 -317 0
-229 -280 -314 0
-229 -280 -315 0
-229 -280 -316 0
-229 -280 -317 0
-229 -314 -315 0
-229 -314 -316 0
-229 -314 -317 0
-229 -315 -316 0
-229 -315 -317 0
-229 -316 -317 0
-236 -265 -280 0
-236 -265 -314 0
-236 -265 -315 0
-236 -265 -316 0
-236 -265 -317 0
-236 -280 -314 0
-236 -280 -315 0
-236 -280 -316 0
-236 -280 -317 0
-236 -314 -315 0
-236 -314 -316 0
-236 -314 -317 0
-236 -315 -316 0
-236 -315 -317 0
-236 -316 -317 0
-265 -280 -314 0
-265 -280 -315 0
-265 -280 -316 0
-265 -280 -317 0
-265 -314 -315 0
-265 -314 -316 0
-265 -314 -317 0
-265 -315 -316 0
-265 -315 -317 0
-265 -316 -317 0
-280 -314 -315 0
-280 -314 -316 0
-280 -314 -317 0
-280 -315 -316 0
-280 -315 -317 0
-280 -316 -317 0
-314 -315 -316 0
-314 -315 -317 0
-314 -316 -317 0
-315 -316 -317 0
236 265 280 314 315 316 317 0
229 265 280 314 315 316 317 0
229 236 280 314 315 316 317 0
229 236 265 314 315 316 317 0
229 236 265 280 315 316 317 0
229 236 265 280 314 316 317 0
229 236 265 280 314 315 317 0
229 236 265 280 314 315 316 0
-233 -240 -269 0
-233 -240 -284 0
-233 -240 -318 0
-233 -240 -319 0
-233 -240 -320 0
-233 -240 -321 0
-233 -269 -284 0
-233 -269 -318 0
-233 -269 -319 0
-233 -269 -320 0
-233 -269 -321 0
-233 -284 -318 0
-233 -284 -319 0
-233 -284 -320 0
-233 -284 -321 0
-233 -318 -319 0
-233 -318 -320 0
-233 -318 -321 0
-233 -319 -320 0
-233 -319 -321 0
-233 -320 -321 0
-240 -269 -284 0
-240 -269 -318 0
-240 -269 -319 0
-240 -269 -320 0
-240 -269 -321 0
-240 -284 -318 0
-240 -284 -319 0
-240 -284 -320 0
-240 -284 -321 0
-240 -318 -319 0
-240 -318 -320 0
-240 -318 -321 0
-240 -319 -320 0
-240 -319 -321 0
-240 -320 -321 0
-269 -284 -318 0
-269 -284 -319 0
-269 -284 -320 0
-269 -284 -321 0
-269 -318 -319 0
-269 -318 -320 0
-269 -318 -321 0
-269 -319 -320 0
-269 -319 -321 0
-269 -320 -321 0
-284 -318 -319 0
-284 -318 -320 0
-284 -318 -321 0
-284 -319 -320 0
-284 -319 -321 0
-284 -320 -321 0
-318 -319 -320 0
-318 -319 -321 0
-318 -320 -321 0
-319 -320 -321 0
240 269 284 318 319 320 321 0
233 269 284 318 319 320 321 0
233 240 284 318 319 320 321 0
233 240 269 318 319 320 321 0
233 240 269 284 319 320 321 0
233 240 269 284 318 320 321 0
233 240 269 284 318 319 321 0
233 240 269 284 318 319 320 0
-237 -244 -273 0
-237 -244 -288 0
-237 -244 -322 0
-237 -244 -323 0
-237 -244 -324 0
-237 -244 -325 0
-237 -273 -288 0
-237 -273 -322 0
-237 -273 -323 0
-237 -273 -324 0
-237 -273 -325 0
-237 -288 -322 0
-237 -288 -323 0
-237 -288 -324 0
-237 -288 -325 0
-237 -322 -323 0
-237 -322 -324 0
-237 -322 -325 0
-237 -323 -324 0
-237 -323 -325 0
-237 -324 -325 0
-244 -273 -288 0
-244 -273 -322 0
-244 -273 -323 0
-244 -273 -324 0
-244 -273 -325 0
-244 -288 -322 0
-244 -288 -323 0
-244 -288 -324 0
-244 -288 -325 0
-244 -322 -323 0
-244 -322 -324 0
-244 -322 -325 0
-244 -323 -324 0
-244 -323 -325 0
-244 -324 -325 0
-273 -288 -322 0
-273 -288 -323 0
-273 -288 -324 0
-273 -288 -325 0
-273 -322 -323 0
-273 -322 -324 0
-273 -322 -325 0
-273 -323 -324 0
-273 -323 -325 0
-273 -324 -325 0
-288 -322 -323 0
-288 -322 -324 0
-288 -322 -325 0
-288 -323 -324 0
-288 -323 -325 0
-288 -324 -325 0
-322 -323 -324 0
-322 -323 -325 0
-322 -324 -325 0
-323 -324 -325 0
244 273 288 322 323 324 325 0
237 273 288 322 323 324 325 0
237 244 288 322 323 324 325 0
237 244 273 322 323 324 325 0
237 244 273 288 323 324 325 0
237 244 273 288 322 324 325 0
237 244 273 288 322 323 325 0
237 244 273 288 322 323 324 0
-241 -248 -277 0
-241 -248 -292 0
-241 -248 -326 0
-241 -248 -327 0
-241 -248 -328 0
-241 -248 -329 0
-241 -277 -292 0
-241 -277 -326 0
-241 -277 -327 0
-241 -277 -328 0
-241 -277 -329 0
-241 -292 -326 0
-241 -292 -327 0
-241 -292 -328 0
-241 -292 -329 0
-241 -326 -327 0
-241 -326 -328 0
-241 -326 -329 0
-241 -327 -328 0
-241 -327 -329 0
-241 -328 -329 0
-248 -277 -292 0
-248 -277 -326 0
-248 -277 -327 0
-248 -277 -328 0
-248 -277 -329 0
-248 -292 -326 0
-248 -292 -327 0
-248 -292 -328 0
-248 -292 -329 0
-248 -326 -327 0
-248 -326 -328 0
-248 -326 -329 0
-248 -327 -328 0
-248 -327 -329 0
-248 -328 -329 0
-277 -292 -326 0
-277 -292 -327 0
-277 -292 -328 0
-277 -292 -329 0
-277 -326 -327 0
-277 -326 -328 0
-277 -326 -329 0
-277 -327 -328 0
-277 -327 -329 0
-277 -328 -329 0
-292 -326 -327 0
-292 -326 -328 0
-292 -326 -329 0
-292 -327 -328 0
-292 -327 -329 0
-292 -328 -329 0
-326 -327 -328 0
-326 -327 -329 0
-326 -328 -329 0
-327 -328 -329 0
248 277 292 326 327 328 329 0
241 277 292 326 327 328 329 0
241 248 292 326 327 328 329 0
241 248 277 326 327 328 329 0
241 248 277 292 327 328 329 0
241 248 277 292 326 328 329 0
241 248 277 292 326 327 329 0
241 248 277 292 326 327 328 0
-245 -251 -281 0
-245 -251 -294 0
-245 -251 -330 0
-245 -251 -331 0
-245 -251 -332 0
-245 -251 -333 0
-245 -281 -294 0
-245 -281 -330 0
-245 -281 -331 0
-245 -281 -332 0
-245 -281 -333 0
-245 -294 -330 0
-245 -294 -331 0
-245 -294 -332 0
-245 -294 -333 0
-245 -330 -331 0
-245 -330 -332 0
-245 -330 -333 0
-245 -331 -332 0
-245 -331 -333 0
-245 -332 -333 0
-251 -281 -294 0
-251 -281 -330 0
-251 -281 -331 0
-251 -281 -332 0
-251 -281 -333 0
-251 -294 -330 0
-251 -294 -331 0
-251 -294 -332 0
-251 -294 -333 0
-251 -330 -331 0
-251 -330 -332 0
-251 -330 -333 0
-251 -331 -332 0
-251 -331 -333 0
-251 -332 -333 0
-281 -294 -330 0
-281 -294 -331 0
-281 -294 -332 0
-281 -294 -333 0
-281 -330 -331 0
-281 -330 -332 0
-281 -330 -333 0
-281 -331 -332 0
-281 -331 -333 0
-281 -332 -333 0
-294 -330 -331 0
-294 -330 -332 0
-294 -330 -333 0
-294 -331 -332 0
-294 -331 -333 0
-294 -332 -333 0
-330 -331 -332 0
-330 -331 -333 0
-330 -332 -333 0
-331 -332 -333 0
251 281 294 330 331 332 333 0
245 281 294 330 331 332 333 0
245 251 294 330 331 332 333 0
245 251 281 330 331 332 333 0
245 251 281 294 331 332 333 0
245 251 281 294 330 332 333 0
245 251 281 294 330 331 333 0
245 251 281 294 330 331 332 0
-249 -285 -334 0
-249 -285 -335 0
-249 -334 -335 0
-285 -334 -335 0
-255 -262 -295 0
-255 -262 -306 0
-255 -262 -340 0
-255 -262 -341 0
-255 -262 -342 0
-255 -262 -343 0
-255 -295 -306 0
-255 -295 -340 0
-255 -295 -341 0
-255 -295 -342 0
-255 -295 -343 0
-255 -306 -340 0
-255 -306 -341 0
-255 -306 -342 0
-255 -306 -343 0
-255 -340 -341 0
-255 -340 -342 0
-255 -340 -343 0
-255 -341 -342 0
-255 -341 -343 0
-255 -342 -343 0
-262 -295 -306 0
-262 -295 -340 0
-262 -295 -341 0
-262 -295 -342 0
-262 -295 -343 0
-262 -306 -340 0
-262 -306 -341 0
-262 -306 -342 0
-262 -306 -343 0
-262 -340 -341 0
-262 -340 -342 0
-262 -340 -343 0
-262 -341 -342 0
-262 -341 -343 0
-262 -342 -343 0
-295 -306 -340 0
-295 -306 -341 0
-295 -306 -342 0
-295 -306 -343 0
-295 -340 -341 0
-295 -340 -342 0
-295 -340 -343 0
-295 -341 -342 0
-295 -341 -343 0
-295 -342 -343 0
-306 -340 -341 0
-306 -340 -342 0
-306 -340 -343 0
-306 -341 -342 0
-306 -341 -343 0
-306 -342 -343 0
-340 -341 -342 0
-340 -341 -343 0
-340 -342 -343 0
-341 -342 -343 0
262 295 306 340 341 342 343 0
255 295 306 340 341 342 343 0
255 262 306 340 341 342 343 0
255 262 295 340 341 342 343 0
255 262 295 306 341 342 343 0
255 262 295 306 340 342 343 0
255 262 295 306 340 341 343 0
255 262 295 306 340 341 342 0
-258 -302 -338 0
-258 -302 -339 0
-258 -338 -339 0
-302 -338 -339 0
-259 -266 -296 0
-259 -266 -310 0
-259 -266 -344 0
-259 -266 -345 0
-259 -266 -346 0
-259 -266 -347 0
-259 -296 -310 0
-259 -296 -344 0
-259 -296 -345 0
-259 -296 -346 0
-259 -296 -347 0
-259 -310 -344 0
-259 -310 -345 0
-259 -310 -346 0
-259 -310 -347 0
-259 -344 -345 0
-259 -344 -346 0
-259 -344 -347 0
-259 -345 -346 0
-259 -345 -347 0
-259 -346 -347 0
-266 -296 -310 0
-266 -296 -344 0
-266 -296 -345 0
-266 -296 -346 0
-266 -296 -347 0
-266 -310 -344 0
-266 -310 -345 0
-266 -310 -346 0
-266 -310 -347 0
-266 -344 -345 0
-266 -344 -346 0
-266 -344 -347 0
-266 -345 -346 0
-266 -345 -347 0
-266 -346 -347 0
-296 -310 -344 0
-296 -310 -345 0
-296 -310 -346 0
-296 -310 -347 0
-296 -344 -345 0
-296 -344 -346 0
-296 -344 -347 0
-296 -345 -346 0
-296 -345 -347 0
-296 -346 -347 0
-310 -344 -345 0
-310 -344 -346 0
-310 -344 -347 0
-310 -345 -346 0
-310 -345 -347 0
-310 -346 -347 0
-344 -345 -346 0
-344 -345 -347 0
-344 -346 -347 0
-345 -346 -347 0
266 296 310 344 345 346 347 0
259 296 310 344 345 346 347 0
259 266 310 344 345 346 347 0
259 266 296 344 345 346 347 0
259 266 296 310 345 346 347 0
259 266 296 310 344 346 347 0
259 266 296 310 344 345 347 0
259 266 296 310 344 345 346 0
-263 -270 -299 0
-263 -270 -314 0
-263 -270 -348 0
-263 -270 -349 0
-263 -270 -350 0
-263 -270 -351 0
-263 -299 -314 0
-263 -299 -348 0
-263 -299 -349 0
-263 -299 -350 0
-263 -299 -351 0
-263 -314 -348 0
-263 -314 -349 0
-263 -314 -350 0
-263 -314 -351 0
-263 -348 -349 0
-263 -348 -350 0
-263 -348 -351 0
-263 -349 -350 0
-263 -349 -351 0
-263 -350 -351 0
-270 -299 -314 0
-270 -299 -348 0
-270 -299 -349 0
-270 -299 -350 0
-270 -299 -351 0
-270 -314 -348 0
-270 -314 -349 0
-270 -314 -350 0
-270 -314 -351 0
-270 -348 -349 0
-270 -348 -350 0
-270 -348 -351 0
-270 -349 -350 0
-270 -349 -351 0
-270 -350 -351 0
-299 -314 -348 0
-299 -314 -349 0
-299 -314 -350 0
-299 -314 -351 0
-299 -348 -349 0
-299 -348 -350 0
-299 -348 -351 0
-299 -349 -350 0
-299 -349 -351 0
-299 -350 -351 0
-314 -348 -349 0
-314 -348 -350 0
-314 -348 -351 0
-314 -349 -350 0
-314 -349 -351 0
-314 -350 -351 0
-348 -349 -350 0
-348 -349 -351 0
-348 -350 -351 0
-349 -350 -351 0
270 299 314 348 349 350 351 0
263 299 314 348 349 350 351 0
263 270 314 348 349 350 351 0
263 270 299 348 349 350 351 0
263 270 299 314 349 350 351 0
263 270 299 314 348 350 351 0
263 270 299 314 348 349 351 0
263 270 299 314 348 349 350 0
-267 -274 -303 0
-267 -274 -318 0
-267 -274 -352 0
-267 -274 -353 0
-267 -274 -354 0
-267 -274 -355 0
-267 -303 -318 0
-267 -303 -352 0
-267 -303 -353 0
-267 -303 -354 0
-267 -303 -355 0
-267 -318 -352 0
-267 -318 -353 0
-267 -318 -354 0
-267 -318 -355 0
-267 -352 -353 0
-267 -352 -354 0
-267 -352 -355 0
-267 -353 -354 0
-267 -353 -355 0
-267 -354 -355 0
-274 -303 -318 0
-274 -303 -352 0
-274 -303 -353 0
-274 -303 -354 0
-274 -303 -355 0
-274 -318 -352 0
-274 -318 -353 0
-274 -318 -354 0
-274 -318 -355 0
-274 -352 -353 0
-274 -352 -354 0
-274 -352 -355 0
-274 -353 -354 0
-274 -353 -355 0
-274 -354 -355 0
-303 -318 -352 0
-303 -318 -353 0
-303 -318 -354 0
-303 -318 -355 0
-303 -352 -353 0
-303 -352 -354 0
-303 -352 -355 0
-303 -353 -354 0
-303 -353 -355 0
-303 -354 -355 0
-318 -352 -353 0
-318 -352 -354 0
-318 -352 -355 0
-318 -353 -354 0
-318 -353 -355 0
-318 -354 -355 0
-352 -353 -354 0
-352 -353 -355 0
-352 -354 -355 0
-353 -354 -355 0
274 303 318 352 353 354 355 0
267 303 318 352 353 354 355 0
267 274 318 352 353 354 355 0
267 274 303 352 353 354 355 0
267 274 303 318 353 354 355 0
267 274 303 318 352 354 355 0
267 274 303 318 352 353 355 0
267 274 303 318 352 353 354 0
-271 -278 -307 0
-271 -278 -322 0
-271 -278 -356 0
-271 -278 -357 0
-271 -278 -358 0
-271 -278 -359 0
-271 -307 -322 0
-271 -307 -356 0
-271 -307 -357 0
-271 -307 -358 0
-271 -307 -359 0
-271 -322 -356 0
-271 -322 -357 0
-271 -322 -358 0
-271 -322 -359 0
-271 -356 -357 0
-271 -356 -358 0
-271 -356 -359 0
-271 -357 -358 0
-271 -357 -359 0
-271 -358 -359 0
-278 -307 -322 0
-278 -307 -356 0
-278 -307 -357 0
-278 -307 -358 0
-278 -307 -359 0
-278 -322 -356 0
-278 -322 -357 0
-278 -322 -358 0
-278 -322 -359 0
-278 -356 -357 0
-278 -356 -358 0
-278 -356 -359 0
-278 -357 -358 0
-278 -357 -359 0
-278 -358 -359 0
-307 -322 -356 0
-307 -322 -357 0
-307 -322 -358 0
-307 -322 -359 0
-307 -356 -357 0
-307 -356 -358 0
-307 -356 -359 0
-307 -357 -358 0
-307 -357 -359 0
-307 -358 -359 0
-322 -356 -357 0
-322 -356 -358 0
-322 -356 -359 0
-322 -357 -358 0
-322 -357 -359 0
-322 -358 -359 0
-356 -357 -358 0
-356 -357 -359 0
-356 -358 -359 0
-357 -358 -359 0
278 307 322 356 357 358 359 0
271 307 322 356 357 358 359 0
271 278 322 356 357 358 359 0
271 278 307 356 357 358 359 0
271 278 307 322 357 358 359 0
271 278 307 322 356 358 359 0
271 278 307 322 356 357 359 0
271 278 307 322 356 357 358 0
-275 -282 -311 0
-275 -282 -326 0
-275 -282 -360 0
-275 -282 -361 0
-275 -282 -362 0
-275 -282 -363 0
-275 -311 -326 0
-275 -311 -360 0
-275 -311 -361 0
-275 -311 -362 0
-275 -311 -363 0
-275 -326 -360 0
-275 -326 -361 0
-275 -326 -362 0
-275 -326 -363 0
-275 -360 -361 0
-275 -360 -362 0
-275 -360 -363 0
-275 -361 -362 0
-275 -361 -363 0
-275 -362 -363 0
-282 -311 -326 0
-282 -311 -360 0
-282 -311 -361 0
-282 -311 -362 0
-282 -311 -363 0
-282 -326 -360 0
-282 -326 -361 0
-282 -326 -362 0
-282 -326 -363 0
-282 -360 -361 0
-282 -360 -362 0
-282 -360 -363 0
-282 -361 -362 0
-282 -361 -363 0
-282 -362 -363 0
-311 -326 -360 0
-311 -326 -361 0
-311 -326 -362 0
-311 -326 -363 0
-311 -360 -361 0
-311 -360 -362 0
-311 -360 -363 0
-311 -361 -362 0
-311 -361 -363 0
-311 -362 -363 0
-326 -360 -361 0
-326 -360 -362 0
-326 -360 -363 0
-326 -361 -362 0
-326 -361 -363 0
-326 -362 -363 0
-360 -361 -362 0
-360 -361 -363 0
-360 -362 -363 0
-361 -362 -363 0
282 311 326 360 361 362 363 0
275 311 326 360 361 362 363 0
275 282 326 360 361 362 363 0
275 282 311 360 361 362 363 0
275 282 311 326 361 362 363 0
275 282 311 326 360 362 363 0
275 282 311 326 360 361 363 0
275 282 311 326 360 361 362 0
-279 -286 -315 0
-279 -286 -330 0
-279 -286 -364 0
-279 -286 -365 0
-279 -286 -366 0
-279 -286 -367 0
-279 -315 -330 0
-279 -315 -364 0
-279 -315 -365 0
-279 -315 -366 0
-279 -315 -367 0
-279 -330 -364 0
-279 -330 -365 0
-279 -330 -366 0
-279 -330 -367 0
-279 -364 -365 0
-279 -364 -366 0
-279 -364 -367 0
-279 -365 -366 0
-279 -365 -367 0
-279 -366 -367 0
-286 -315 -330 0
-286 -315 -364 0
-286 -315 -365 0
-286 -315 -366 0
-286 -315 -367 0
-286 -330 -364 0
-286 -330 -365 0
-286 -330 -366 0
-286 -330 -367 0
-286 -364 -365 0
-286 -364 -366 0
-286 -364 -367 0
-286 -365 -366 0
-286 -365 -367 0
-286 -366 -367 0
-315 -330 -364 0
-315 -330 -365 0
-315 -330 -366 0
-315 -330 -367 0
-315 -364 -365 0
-315 -364 -366 0
-315 -364 -367 0
-315 -365 -366 0
-315 -365 -367 0
-315 -366 -367 0
-330 -364 -365 0
-330 -364 -366 0
-330 -364 -367 0
-330 -365 -366 0
-330 -365 -367 0
-330 -366 -367 0
-364 -365 -366 0
-364 -365 -367 0
-364 -366 -367 0
-365 -366 -367 0
286 315 330 364 365 366 367 0
279 315 330 364 365 366 367 0
279 286 330 364 365 366 367 0
279 286 315 364 365 366 367 0
279 286 315 330 365 366 367 0
279 286 315 330 364 366 367 0
279 286 315 330 364 365 367 0
279 286 315 330 364 365 366 0
-283 -290 -319 0
-283 -290 -334 0
-283 -290 -368 0
-283 -290 -369 0
-283 -290 -370 0
-283 -290 -371 0
-283 -319 -334 0
-283 -319 -368 0
-283 -319 -369 0
-283 -319 -370 0
-283 -319 -371 0
-283 -334 -368 0
-283 -334 -369 0
-283 -334 -370 0
-283 -334 -371 0
-283 -368 -369 0
-283 -368 -370 0
-283 -368 -371 0
-283 -369 -370 0
-283 -369 -371 0
-283 -370 -371 0
-290 -319 -334 0
-290 -319 -368 0
-290 -319 -369 0
-290 -319 -370 0
-290 -319 -371 0
-290 -334 -368 0
-290 -334 -369 0
-290 -334 -370 0
-290 -334 -371 0
-290 -368 -369 0
-290 -368 -370 0
-290 -368 -371 0
-290 -369 -370 0
-290 -369 -371 0
-290 -370 -371 0
-319 -334 -368 0
-319 -334 -369 0
-319 -334 -370 0
-319 -334 -371 0
-319 -368 -369 0
-319 -368 -370 0
-319 -368 -371 0
-319 -369 -370 0
-319 -369 -371 0
-319 -370 -371 0
-334 -368 -369 0
-334 -368 -370 0
-334 -368 -371 0
-334 -369 -370 0
-334 -369 -371 0
-334 -370 -371 0
-368 -369 -370 0
-368 -369 -371 0
-368 -370 -371 0
-369 -370 -371 0
290 319 334 368 369 370 371 0
283 319 334 368 369 370 371 0
283 290 334 368 369 370 371 0
283 290 319 368 369 370 371 0
283 290 319 334 369 370 371 0
283 290 319 334 368 370 371 0
283 290 319 334 368 369 371 0
283 290 319 334 368 369 370 0
-287 -293 -323 0
-287 -293 -336 0
-287 -293 -372 0
-287 -293 -373 0
-287 -293 -374 0
-287 -293 -375 0
-287 -323 -336 0
-287 -323 -372 0
-287 -323 -373 0
-287 -323 -374 0
-287 -323 -375 0
-287 -336 -372 0
-287 -336 -373 0
-287 -336 -374 0
-287 -336 -375 0
-287 -372 -373 0
-287 -372 -374 0
-287 -372 -375 0
-287 -373 -374 0
-287 -373 -375 0
-287 -374 -375 0
-293 -323 -336 0
-293 -323 -372 0
-293 -323 -373 0
-293 -323 -374 0
-293 -323 -375 0
-293 -336 -372 0
-293 -336 -373 0
-293 -336 -374 0
-293 -336 -375 0
-293 -372 -373 0
-293 -372 -374 0
-293 -372 -375 0
-293 -373 -374 0
-293 -373 -375 0
-293 -374 -375 0
-323 -336 -372 0
-323 -336 -373 0
-323 -336 -374 0
-323 -336 -375 0
-323 -372 -373 0
-323 -372 -374 0
-323 -372 -375 0
-323 -373 -374 0
-323 -373 -375 0
-323 -374 -375 0
-336 -372 -373 0
-336 -372 -374 0
-336 -372 -375 0
-336 -373 -374 0
-336 -373 -375 0
-336 -374 -375 0
-372 -373 -374 0
-372 -373 -375 0
-372 -374 -375 0
-373 -374 -375 0
293 323 336 372 373 374 375 0
287 323 336 372 373 374 375 0
287 293 336 372 373 374 375 0
287 293 323 372 373 374 375 0
287 293 323 336 373 374 375 0
287 293 323 336 372 374 375 0
287 293 323 336 372 373 375 0
287 293 323 336 372 373 374 0
-291 -327 -376 0
-291 -327 -377 0
-291 -376 -377 0
-327 -376 -377 0
-297 -304 -337 0
-297 -304 -348 0
-297 -304 -382 0
-297 -304 -383 0
-297 -304 -384 0
-297 -304 -385 0
-297 -337 -348 0
-297 -337 -382 0
-297 -337 -383 0
-297 -337 -384 0
-297 -337 -385 0
-297 -348 -382 0
-297 -348 -383 0
-297 -348 -384 0
-297 -348 -385 0
-297 -382 -383 0
-297 -382 -384 0
-297 -382 -385 0
-297 -383 -384 0
-297 -383 -385 0
-297 -384 -385 0
-304 -337 -348 0
-304 -337 -382 0
-304 -337 -383 0
-304 -337 -384 0
-304 -337 -385 0
-304 -348 -382 0
-304 -348 -383 0
-304 -348 -384 0
-304 -348 -385 0
-304 -382 -383 0
-304 -382 -384 0
-304 -382 -385 0
-304 -383 -384 0
-304 -383 -385 0
-304 -384 -385 0
-337 -348 -382 0
-337 -348 -383 0
-337 -348 -384 0
-337 -348 -385 0
-337 -382 -383 0
-337 -382 -384 0
-337 -382 -385 0
-337 -383 -384 0
-337 -383 -385 0
-337 -384 -385 0
-348 -382 -383 0
-348 -382 -384 0
-348 -382 -385 0
-348 -383 -384 0
-348 -383 -385 0
-348 -384 -385 0
-382 -383 -384 0
-382 -383 -385 0
-382 -384 -385 0
-383 -384 -385 0
304 337 348 382 383 384 385 0
297 337 348 382 383 384 385 0
297 304 348 382 383 384 385 0
297 304 337 382 383 384 385 0
297 304 337 348 383 384 385 0
297 304 337 348 382 384 385 0
297 304 337 348 382 383 385 0
297 304 337 348 382 383 384 0
-300 -344 -380 0
-300 -344 -381 0
-300 -380 -381 0
-344 -380 -381 0
-301 -308 -338 0
-301 -308 -352 0
-301 -308 -386 0
-301 -308 -387 0
-301 -308 -388 0
-301 -308 -389 0
-301 -338 -352 0
-301 -338 -386 0
-301 -338 -387 0
-301 -338 -388 0
-301 -338 -389 0
-301 -352 -386 0
-301 -352 -387 0
-301 -352 -388 0
-301 -352 -389 0
-301 -386 -387 0
-301 -386 -388 0
-301 -386 -389 0
-301 -387 -388 0
-301 -387 -389 0
-301 -388 -389 0
-308 -338 -352 0
-308 -338 -386 0
-308 -338 -387 0
-308 -338 -388 0
-308 -338 -389 0
-308 -352 -386 0
-308 -352 -387 0
-308 -352 -388 0
-308 -352 -389 0
-308 -386 -387 0
-308 -386 -388 0
-308 -386 -389 0
-308 -387 -388 0
-308 -387 -389 0
-308 -388 -389 0
-338 -352 -386 0
-338 -352 -387 0
-338 -352 -388 0
-338 -352 -389 0
-338 -386 -387 0
-338 -386 -388 0
-338 -386 -389 0
-338 -387 -388 0
-338 -387 -389 0
-338 -388 -389 0
-352 -386 -387 0
-352 -386 -388 0
-352 -386 -389 0
-352 -387 -388 0
-352 -387 -389 0
-352 -388 -389 0
-386 -387 -388 0
-386 -387 -389 0
-386 -388 -389 0
-387 -388 -389 0
308 338 352 386 387 388 389 0
301 338 352 386 387 388 389 0
301 308 352 386 387 388 389 0
301 308 338 386 387 388 389 0
301 308 338 352 387 388 389 0
301 308 338 352 386 388 389 0
301 308 338 352 386 387 389 0
301 308 338 352 386 387 388 0
-305 -312 -341 0
-305 -312 -356 0
-305 -312 -390 0
-305 -312 -391 0
-305 -312 -392 0
-305 -312 -393 0
-305 -341 -356 0
-305 -341 -390 0
-305 -341 -391 0
-305 -341 -392 0
-305 -341 -393 0
-305 -356 -390 0
-305 -356 -391 0
-305 -356 -392 0
-305 -356 -393 0
-305 -390 -391 0
-305 -390 -392 0
-305 -390 -393 0
-305 -391 -392 0
-305 -391 -393 0
-305 -392 -393 0
-312 -341 -356 0
-312 -341 -390 0
-312 -341 -391 0
-312 -341 -392 0
-312 -341 -393 0
-312 -356 -390 0
-312 -356 -391 0
-312 -356 -392 0
-312 -356 -393 0
-312 -390 -391 0
-312 -390 -392 0
-312 -390 -393 0
-312 -391 -392 0
-312 -391 -393 0
-312 -392 -393 0
-341 -356 -390 0
-341 -356 -391 0
-341 -356 -392 0
-341 -356 -393 0
-341 -390 -391 0
-341 -390 -392 0
-341 -390 -393 0
-341 -391 -392 0
-341 -391 -393 0
-341 -392 -393 0
-356 -390 -391 0
-356 -390 -392 0
-356 -390 -393 0
-356 -391 -392 0
-356 -391 -393 0
-356 -392 -393 0
-390 -391 -392 0
-390 -391 -393 0
-390 -392 -393 0
-391 -392 -393 0
312 341 356 390 391 392 393 0
305 341 356 390 391 392 393 0
305 312 356 390 391 392 393 0
305 312 341 390 391 392 393 0
305 312 341 356 391 392 393 0
305 312 341 356 390 392 393 0
305 312 341 356 390 391 393 0
305 312 341 356 390 391 392 0
-309 -316 -345 0
-309 -316 -360 0
-309 -316 -394 0
-309 -316 -395 0
-309 -316 -396 0
-309 -316 -397 0
-309 -345 -360 0
-309 -345 -394 0
-309 -345 -395 0
-309 -345 -396 0
-309 -345 -397 0
-309 -360 -394 0
-309 -360 -395 0
-309 -360 -396 0
-309 -360 -397 0
-309 -394 -395 0
-309 -394 -396 0
-309 -394 -397 0
-309 -395 -396 0
-309 -395 -397 0
-309 -396 -397 0
-316 -345 -360 0
-316 -345 -394 0
-316 -345 -395 0
-316 -345 -396 0
-316 -345 -397 0
-316 -360 -394 0
-316 -360 -395 0
-316 -360 -396 0
-316 -360 -397 0
-316 -394 -395 0
-316 -394 -396 0
-316 -394 -397 0
-316 -395 -396 0
-316 -395 -397 0
-316 -396 -397 0
-345 -360 -394 0
-345 -360 -395 0
-345 -360 -396 0
-345 -360 -397 0
-345 -394 -395 0
-345 -394 -396 0
-345 -394 -397 0
-345 -395 -396 0
-345 -395 -397 0
-345 -396 -397 0
-360 -394 -395 0
-360 -394 -396 0
-360 -394 -397 0
-360 -395 -396 0
-360 -395 -397 0
-360 -396 -397 0
-394 -395 -396 0
-394 -395 -397 0
-394 -396 -397 0
-395 -396 -397 0
316 345 360 394 395 396 397 0
309 345 360 394 395 396 397 0
309 316 360 394 395 396 397 0
309 316 345 394 395 396 397 0
309 316 345 360 395 396 397 0
309 316 345 360 394 396 397 0
309 316 345 360 394 395 397 0
309 316 345 360 394 395 396 0
-313 -320 -349 0
-313 -320 -364 0
-313 -320 -398 0
-313 -320 -399 0
-313 -320 -400 0
-313 -320 -401 0
-313 -349 -364 0
-313 -349 -398 0
-313 -349 -399 0
-313 -349 -400 0
-313 -349 -401 0
-313 -364 -398 0
-313 -364 -399 0
-313 -364 -400 0
-313 -364 -401 0
-313 -398 -399 0
-313 -398 -400 0
-313 -398 -401 0
-313 -399 -400 0
-313 -399 -401 0
-313 -400 -401 0
-320 -349 -364 0
-320 -349 -398 0
-320 -349 -399 0
-320 -349 -400 0
-320 -349 -401 0
-320 -364 -398 0
-320 -364 -399 0
-320 -364 -400 0
-320 -364 -401 0
-320 -398 -399 0
-320 -398 -400 0
-320 -398 -401 0
-320 -399 -400 0
-320 -399 -401 0
-320 -400 -401 0
-349 -364 -398 0
-349 -364 -399 0
-349 -364 -400 0
-349 -364 -401 0
-349 -398 -399 0
-349 -398 -400 0
-349 -398 -401 0
-349 -399 -400 0
-349 -399 -401 0
-349 -400 -401 0
-364 -398 -399 0
-364 -398 -400 0
-364 -398 -401 0
-364 -399 -400 0
-364 -399 -401 0
-364 -400 -401 0
-398 -399 -400 0
-398 -399 -401 0
-398 -400 -401 0
-399 -400 -401 0
320 349 364 398 399 400 401 0
313 349 364 398 399 400 401 0
313 320 364 398 399 400 401 0
313 320 349 398 399 400 401 0
313 320 349 364 399 400 401 0
313 320 349 364 398 400 401 0
313 320 349 364 398 399 401 0
313 320 349 364 398 399 400 0
-317 -324 -353 0
-317 -324 -368 0
-317 -324 -402 0
-317 -324 -403 0
-317 -324 -404 0
-317 -324 -405 0
-317 -353 -368 0
-317 -353 -402 0
-317 -353 -403 0
-317 -353 -404 0
-317 -353 -405 0
-317 -368 -402 0
-317 -368 -403 0
-317 -368 -404 0
-317 -368 -405 0
-317 -402 -403 0
-317 -402 -404 0
-317 -402 -405 0
-317 -403 -404 0
-317 -403 -405 0
-317 -404 -405 0
-324 -353 -368 0
-324 -353 -402 0
-324 -353 -403 0
-324 -353 -404 0
-324 -353 -405 0
-324 -368 -402 0
-324 -368 -403 0
-324 -368 -404 0
-324 -368 -405 0
-324 -402 -403 0
-324 -402 -404 0
-324 -402 -405 0
-324 -403 -404 0
-324 -403 -405 0
-324 -404 -405 0
-353 -368 -402 0
-353 -368 -403 0
-353 -368 -404 0
-353 -368 -405 0
-353 -402 -403 0
-353 -402 -404 0
-353 -402 -405 0
-353 -403 -404 0
-353 -403 -405 0
-353 -404 -405 0
-368 -402 -403 0
-368 -402 -404 0
-368 -402 -405 0
-368 -403 -404 0
-368 -403 -405 0
-368 -404 -405 0
-402 -403 -404 0
-402 -403 -405 0
-402 -404 -405 0
-403 -404 -405 0
324 353 368 402 403 404 405 0
317 353 368 402 403 404 405 0
317 324 368 402 403 404 405 0
317 324 353 402 403 404 405 0
317 324 353 368 403 404 405 0
317 324 353 368 402 404 405 0
317 324 353 368 402 403 405 0
317 324 353 368 402 403 404 0
-321 -328 -357 0
-321 -328 -372 0
-321 -328 -406 0
-321 -328 -407 0
-321 -328 -408 0
-321 -328 -409 0
-321 -357 -372 0
-321 -357 -406 0
-321 -357 -407 0
-321 -357 -408 0
-321 -357 -409 0
-321 -372 -406 0
-321 -372 -407 0
-321 -372 -408 0
-321 -372 -409 0
-321 -406 -407 0
-321 -406 -408 0
-321 -406 -409 0
-321 -407 -408 0
-321 -407 -409 0
-321 -408 -409 0
-328 -357 -372 0
-328 -357 -406 0
-328 -357 -407 0
-328 -357 -408 0
-328 -357 -409 0
-328 -372 -406 0
-328 -372 -407 0
-328 -372 -408 0
-328 -372 -409 0
-328 -406 -407 0
-328 -406 -408 0
-328 -406 -409 0
-328 -407 -408 0
-328 -407 -409 0
-328 -408 -409 0
-357 -372 -406 0
-357 -372 -407 0
-357 -372 -408 0
-357 -372 -409 0
-357 -406 -407 0
-357 -406 -408 0
-357 -406 -409 0
-357 -407 -408 0
-357 -407 -409 0
-357 -408 -409 0
-372 -406 -407 0
-372 -406 -408 0
-372 -406 -409 0
-372 -407 -408 0
-372 -407 -409 0
-372 -408 -409 0
-406 -407 -408 0
-406 -407 -409 0
-406 -408 -409 0
-407 -408 -409 0
328 357 372 406 407 408 409 0
321 357 372 406 407 408 409 0
321 328 372 406 407 408 409 0
321 328 357 406 407 408 409 0
321 328 357 372 407 408 409 0
321 328 357 372 406 408 409 0
321 328 357 372 406 407 409 0
321 328 357 372 406 407 408 0
-325 -332 -361 0
-325 -332 -376 0
-325 -332 -410 0
-325 -332 -411 0
-325 -332 -412 0
-325 -332 -413 0
-325 -361 -376 0
-325 -361 -410 0
-325 -361 -411 0
-325 -361 -412 0
-325 -361 -413 0
-325 -376 -410 0
-325 -376 -411 0
-325 -376 -412 0
-325 -376 -413 0
-325 -410 -411 0
-325 -410 -412 0
-325 -410 -413 0
-325 -411 -412 0
-325 -411 -413 0
-325 -412 -413 0
-332 -361 -376 0
-332 -361 -410 0
-332 -361 -411 0
-332 -361 -412 0
-332 -361 -413 0
-332 -376 -410 0
-332 -376 -411 0
-332 -376 -412 0
-332 -376 -413 0
-332 -410 -411 0
-332 -410 -412 0
-332 -410 -413 0
-332 -411 -412 0
-332 -411 -413 0
-332 -412 -413 0
-361 -376 -410 0
-361 -376 -411 0
-361 -376 -412 0
-361 -376 -413 0
-361 -410 -411 0
-361 -410 -412 0
-361 -410 -413 0
-361 -411 -412 0
-361 -411 -413 0
-361 -412 -413 0
-376 -410 -411 0
-376 -410 -412 0
-376 -410 -413 0
-376 -411 -412 0
-376 -411 -413 0
-376 -412 -413 0
-410 -411 -412 0
-410 -411 -413 0
-410 -412 -413 0
-411 -412 -413 0
332 361 376 410 411 412 413 0
325 361 376 410 411 412 413 0
325 332 376 410 411 412 413 0
325 332 361 410 411 412 413 0
325 332 361 376 411 412 413 0
325 332 361 376 410 412 413 0
325 332 361 376 410 411 413 0
325 332 361 376 410 411 412 0
-329 -335 -365 0
-329 -335 -378 0
-329 -335 -414 0
-329 -335 -415 0
-329 -335 -416 0
-329 -335 -417 0
-329 -365 -378 0
-329 -365 -414 0
-329 -365 -415 0
-329 -365 -416 0
-329 -365 -417 0
-329 -378 -414 0
-329 -378 -415 0
-329 -378 -416 0
-329 -378 -417 0
-329 -414 -415 0
-329 -414 -416 0
-329 -414 -417 0
-329 -415 -416 0
-329 -415 -417 0
-329 -416 -417 0
-335 -365 -378 0
-335 -365 -414 0
-335 -365 -415 0
-335 -365 -416 0
-335 -365 -417 0
-335 -378 -414 0
-335 -378 -415 0
-335 -378 -416 0
-335 -378 -417 0
-335 -414 -415 0
-335 -414 -416 0
-335 -414 -417 0
-335 -415 -416 0
-335 -415 -417 0
-335 -416 -417 0
-365 -378 -414 0
-365 -378 -415 0
-365 -378 -416 0
-365 -378 -417 0
-365 -414 -415 0
-365 -414 -416 0
-365 -414 -417 0
-365 -415 -416 0
-365 -415 -417 0
-365 -416 -417 0
-378 -414 -415 0
-378 -414 -416 0
-378 -414 -417 0
-378 -415 -416 0
-378 -415 -417 0
-378 -416 -417 0
-414 -415 -416 0
-414 -415 -417 0
-414 -416 -417 0
-415 -416 -417 0
335 365 378 414 415 416 417 0
329 365 378 414 415 416 417 0
329 335 378 414 415 416 417 0
329 335 365 414 415 416 417 0
329 335 365 378 415 416 417 0
329 335 365 378 414 416 417 0
329 335 365 378 414 415 417 0
329 335 365 378 414 415 416 0
-333 -369 -418 0
-333 -369 -419 0
-333 -418 -419 0
-369 -418 -419 0
-339 -346 -379 0
-339 -346 -390 0
-339 -346 -423 0
-339 -346 -424 0
-339 -346 -425 0
-339 -346 -426 0
-339 -379 -390 0
-339 -379 -423 0
-339 -379 -424 0
-339 -379 -425 0
-339 -379 -426 0
-339 -390 -423 0
-339 -390 -424 0
-339 -390 -425 0
-339 -390 -426 0
-339 -423 -424 0
-339 -423 -425 0
-339 -423 -426 0
-339 -424 -425 0
-339 -424 -426 0
-339 -425 -426 0
-346 -379 -390 0
-346 -379 -423 0
-346 -379 -424 0
-346 -379 -425 0
-346 -379 -426 0
-346 -390 -423 0
-346 -390 -424 0
-346 -390 -425 0
-346 -390 -426 0
-346 -423 -424 0
-346 -423 -425 0
-346 -423 -426 0
-346 -424 -425 0
-346 -424 -426 0
-346 -425 -426 0
-379 -390 -423 0
-379 -390 -424 0
-379 -390 -425 0
-379 -390 -426 0
-379 -423 -424 0
-379 -423 -425 0
-379 -423 -426 0
-379 -424 -425 0
-379 -424 -426 0
-379 -425 -426 0
-390 -423 -424 0
-390 -423 -425 0
-390 -423 -426 0
-390 -424 -425 0
-390 -424 -426 0
-390 -425 -426 0
-423 -424 -425 0
-423 -424 -426 0
-423 -425 -426 0
-424 -425 -426 0
346 379 390 423 424 425 426 0
339 379 390 423 424 425 426 0
339 346 390 423 424 425 426 0
339 346 379 423 424 425 426 0
339 346 379 390 424 425 426 0
339 346 379 390 423 425 426 0
339 346 379 390 423 424 426 0
339 346 379 390 423 424 425 0
-342 -386 -422 0
-343 -350 -380 0
-343 -350 -394 0
-343 -350 -427 0
-343 -350 -428 0
-343 -350 -429 0
-343 -350 -430 0
-343 -380 -394 0
-343 -380 -427 0
-343 -380 -428 0
-343 -380 -429 0
-343 -380 -430 0
-343 -394 -427 0
-343 -394 -428 0
-343 -394 -429 0
-343 -394 -430 0
-343 -427 -428 0
-343 -427 -429 0
-343 -427 -430 0
-343 -428 -429 0
-343 -428 -430 0
-343 -429 -430 0
-350 -380 -394 0
-350 -380 -427 0
-350 -380 -428 0
-350 -380 -429 0
-350 -380 -430 0
-350 -394 -427 0
-350 -394 -428 0
-350 -394 -429 0
-350 -394 -430 0
-350 -427 -428 0
-350 -427 -429 0
-350 -427 -430 0
-350 -428 -429 0
-350 -428 -430 0
-350 -429 -430 0
-380 -394 -427 0
-380 -394 -428 0
-380 -394 -429 0
-380 -394 -430 0
-380 -427 -428 0
-380 -427 -429 0
-380 -427 -430 0
-380 -428 -429 0
-380 -428 -430 0
-380 -429 -430 0
-394 -427 -428 0
-394 -427 -429 0
-394 -427 -430 0
-394 -428 -429 0
-394 -428 -430 0
-394 -429 -430 0
-427 -428 -429 0
-427 -428 -430 0
-427 -429 -430 0
-428 -429 -430 0
350 380 394 427 428 429 430 0
343 380 394 427 428 429 430 0
343 350 394 427 428 429 430 0
343 350 380 427 428 429 430 0
343 350 380 394 428 429 430 0
343 350 380 394 427 429 430 0
343 350 380 394 427 428 430 0
343 350 380 394 427 428 429 0
-347 -354 -383 0
-347 -354 -398 0
-347 -354 -431 0
-347 -354 -432 0
-347 -354 -433 0
-347 -354 -434 0
-347 -383 -398 0
-347 -383 -431 0
-347 -383 -432 0
-347 -383 -433 0
-347 -383 -434 0
-347 -398 -431 0
-347 -398 -432 0
-347 -398 -433 0
-347 -398 -434 0
-347 -431 -432 0
-347 -431 -433 0
-347 -431 -434 0
-347 -432 -433 0
-347 -432 -434 0
-347 -433 -434 0
-354 -383 -398 0
-354 -383 -431 0
-354 -383 -432 0
-354 -383 -433 0
-354 -383 -434 0
-354 -398 -431 0
-354 -398 -432 0
-354 -398 -433 0
-354 -398 -434 0
-354 -431 -432 0
-354 -431 -433 0
-354 -431 -434 0
-354 -432 -433 0
-354 -432 -434 0
-354 -433 -434 0
-383 -398 -431 0
-383 -398 -432 0
-383 -398 -433 0
-383 -398 -434 0
-383 -431 -432 0
-383 -431 -433 0
-383 -431 -434 0
-383 -432 -433 0
-383 -432 -434 0
-383 -433 -434 0
-398 -431 -432 0
-398 -431 -433 0
-398 -431 -434 0
-398 -432 -433 0
-398 -432 -434 0
-398 -433 -434 0
-431 -432 -433 0
-431 -432 -434 0
-431 -433 -434 0
-432 -433 -434 0
354 383 398 431 432 433 434 0
347 383 398 431 432 433 434 0
347 354 398 431 432 433 434 0
347 354 383 431 432 433 434 0
347 354 383 398 432 433 434 0
347 354 383 398 431 433 434 0
347 354 383 398 431 432 434 0
347 354 383 398 431 432 433 0
-351 -358 -387 0
-351 -358 -402 0
-351 -358 -435 0
-351 -358 -436 0
-351 -358 -437 0
-351 -358 -438 0
-351 -387 -402 0
-351 -387 -435 0
-351 -387 -436 0
-351 -387 -437 0
-351 -387 -438 0
-351 -402 -435 0
-351 -402 -436 0
-351 -402 -437 0
-351 -402 -438 0
-351 -435 -436 0
-351 -435 -437 0
-351 -435 -438 0
-351 -436 -437 0
-351 -436 -438 0
-351 -437 -438 0
-358 -387 -402 0
-358 -387 -435 0
-358 -387 -436 0
-358 -387 -437 0
-358 -387 -438 0
-358 -402 -435 0
-358 -402 -436 0
-358 -402 -437 0
-358 -402 -438 0
-358 -435 -436 0
-358 -435 -437 0
-358 -435 -438 0
-358 -436 -437 0
-358 -436 -438 0
-358 -437 -438 0
-387 -402 -435 0
-387 -402 -436 0
-387 -402 -437 0
-387 -402 -438 0
-387 -435 -436 0
-387 -435 -437 0
-387 -435 -438 0
-387 -436 -437 0
-387 -436 -438 0
-387 -437 -438 0
-402 -435 -436 0
-402 -435 -437 0
-402 -435 -438 0
-402 -436 -437 0
-402 -436 -438 0
-402 -437 -438 0
-435 -436 -437 0
-435 -436 -438 0
-435 -437 -438 0
-436 -437 -438 0
358 387 402 435 436 437 438 0
351 387 402 435 436 437 438 0
351 358 402 435 436 437 438 0
351 358 387 435 436 437 438 0
351 358 387 402 436 437 438 0
351 358 387 402 435 437 438 0
351 358 387 402 435 436 438 0
351 358 387 402 435 436 437 0
-355 -362 -391 0
-355 -362 -406 0
-355 -362 -439 0
-355 -362 -440 0
-355 -362 -441 0
-355 -362 -442 0
-355 -391 -406 0
-355 -391 -439 0
-355 -391 -440 0
-355 -391 -441 0
-355 -391 -442 0
-355 -406 -439 0
-355 -406 -440 0
-355 -406 -441 0
-355 -406 -442 0
-355 -439 -440 0
-355 -439 -441 0
-355 -439 -442 0
-355 -440 -441 0
-355 -440 -442 0
-355 -441 -442 0
-362 -391 -406 0
-362 -391 -439 0
-362 -391 -440 0
-362 -391 -441 0
-362 -391 -442 0
-362 -406 -439 0
-362 -406 -440 0
-362 -406 -441 0
-362 -406 -442 0
-362 -439 -440 0
-362 -439 -441 0
-362 -439 -442 0
-362 -440 -441 0
-362 -440 -442 0
-362 -441 -442 0
-391 -406 -439 0
-391 -406 -440 0
-391 -406 -441 0
-391 -406 -442 0
-391 -439 -440 0
-391 -439 -441 0
-391 -439 -442 0
-391 -440 -441 0
-391 -440 -442 0
-391 -441 -442 0
-406 -439 -440 0
-406 -439 -441 0
-406 -439 -442 0
-406 -440 -441 0
-406 -440 -442 0
-406 -441 -442 0
-439 -440 -441 0
-439 -440 -442 0
-439 -441 -442 0
-440 -441 -442 0
362 391 406 439 440 441 442 0
355 391 406 439 440 441 442 0
355 362 406 439 440 441 442 0
355 362 391 439 440 441 442 0
355 362 391 406 440 441 442 0
355 362 391 406 439 441 442 0
355 362 391 406 439 440 442 0
355 362 391 406 439 440 441 0
-359 -366 -395 0
-359 -366 -410 0
-359 -366 -443 0
-359 -366 -444 0
-359 -366 -445 0
-359 -366 -446 0
-359 -395 -410 0
-359 -395 -443 0
-359 -395 -444 0
-359 -395 -445 0
-359 -395 -446 0
-359 -410 -443 0
-359 -410 -444 0
-359 -410 -445 0
-359 -410 -446 0
-359 -443 -444 0
-359 -443 -445 0
-359 -443 -446 0
-359 -444 -445 0
-359 -444 -446 0
-359 -445 -446 0
-366 -395 -410 0
-366 -395 -443 0
-366 -395 -444 0
-366 -395 -445 0
-366 -395 -446 0
-366 -410 -443 0
-366 -410 -444 0
-366 -410 -445 0
-366 -410 -446 0
-366 -443 -444 0
-366 -443 -445 0
-366 -443 -446 0
-366 -444 -445 0
-366 -444 -446 0
-366 -445 -446 0
-395 -410 -443 0
-395 -410 -444 0
-395 -410 -445 0
-395 -410 -446 0
-395 -443 -444 0
-395 -443 -445 0
-395 -443 -446 0
-395 -444 -445 0
-395 -444 -446 0
-395 -445 -446 0
-410 -443 -444 0
-410 -443 -445 0
-410 -443 -446 0
-410 -444 -445 0
-410 -444 -446 0
-410 -445 -446 0
-443 -444 -445 0
-443 -444 -446 0
-443 -445 -446 0
-444 -445 -446 0
366 395 410 443 444 445 446 0
359 395 410 443 444 445 446 0
359 366 410 443 444 445 446 0
359 366 395 443 444 445 446 0
359 366 395 410 444 445 446 0
359 366 395 410 443 445 446 0
359 366 395 410 443 444 446 0
359 366 395 410 443 444 445 0
-363 -370 -399 0
-363 -370 -414 0
-363 -370 -447 0
-363 -370 -448 0
-363 -370 -449 0
-363 -370 -450 0
-363 -399 -414 0
-363 -399 -447 0
-363 -399 -448 0
-363 -399 -449 0
-363 -399 -450 0
-363 -414 -447 0
-363 -414 -448 0
-363 -414 -449 0
-363 -414 -450 0
-363 -447 -448 0
-363 -447 -449 0
-363 -447 -450 0
-363 -448 -449 0
-363 -448 -450 0
-363 -449 -450 0
-370 -399 -414 0
-370 -399 -447 0
-370 -399 -448 0
-370 -399 -449 0
-370 -399 -450 0
-370 -414 -447 0
-370 -414 -448 0
-370 -414 -449 0
-370 -414 -450 0
-370 -447 -448 0
-370 -447 -449 0
-370 -447 -450 0
-370 -448 -449 0
-370 -448 -450 0
-370 -449 -450 0
-399 -414 -447 0
-399 -414 -448 0
-399 -414 -449 0
-399 -414 -450 0
-399 -447 -448 0
-399 -447 -449 0
-399 -447 -450 0
-399 -448 -449 0
-399 -448 -450 0
-399 -449 -450 0
-414 -447 -448 0
-414 -447 -449 0
-414 -447 -450 0
-414 -448 -449 0
-414 -448 -450 0
-414 -449 -450 0
-447 -448 -449 0
-447 -448 -450 0
-447 -449 -450 0
-448 -449 -450 0
370 399 414 447 448 449 450 0
363 399 414 447 448 449 450 0
363 370 414 447 448 449 450 0
363 370 399 447 448 449 450 0
363 370 399 414 448 449 450 0
363 370 399 414 447 449 450 0
363 370 399 414 447 448 450 0
363 370 399 414 447 448 449 0
-367 -374 -403 0
-367 -374 -418 0
-367 -374 -451 0
-367 -374 -452 0
-367 -374 -453 0
-367 -374 -454 0
-367 -403 -418 0
-367 -403 -451 0
-367 -403 -452 0
-367 -403 -453 0
-367 -403 -454 0
-367 -418 -451 0
-367 -418 -452 0
-367 -418 -453 0
-367 -418 -454 0
-367 -451 -452 0
-367 -451 -453 0
-367 -451 -454 0
-367 -452 -453 0
-367 -452 -454 0
-367 -453 -454 0
-374 -403 -418 0
-374 -403 -451 0
-374 -403 -452 0
-374 -403 -453 0
-374 -403 -454 0
-374 -418 -451 0
-374 -418 -452 0
-374 -418 -453 0
-374 -418 -454 0
-374 -451 -452 0
-374 -451 -453 0
-374 -451 -454 0
-374 -452 -453 0
-374 -452 -454 0
-374 -453 -454 0
-403 -418 -451 0
-403 -418 -452 0
-403 -418 -453 0
-403 -418 -454 0
-403 -451 -452 0
-403 -451 -453 0
-403 -451 -454 0
-403 -452 -453 0
-403 -452 -454 0
-403 -453 -454 0
-418 -451 -452 0
-418 -451 -453 0
-418 -451 -454 0
-418 -452 -453 0
-418 -452 -454 0
-418 -453 -454 0
-451 -452 -453 0
-451 -452 -454 0
-451 -453 -454 0
-452 -453 -454 0
374 403 418 451 452 453 454 0
367 403 418 451 452 453 454 0
367 374 418 451 452 453 454 0
367 374 403 451 452 453 454 0
367 374 403 418 452 453 454 0
367 374 403 418 451 453 454 0
367 374 403 418 451 452 454 0
367 374 403 418 451 452 453 0
-371 -377 -407 0
-371 -377 -420 0
-371 -377 -455 0
-371 -377 -456 0
-371 -377 -457 0
-371 -377 -458 0
-371 -407 -420 0
-371 -407 -455 0
-371 -407 -456 0
-371 -407 -457 0
-371 -407 -458 0
-371 -420 -455 0
-371 -420 -456 0
-371 -420 -457 0
-371 -420 -458 0
-371 -455 -456 0
-371 -455 -457 0
-371 -455 -458 0
-371 -456 -457 0
-371 -456 -458 0
-371 -457 -458 0
-377 -407 -420 0
-377 -407 -455 0
-377 -407 -456 0
-377 -407 -457 0
-377 -407 -458 0
-377 -420 -455 0
-377 -420 -456 0
-377 -420 -457 0
-377 -420 -458 0
-377 -455 -456 0
-377 -455 -457 0
-377 -455 -458 0
-377 -456 -457 0
-377 -456 -458 0
-377 -457 -458 0
-407 -420 -455 0
-407 -420 -456 0
-407 -420 -457 0
-407 -420 -458 0
-407 -455 -456 0
-407 -455 -457 0
-407 -455 -458 0
-407 -456 -457 0
-407 -456 -458 0
-407 -457 -458 0
-420 -455 -456 0
-420 -455 -457 0
-420 -455 -458 0
-420 -456 -457 0
-420 -456 -458 0
-420 -457 -458 0
-455 -456 -457 0
-455 -456 -458 0
-455 -457 -458 0
-456 -457 -458 0
377 407 420 455 456 457 458 0
371 407 420 455 456 457 458 0
371 377 420 455 456 457 458 0
371 377 407 455 456 457 458 0
371 377 407 420 456 457 458 0
371 377 407 420 455 457 458 0
371 377 407 420 455 456 458 0
371 377 407 420 455 456 457 0
-375 -411 -459 0
-381 -388 -421 0
-381 -388 -431 0
-381 -388 -461 0
-381 -388 -462 0
-381 -388 -463 0
-381 -388 -464 0
-381 -421 -431 0
-381 -421 -461 0
-381 -421 -462 0
-381 -421 -463 0
-381 -421 -464 0
-381 -431 -461 0
-381 -431 -462 0
-381 -431 -463 0
-381 -431 -464 0
-381 -461 -462 0
-381 -461 -463 0
-381 -461 -464 0
-381 -462 -463 0
-381 -462 -464 0
-381 -463 -464 0
-388 -421 -431 0
-388 -421 -461 0
-388 -421 -462 0
-388 -421 -463 0
-388 -421 -464 0
-388 -431 -461 0
-388 -431 -462 0
-388 -431 -463 0
-388 -431 -464 0
-388 -461 -462 0
-388 -461 -463 0
-388 -461 -464 0
-388 -462 -463 0
-388 -462 -464 0
-388 -463 -464 0
-421 -431 -461 0
-421 -431 -462 0
-421 -431 -463 0
-421 -431 -464 0
-421 -461 -462 0
-421 -461 -463 0
-421 -461 -464 0
-421 -462 -463 0
-421 -462 -464 0
-421 -463 -464 0
-431 -461 -462 0
-431 -461 -463 0
-431 -461 -464 0
-431 -462 -463 0
-431 -462 -464 0
-431 -463 -464 0
-461 -462 -463 0
-461 -462 -464 0
-461 -463 -464 0
-462 -463 -464 0
388 421 431 461 462 463 464 0
381 421 431 461 462 463 464 0
381 388 431 461 462 463 464 0
381 388 421 461 462 463 464 0
381 388 421 431 462 463 464 0
381 388 421 431 461 463 464 0
381 388 421 431 461 462 464 0
381 388 421 431 461 462 463 0
-385 -392 -422 0
-385 -392 -435 0
-385 -392 -465 0
-385 -392 -466 0
-385 -392 -467 0
-385 -392 -468 0
-385 -422 -435 0
-385 -422 -465 0
-385 -422 -466 0
-385 -422 -467 0
-385 -422 -468 0
-385 -435 -465 0
-385 -435 -466 0
-385 -435 -467 0
-385 -435 -468 0
-385 -465 -466 0
-385 -465 -467 0
-385 -465 -468 0
-385 -466 -467 0
-385 -466 -468 0
-385 -467 -468 0
-392 -422 -435 0
-392 -422 -465 0
-392 -422 -466 0
-392 -422 -467 0
-392 -422 -468 0
-392 -435 -465 0
-392 -435 -466 0
-392 -435 -467 0
-392 -435 -468 0
-392 -465 -466 0
-392 -465 -467 0
-392 -465 -468 0
-392 -466 -467 0
-392 -466 -468 0
-392 -467 -468 0
-422 -435 -465 0
-422 -435 -466 0
-422 -435 -467 0
-422 -435 -468 0
-422 -465 -466 0
-422 -465 -467 0
-422 -465 -468 0
-422 -466 -467 0
-422 -466 -468 0
-422 -467 -468 0
-435 -465 -466 0
-435 -465 -467 0
-435 -465 -468 0
-435 -466 -467 0
-435 -466 -468 0
-435 -467 -468 0
-465 -466 -467 0
-465 -466 -468 0
-465 -467 -468 0
-466 -467 -468 0
392 422 435 465 466 467 468 0
385 422 435 465 466 467 468 0
385 392 435 465 466 467 468 0
385 392 422 465 466 467 468 0
385 392 422 435 466 467 468 0
385 392 422 435 465 467 468 0
385 392 422 435 465 466 468 0
385 392 422 435 465 466 467 0
-389 -396 -424 0
-389 -396 -439 0
-389 -396 -469 0
-389 -396 -470 0
-389 -396 -471 0
-389 -396 -472 0
-389 -424 -439 0
-389 -424 -469 0
-389 -424 -470 0
-389 -424 -471 0
-389 -424 -472 0
-389 -439 -469 0
-389 -439 -470 0
-389 -439 -471 0
-389 -439 -472 0
-389 -469 -470 0
-389 -469 -471 0
-389 -469 -472 0
-389 -470 -471 0
-389 -470 -472 0
-389 -471 -472 0
-396 -424 -439 0
-396 -424 -469 0
-396 -424 -470 0
-396 -424 -471 0
-396 -424 -472 0
-396 -439 -469 0
-396 -439 -470 0
-396 -439 -471 0
-396 -439 -472 0
-396 -469 -470 0
-396 -469 -471 0
-396 -469 -472 0
-396 -470 -471 0
-396 -470 -472 0
-396 -471 -472 0
-424 -439 -469 0
-424 -439 -470 0
-424 -439 -471 0
-424 -439 -472 0
-424 -469 -470 0
-424 -469 -471 0
-424 -469 -472 0
-424 -470 -471 0
-424 -470 -472 0
-424 -471 -472 0
-439 -469 -470 0
-439 -469 -471 0
-439 -469 -472 0
-439 -470 -471 0
-439 -470 -472 0
-439 -471 -472 0
-469 -470 -471 0
-469 -470 -472 0
-469 -471 -472 0
-470 -471 -472 0
396 424 439 469 470 471 472 0
389 424 439 469 470 471 472 0
389 396 439 469 470 471 472 0
389 396 424 469 470 471 472 0
389 396 424 439 470 471 472 0
389 396 424 439 469 471 472 0
389 396 424 439 469 470 472 0
389 396 424 439 469 470 471 0
-393 -400 -428 0
-393 -400 -443 0
-393 -400 -473 0
-393 -400 -474 0
-393 -400 -475 0
-393 -400 -476 0
-393 -428 -443 0
-393 -428 -473 0
-393 -428 -474 0
-393 -428 -475 0
-393 -428 -476 0
-393 -443 -473 0
-393 -443 -474 0
-393 -443 -475 0
-393 -443 -476 0
-393 -473 -474 0
-393 -473 -475 0
-393 -473 -476 0
-393 -474 -475 0
-393 -474 -476 0
-393 -475 -476 0
-400 -428 -443 0
-400 -428 -473 0
-400 -428 -474 0
-400 -428 -475 0
-400 -428 -476 0
-400 -443 -473 0
-400 -443 -474 0
-400 -443 -475 0
-400 -443 -476 0
-400 -473 -474 0
-400 -473 -475 0
-400 -473 -476 0
-400 -474 -475 0
-400 -474 -476 0
-400 -475 -476 0
-428 -443 -473 0
-428 -443 -474 0
-428 -443 -475 0
-428 -443 -476 0
-428 -473 -474 0
-428 -473 -475 0
-428 -473 -476 0
-428 -474 -475 0
-428 -474 -476 0
-428 -475 -476 0
-443 -473 -474 0
-443 -473 -475 0
-443 -473 -476 0
-443 -474 -475 0
-443 -474 -476 0
-443 -475 -476 0
-473 -474 -475 0
-473 -474 -476 0
-473 -475 -476 0
-474 -475 -476 0
400 428 443 473 474 475 476 0
393 428 443 473 474 475 476 0
393 400 443 473 474 475 476 0
393 400 428 473 474 475 476 0
393 400 428 443 474 475 476 0
393 400 428 443 473 475 476 0
393 400 428 443 473 474 476 0
393 400 428 443 473 474 475 0
-397 -404 -432 0
-397 -404 -447 0
-397 -404 -477 0
-397 -404 -478 0
-397 -404 -479 0
-397 -404 -480 0
-397 -432 -447 0
-397 -432 -477 0
-397 -432 -478 0
-397 -432 -479 0
-397 -432 -480 0
-397 -447 -477 0
-397 -447 -478 0
-397 -447 -479 0
-397 -447 -480 0
-397 -477 -478 0
-397 -477 -479 0
-397 -477 -480 0
-397 -478 -479 0
-397 -478 -480 0
-397 -479 -480 0
-404 -432 -447 0
-404 -432 -477 0
-404 -432 -478 0
-404 -432 -479 0
-404 -432 -480 0
-404 -447 -477 0
-404 -447 -478 0
-404 -447 -479 0
-404 -447 -480 0
-404 -477 -478 0
-404 -477 -479 0
-404 -477 -480 0
-404 -478 -479 0
-404 -478 -480 0
-404 -479 -480 0
-432 -447 -477 0
-432 -447 -478 0
-432 -447 -479 0
-432 -447 -480 0
-432 -477 -478 0
-432 -477 -479 0
-432 -477 -480 0
-432 -478 -479 0
-432 -478 -480 0
-432 -479 -480 0
-447 -477 -478 0
-447 -477 -479 0
-447 -477 -480 0
-447 -478 -479 0
-447 -478 -480 0
-447 -479 -480 0
-477 -478 -479 0
-477 -478 -480 0
-477 -479 -480 0
-478 -479 -480 0
404 432 447 477 478 479 480 0
397 432 447 477 478 479 480 0
397 404 447 477 478 479 480 0
397 404 432 477 478 479 480 0
397 404 432 447 478 479 480 0
397 404 432 447 477 479 480 0
397 404 432 447 477 478 480 0
397 404 432 447 477 478 479 0
-401 -408 -436 0
-401 -408 -451 0
-401 -408 -481 0
-401 -408 -482 0
-401 -408 -483 0
-401 -408 -484 0
-401 -436 -451 0
-401 -436 -481 0
-401 -436 -482 0
-401 -436 -483 0
-401 -436 -484 0
-401 -451 -481 0
-401 -451 -482 0
-401 -451 -483 0
-401 -451 -484 0
-401 -481 -482 0
-401 -481 -483 0
-401 -481 -484 0
-401 -482 -483 0
-401 -482 -484 0
-401 -483 -484 0
-408 -436 -451 0
-408 -436 -481 0
-408 -436 -482 0
-408 -436 -483 0
-408 -436 -484 0
-408 -451 -481 0
-408 -451 -482 0
-408 -451 -483 0
-408 -451 -484 0
-408 -481 -482 0
-408 -481 -483 0
-408 -481 -484 0
-408 -482 -483 0
-408 -482 -484 0
-408 -483 -484 0
-436 -451 -481 0
-436 -451 -482 0
-436 -451 -483 0
-436 -451 -484 0
-436 -481 -482 0
-436 -481 -483 0
-436 -481 -484 0
-436 -482 -483 0
-436 -482 -484 0
-436 -483 -484 0
-451 -481 -482 0
-451 -481 -483 0
-451 -481 -484 0
-451 -482 -483 0
-451 -482 -484 0
-451 -483 -484 0
-481 -482 -483 0
-481 -482 -484 0
-481 -483 -484 0
-482 -483 -484 0
408 436 451 481 482 483 484 0
401 436 451 481 482 483 484 0
401 408 451 481 482 483 484 0
401 408 436 481 482 483 484 0
401 408 436 451 482 483 484 0
401 408 436 451 481 483 484 0
401 408 436 451 481 482 484 0
401 408 436 451 481 482 483 0
-405 -412 -440 0
-405 -412 -455 0
-405 -412 -485 0
-405 -412 -486 0
-405 -412 -487 0
-405 -412 -488 0
-405 -440 -455 0
-405 -440 -485 0
-405 -440 -486 0
-405 -440 -487 0
-405 -440 -488 0
-405 -455 -485 0
-405 -455 -486 0
-405 -455 -487 0
-405 -455 -488 0
-405 -485 -486 0
-405 -485 -487 0
-405 -485 -488 0
-405 -486 -487 0
-405 -486 -488 0
-405 -487 -488 0
-412 -440 -455 0
-412 -440 -485 0
-412 -440 -486 0
-412 -440 -487 0
-412 -440 -488 0
-412 -455 -485 0
-412 -455 -486 0
-412 -455 -487 0
-412 -455 -488 0
-412 -485 -486 0
-412 -485 -487 0
-412 -485 -488 0
-412 -486 -487 0
-412 -486 -488 0
-412 -487 -488 0
-440 -455 -485 0
-440 -455 -486 0
-440 -455 -487 0
-440 -455 -488 0
-440 -485 -486 0
-440 -485 -487 0
-440 -485 -488 0
-440 -486 -487 0
-440 -486 -488 0
-440 -487 -488 0
-455 -485 -486 0
-455 -485 -487 0
-455 -485 -488 0
-455 -486 -487 0
-455 -486 -488 0
-455 -487 -488 0
-485 -486 -487 0
-485 -486 -488 0
-485 -487 -488 0
-486 -487 -488 0
412 440 455 485 486 487 488 0
405 440 455 485 486 487 488 0
405 412 455 485 486 487 488 0
405 412 440 485 486 487 488 0
405 412 440 455 486 487 488 0
405 412 440 455 485 487 488 0
405 412 440 455 485 486 488 0
405 412 440 455 485 486 487 0
-409 -416 -444 0
-409 -416 -459 0
-409 -416 -489 0
-409 -416 -490 0
-409 -416 -491 0
-409 -416 -492 0
-409 -444 -459 0
-409 -444 -489 0
-409 -444 -490 0
-409 -444 -491 0
-409 -444 -492 0
-409 -459 -489 0
-409 -459 -490 0
-409 -459 -491 0
-409 -459 -492 0
-409 -489 -490 0
-409 -489 -491 0
-409 -489 -492 0
-409 -490 -491 0
-409 -490 -492 0
-409 -491 -492 0
-416 -444 -459 0
-416 -444 -489 0
-416 -444 -490 0
-416 -444 -491 0
-416 -444 -492 0
-416 -459 -489 0
-416 -459 -490 0
-416 -459 -491 0
-416 -459 -492 0
-416 -489 -490 0
-416 -489 -491 0
-416 -489 -492 0
-416 -490 -491 0
-416 -490 -492 0
-416 -491 -492 0
-444 -459 -489 0
-444 -459 -490 0
-444 -459 -491 0
-444 -459 -492 0
-444 -489 -490 0
-444 -489 -491 0
-444 -489 -492 0
-444 -490 -491 0
-444 -490 -492 0
-444 -491 -492 0
-459 -489 -490 0
-459 -489 -491 0
-459 -489 -492 0
-459 -490 -491 0
-459 -490 -492 0
-459 -491 -492 0
-489 -490 -491 0
-489 -490 -492 0
-489 -491 -492 0
-490 -491 -492 0
416 444 459 489 490 491 492 0
409 444 459 489 490 491 492 0
409 416 459 489 490 491 492 0
409 416 444 489 490 491 492 0
409 416 444 459 490 491 492 0
409 416 444 459 489 491 492 0
409 416 444 459 489 490 492 0
409 416 444 459 489 490 491 0
-413 -419 -448 0
-413 -419 -460 0
-413 -419 -493 0
-413 -419 -494 0
-413 -419 -495 0
-413 -419 -496 0
-413 -448 -460 0
-413 -448 -493 0
-413 -448 -494 0
-413 -448 -495 0
-413 -448 -496 0
-413 -460 -493 0
-413 -460 -494 0
-413 -460 -495 0
-413 -460 -496 0
-413 -493 -494 0
-413 -493 -495 0
-413 -493 -496 0
-413 -494 -495 0
-413 -494 -496 0
-413 -495 -496 0
-419 -448 -460 0
-419 -448 -493 0
-419 -448 -494 0
-419 -448 -495 0
-419 -448 -496 0
-419 -460 -493 0
-419 -460 -494 0
-419 -460 -495 0
-419 -460 -496 0
-419 -493 -494 0
-419 -493 -495 0
-419 -493 -496 0
-419 -494 -495 0
-419 -494 -496 0
-419 -495 -496 0
-448 -460 -493 0
-448 -460 -494 0
-448 -460 -495 0
-448 -460 -496 0
-448 -493 -494 0
-448 -493 -495 0
-448 -493 -496 0
-448 -494 -495 0
-448 -494 -496 0
-448 -495 -496 0
-460 -493 -494 0
-460 -493 -495 0
-460 -493 -496 0
-460 -494 -495 0
-460 -494 -496 0
-460 -495 -496 0
-493 -494 -495 0
-493 -494 -496 0
-493 -495 -496 0
-494 -495 -496 0
419 448 460 493 494 495 496 0
413 448 460 493 494 495 496 0
413 419 460 493 494 495 496 0
413 419 448 493 494 495 496 0
413 419 448 460 494 495 496 0
413 419 448 460 493 495 496 0
413 419 448 460 493 494 496 0
413 419 448 460 493 494 495 0
-426 -433 -473 0
-430 -437 -462 0
-430 -437 -477 0
-430 -462 -477 0
-437 -462 -477 0
-434 -441 -466 0
-434 -441 -481 0
-434 -466 -481 0
-441 -466 -481 0
-438 -445 -470 0
-438 -445 -485 0
-438 -470 -485 0
-445 -470 -485 0
-442 -449 -474 0
-442 -449 -489 0
-442 -474 -489 0
-449 -474 -489 0
-446 -453 -478 0
-446 -453 -493 0
-446 -478 -493 0
-453 -478 -493 0
-450 -457 -482 0
-45 -86 0
-45 -88 0
-45 -90 0
-45 -92 0
-48 -85 0
-48 -86 0
-48 -87 0
-48 -88 0
-49 -89 0
-49 -92 0
-49 -94 0
-49 -96 0
-52 -86 0
-52 -89 0
-52 -91 0
-52 -92 0
-53 -93 0
-53 -96 0
-53 -98 0
-53 -100 0
-56 -89 0
-56 -93 0
-56 -95 0
-56 -96 0
-57 -97 0
-57 -100 0
-57 -102 0
-57 -104 0
-60 -93 0
-60 -97 0
-60 -99 0
-60 -100 0
-61 -101 0
-61 -104 0
-61 -106 0
-61 -108 0
-64 -97 0
-64 -101 0
-64 -103 0
-64 -104 0
-65 -105 0
-65 -108 0
-65 -110 0
-65 -112 0
-68 -101 0
-68 -105 0
-68 -107 0
-68 -108 0
-69 -109 0
-69 -112 0
-69 -114 0
-69 -116 0
-72 -105 0
-72 -109 0
-72 -111 0
-72 -112 0
-73 -113 0
-73 -116 0
-73 -118 0
-73 -120 0
-76 -109 0
-76 -113 0
-76 -115 0
-76 -116 0
-77 -117 0
-77 -120 0
-77 -122 0
-77 -124 0
-80 -113 0
-80 -117 0
-80 -119 0
-80 -120 0
-81 -121 0
-81 -124 0
-81 -125 0
-81 -126 0
-83 -117 0
-83 -121 0
-83 -123 0
-83 -124 0
-85 -87 0
-85 -88 0
-85 -90 0
-85 -92 0
-86 -88 0
-86 -90 0
-86 -91 0
-86 -92 0
-86 -94 0
-86 -96 0
-87 -88 0
-87 -90 0
-87 -92 0
-87 -128 0
-87 -130 0
-87 -132 0
-87 -134 0
-89 -92 0
-89 -94 0
-89 -95 0
-89 -96 0
-89 -98 0
-89 -100 0
-90 -92 0
-90 -127 0
-90 -128 0
-90 -129 0
-90 -130 0
-91 -92 0
-91 -94 0
-91 -96 0
-91 -131 0
-91 -134 0
-91 -136 0
-91 -138 0
-93 -96 0
-93 -98 0
-93 -99 0
-93 -100 0
-93 -102 0
-93 -104 0
-94 -96 0
-94 -128 0
-94 -131 0
-94 -133 0
-94 -134 0
-95 -96 0
-95 -98 0
-95 -100 0
-95 -135 0
-95 -138 0
-95 -140 0
-95 -142 0
-97 -100 0
-97 -102 0
-97 -103 0
-97 -104 0
-97 -106 0
-97 -108 0
-98 -100 0
-98 -131 0
-98 -135 0
-98 -137 0
-98 -138 0
-99 -100 0
-99 -102 0
-99 -104 0
-99 -139 0
-99 -142 0
-99 -144 0
-99 -146 0
-101 -104 0
-101 -106 0
-101 -107 0
-101 -108 0
-101 -110 0
-101 -112 0
-102 -104 0
-102 -135 0
-102 -139 0
-102 -141 0
-102 -142 0
-103 -104 0
-103 -106 0
-103 -108 0
-103 -143 0
-103 -146 0
-103 -148 0
-103 -150 0
-105 -108 0
-105 -110 0
-105 -111 0
-105 -112 0
-105 -114 0
-105 -116 0
-106 -108 0
-106 -139 0
-106 -143 0
-106 -145 0
-106 -146 0
-107 -108 0
-107 -110 0
-107 -112 0
-107 -147 0
-107 -150 0
-107 -152 0
-107 -154 0
-109 -112 0
-109 -114 0
-109 -115 0
-109 -116 0
-109 -118 0
-109 -120 0
-110 -112 0
-110 -143 0
-110 -147 0
-110 -149 0
-110 -150 0
-111 -112 0
-111 -114 0
-111 -116 0
-111 -151 0
-111 -154 0
-111 -156 0
-111 -158 0
-113 -116 0
-113 -118 0
-113 -119 0
-113 -120 0
-113 -122 0
-113 -124 0
-114 -116 0
-114 -147 0
-114 -151 0
-114 -153 0
-114 -154 0
-115 -116 0
-115 -118 0
-115 -120 0
-115 -155 0
-115 -158 0
-115 -160 0
-115 -162 0
-117 -120 0
-117 -122 0
-117 -123 0
-117 -124 0
-117 -125 0
-117 -126 0
-118 -120 0
-118 -151 0
-118 -155 0
-118 -157 0
-118 -158 0
-119 -120 0
-119 -122 0
-119 -124 0
-119 -159 0
-119 -162 0
-119 -164 0
-119 -166 0
-121 -124 0
-121 -125 0
-121 -126 0
-122 -124 0
-122 -155 0
-122 -159 0
-122 -161 0
-122 -162 0
-123 -124 0
-123 -125 0
-123 -126 0
-123 -163 0
-123 -166 0
-123 -167 0
-123 -168 0
-125 -126 0
-125 -159 0
-125 -163 0
-125 -165 0
-125 -166 0
-127 -129 0
-127 -130 0
-127 -132 0
-127 -134 0
-128 -130 0
-128 -132 0
-128 -133 0
-128 -134 0
-128 -136 0
-128 -138 0
-129 -130 0
-129 -132 0
-129 -134 0
-129 -170 0
-129 -172 0
-129 -174 0
-129 -176 0
-131 -134 0
-131 -136 0
-131 -137 0
-131 -138 0
-131 -140 0
-131 -142 0
-132 -134 0
-132 -169 0
-132 -170 0
-132 -171 0
-132 -172 0
-133 -134 0
-133 -136 0
-133 -138 0
-133 -173 0
-133 -176 0
-133 -178 0
-133 -180 0
-135 -138 0
-135 -140 0
-135 -141 0
-135 -142 0
-135 -144 0
-135 -146 0
-136 -138 0
-136 -170 0
-136 -173 0
-136 -175 0
-136 -176 0
-137 -138 0
-137 -140 0
-137 -142 0
-137 -177 0
-137 -180 0
-137 -182 0
-137 -184 0
-139 -142 0
-139 -144 0
-139 -145 0
-139 -146 0
-139 -148 0
-139 -150 0
-140 -142 0
-140 -173 0
-140 -177 0
-140 -179 0
-140 -180 0
-141 -142 0
-141 -144 0
-141 -146 0
-141 -181 0
-141 -184 0
-141 -186 0
-141 -188 0
-143 -146 0
-143 -148 0
-143 -149 0
-143 -150 0
-143 -152 0
-143 -154 0
-144 -146 0
-144 -177 0
-144 -181 0
-144 -183 0
-144 -184 0
-145 -146 0
-145 -148 0
-145 -150 0
-145 -185 0
-145 -188 0
-145 -190 0
-145 -192 0
-147 -150 0
-147 -152 0
-147 -153 0
-147 -154 0
-147 -156 0
-147 -158 0
-148 -150 0
-148 -181 0
-148 -185 0
-148 -187 0
-148 -188 0
-149 -150 0
-149 -152 0
-149 -154 0
-149 -189 0
-149 -192 0
-149 -194 0
-149 -196 0
-151 -154 0
-151 -156 0
-151 -157 0
-151 -158 0
-151 -160 0
-151 -162 0
-152 -154 0
-152 -185 0
-152 -189 0
-152 -191 0
-152 -192 0
-153 -154 0
-153 -156 0
-153 -158 0
-153 -193 0
-153 -196 0
-153 -198 0
-153 -200 0
-155 -158 0
-155 -160 0
-155 -161 0
-155 -162 0
-155 -164 0
-155 -166 0
-156 -158 0
-156 -189 0
-156 -193 0
-156 -195 0
-156 -196 0
-157 -158 0
-157 -160 0
-157 -162 0
-157 -197 0
-157 -200 0
-157 -202 0
-157 -204 0
-159 -162 0
-159 -164 0
-159 -165 0
-159 -166 0
-159 -167 0
-159 -168 0
-160 -162 0
-160 -193 0
-160 -197 0
-160 -199 0
-160 -200 0
-161 -162 0
-161 -164 0
-161 -166 0
-161 -201 0
-161 -204 0
-161 -206 0
-161 -208 0
-163 -166 0
-163 -167 0
-163 -168 0
-164 -166 0
-164 -197 0
-164 -201 0
-164 -203 0
-164 -204 0
-165 -166 0
-165 -167 0
-165 -168 0
-165 -205 0
-165 -208 0
-165 -209 0
-165 -210 0
-167 -168 0
-167 -201 0
-167 -205 0
-167 -207 0
-167 -208 0
-169 -171 0
-169 -172 0
-169 -174 0
-169 -176 0
-170 -172 0
-170 -174 0
-170 -175 0
-170 -176 0
-170 -178 0
-170 -180 0
-171 -172 0
-171 -174 0
-171 -176 0
-171 -212 0
-171 -214 0
-171 -216 0
-171 -218 0
-173 -176 0
-173 -178 0
-173 -179 0
-173 -180 0
-173 -182 0
-173 -184 0
-174 -176 0
-174 -211 0
-174 -212 0
-174 -213 0
-174 -214 0
-175 -176 0
-175 -178 0
-175 -180 0
-175 -215 0
-175 -218 0
-175 -220 0
-175 -222 0
-177 -180 0
-177 -182 0
-177 -183 0
-177 -184 0
-177 -186 0
-177 -188 0
-178 -180 0
-178 -212 0
-178 -215 0
-178 -217 0
-178 -218 0
-179 -180 0
-179 -182 0
-179 -184 0
-179 -219 0
-179 -222 0
-179 -224 0
-179 -226 0
-181 -184 0
-181 -186 0
-181 -187 0
-181 -188 0
-181 -190 0
-181 -192 0
-182 -184 0
-182 -215 0
-182 -219 0
-182 -221 0
-182 -222 0
-183 -184 0
-183 -186 0
-183 -188 0
-183 -223 0
-183 -226 0
-183 -228 0
-183 -230 0
-185 -188 0
-185 -190 0
-185 -191 0
-185 -192 0
-185 -194 0
-185 -196 0
-186 -188 0
-186 -219 0
-186 -223 0
-186 -225 0
-186 -226 0
-187 -188 0
-187 -190 0
-187 -192 0
-187 -227 0
-187 -230 0
-187 -232 0
-187 -234 0
-189 -192 0
-189 -194 0
-189 -195 0
-189 -196 0
-189 -198 0
-189 -200 0
-190 -192 0
-190 -223 0
-190 -227 0
-190 -229 0
-190 -230 0
-191 -192 0
-191 -194 0
-191 -196 0
-191 -231 0
-191 -234 0
-191 -236 0
-191 -238 0
-193 -196 0
-193 -198 0
-193 -199 0
-193 -200 0
-193 -202 0
-193 -204 0
-194 -196 0
-194 -227 0
-194 -231 0
-194 -233 0
-194 -234 0
-195 -196 0
-195 -198 0
-195 -200 0
-195 -235 0
-195 -238 0
-195 -240 0
-195 -242 0
-197 -200 0
-197 -202 0
-197 -203 0
-197 -204 0
-197 -206 0
-197 -208 0
-198 -200 0
-198 -231 0
-198 -235 0
-198 -237 0
-198 -238 0
-199 -200 0
-199 -202 0
-199 -204 0
-199 -239 0
-199 -242 0
-199 -244 0
-199 -246 0
-201 -204 0
-201 -206 0
-201 -207 0
-201 -208 0
-201 -209 0
-201 -210 0
-202 -204 0
-202 -235 0
-202 -239 0
-202 -241 0
-202 -242 0
-203 -204 0
-203 -206 0
-203 -208 0
-203 -243 0
-203 -246 0
-203 -248 0
-203 -250 0
-205 -208 0
-205 -209 0
-205 -210 0
-206 -208 0
-206 -239 0
-206 -243 0
-206 -245 0
-206 -246 0
-207 -208 0
-207 -209 0
-207 -210 0
-207 -247 0
-207 -250 0
-207 -251 0
-207 -252 0
-209 -210 0
-209 -243 0
-209 -247 0
-209 -249 0
-209 -250 0
-211 -213 0
-211 -214 0
-211 -216 0
-211 -218 0
-212 -214 0
-212 -216 0
-212 -217 0
-212 -218 0
-212 -220 0
-212 -222 0
-213 -214 0
-213 -216 0
-213 -218 0
-213 -254 0
-213 -256 0
-213 -258 0
-213 -260 0
-215 -218 0
-215 -220 0
-215 -221 0
-215 -222 0
-215 -224 0
-215 -226 0
-216 -218 0
-216 -253 0
-216 -254 0
-216 -255 0
-216 -256 0
-217 -218 0
-217 -220 0
-217 -222 0
-217 -257 0
-217 -260 0
-217 -262 0
-217 -264 0
-219 -222 0
-219 -224 0
-219 -225 0
-219 -226 0
-219 -228 0
-219 -230 0
-220 -222 0
-220 -254 0
-220 -257 0
-220 -259 0
-220 -260 0
-221 -222 0
-221 -224 0
-221 -226 0
-221 -261 0
-221 -264 0
-221 -266 0
-221 -268 0
-223 -226 0
-223 -228 0
-223 -229 0
-223 -230 0
-223 -232 0
-223 -234 0
-224 -226 0
-224 -257 0
-224 -261 0
-224 -263 0
-224 -264 0
-225 -226 0
-225 -228 0
-225 -230 0
-225 -265 0
-225 -268 0
-225 -270 0
-225 -272 0
-227 -230 0
-227 -232 0
-227 -233 0
-227 -234 0
-227 -236 0
-227 -238 0
-228 -230 0
-228 -261 0
-228 -265 0
-228 -267 0
-228 -268 0
-229 -230 0
-229 -232 0
-229 -234 0
-229 -269 0
-229 -272 0
-229 -274 0
-229 -276 0
-231 -234 0
-231 -236 0
-231 -237 0
-231 -238 0
-231 -240 0
-231 -242 0
-232 -234 0
-232 -265 0
-232 -269 0
-232 -271 0
-232 -272 0
-233 -234 0
-233 -236 0
-233 -238 0
-233 -273 0
-233 -276 0
-233 -278 0
-233 -280 0
-235 -238 0
-235 -240 0
-235 -241 0
-235 -242 0
-235 -244 0
-235 -246 0
-236 -238 0
-236 -269 0
-236 -273 0
-236 -275 0
-236 -276 0
-237 -238 0
-237 -240 0
-237 -242 0
-237 -277 0
-237 -280 0
-237 -282 0
-237 -284 0
-239 -242 0
-239 -244 0
-239 -245 0
-239 -246 0
-239 -248 0
-239 -250 0
-240 -242 0
-240 -273 0
-240 -277 0
-240 -279 0
-240 -280 0
-241 -242 0
-241 -244 0
-241 -246 0
-241 -281 0
-241 -284 0
-241 -286 0
-241 -288 0
-243 -246 0
-243 -248 0
-243 -249 0
-243 -250 0
-243 -251 0
-243 -252 0
-244 -246 0
-244 -277 0
-244 -281 0
-244 -283 0
-244 -284 0
-245 -246 0
-245 -248 0
-245 -250 0
-245 -285 0
-245 -288 0
-245 -290 0
-245 -292 0
-247 -250 0
-247 -251 0
-247 -252 0
-248 -250 0
-248 -281 0
-248 -285 0
-248 -287 0
-248 -288 0
-249 -250 0
-249 -251 0
-249 -252 0
-249 -289 0
-249 -292 0
-249 -293 0
-249 -294 0
-251 -252 0
-251 -285 0
-251 -289 0
-251 -291 0
-251 -292 0
-253 -255 0
-253 -256 0
-253 -258 0
-253 -260 0
-254 -256 0
-254 -258 0
-254 -259 0
-254 -260 0
-254 -262 0
-254 -264 0
-255 -256 0
-255 -258 0
-255 -260 0
-255 -296 0
-255 -298 0
-255 -300 0
-255 -302 0
-257 -260 0
-257 -262 0
-257 -263 0
-257 -264 0
-257 -266 0
-257 -268 0
-258 -260 0
-258 -295 0
-258 -296 0
-258 -297 0
-258 -298 0
-259 -260 0
-259 -262 0
-259 -264 0
-259 -299 0
-259 -302 0
-259 -304 0
-259 -306 0
-261 -264 0
-261 -266 0
-261 -267 0
-261 -268 0
-261 -270 0
-261 -272 0
-262 -264 0
-262 -296 0
-262 -299 0
-262 -301 0
-262 -302 0
-263 -264 0
-263 -266 0
-263 -268 0
-263 -303 0
-263 -306 0
-263 -308 0
-263 -310 0
-265 -268 0
-265 -270 0
-265 -271 0
-265 -272 0
-265 -274 0
-265 -276 0
-266 -268 0
-266 -299 0
-266 -303 0
-266 -305 0
-266 -306 0
-267 -268 0
-267 -270 0
-267 -272 0
-267 -307 0
-267 -310 0
-267 -312 0
-267 -314 0
-269 -272 0
-269 -274 0
-269 -275 0
-269 -276 0
-269 -278 0
-269 -280 0
-270 -272 0
-270 -303 0
-270 -307 0
-270 -309 0
-270 -310 0
-271 -272 0
-271 -274 0
-271 -276 0
-271 -311 0
-271 -314 0
-271 -316 0
-271 -318 0
-273 -276 0
-273 -278 0
-273 -279 0
-273 -280 0
-273 -282 0
-273 -284 0
-274 -276 0
-274 -307 0
-274 -311 0
-274 -313 0
-274 -314 0
-275 -276 0
-275 -278 0
-275 -280 0
-275 -315 0
-275 -318 0
-275 -320 0
-275 -322 0
-277 -280 0
-277 -282 0
-277 -283 0
-277 -284 0
-277 -286 0
-277 -288 0
-278 -280 0
-278 -311 0
-278 -315 0
-278 -317 0
-278 -318 0
-279 -280 0
-279 -282 0
-279 -284 0
-279 -319 0
-279 -322 0
-279 -324 0
-279 -326 0
-281 -284 0
-281 -286 0
-281 -287 0
-281 -288 0
-281 -290 0
-281 -292 0
-282 -284 0
-282 -315 0
-282 -319 0
-282 -321 0
-282 -322 0
-283 -284 0
-283 -286 0
-283 -288 0
-283 -323 0
-283 -326 0
-283 -328 0
-283 -330 0
-285 -288 0
-285 -290 0
-285 -291 0
-285 -292 0
-285 -293 0
-285 -294 0
-286 -288 0
-286 -319 0
-286 -323 0
-286 -325 0
-286 -326 0
-287 -288 0
-287 -290 0
-287 -292 0
-287 -327 0
-287 -330 0
-287 -332 0
-287 -334 0
-289 -292 0
-289 -293 0
-289 -294 0
-290 -292 0
-290 -323 0
-290 -327 0
-290 -329 0
-290 -330 0
-291 -292 0
-291 -293 0
-291 -294 0
-291 -331 0
-291 -334 0
-291 -335 0
-291 -336 0
-293 -294 0
-293 -327 0
-293 -331 0
-293 -333 0
-293 -334 0
-295 -297 0
-295 -298 0
-295 -300 0
-295 -302 0
-296 -298 0
-296 -300 0
-296 -301 0
-296 -302 0
-296 -304 0
-296 -306 0
-297 -298 0
-297 -300 0
-297 -302 0
-297 -338 0
-297 -340 0
-297 -342 0
-297 -344 0
-299 -302 0
-299 -304 0
-299 -305 0
-299 -306 0
-299 -308 0
-299 -310 0
-300 -302 0
-300 -337 0
-300 -338 0
-300 -339 0
-300 -340 0
-301 -302 0
-301 -304 0
-301 -306 0
-301 -341 0
-301 -344 0
-301 -346 0
-301 -348 0
-303 -306 0
-303 -308 0
-303 -309 0
-303 -310 0
-303 -312 0
-303 -314 0
-304 -306 0
-304 -338 0
-304 -341 0
-304 -343 0
-304 -344 0
-305 -306 0
-305 -308 0
-305 -310 0
-305 -345 0
-305 -348 0
-305 -350 0
-305 -352 0
-307 -310 0
-307 -312 0
-307 -313 0
-307 -314 0
-307 -316 0
-307 -318 0
-308 -310 0
-308 -341 0
-308 -345 0
-308 -347 0
-308 -348 0
-309 -310 0
-309 -312 0
-309 -314 0
-309 -349 0
-309 -352 0
-309 -354 0
-309 -356 0
-311 -314 0
-311 -316 0
-311 -317 0
-311 -318 0
-311 -320 0
-311 -322 0
-312 -314 0
-312 -345 0
-312 -349 0
-312 -351 0
-312 -352 0
-313 -314 0
-313 -316 0
-313 -318 0
-313 -353 0
-313 -356 0
-313 -358 0
-313 -360 0
-315 -318 0
-315 -320 0
-315 -321 0
-315 -322 0
-315 -324 0
-315 -326 0
-316 -318 0
-316 -349 0
-316 -353 0
-316 -355 0
-316 -356 0
-317 -318 0
-317 -320 0
-317 -322 0
-317 -357 0
-317 -360 0
-317 -362 0
-317 -364 0
-319 -322 0
-319 -324 0
-319 -325 0
-319 -326 0
-319 -328 0
-319 -330 0
-320 -322 0
-320 -353 0
-320 -357 0
-320 -359 0
-320 -360 0
-321 -322 0
-321 -324 0
-321 -326 0
-321 -361 0
-321 -364 0
-321 -366 0
-321 -368 0
-323 -326 0
-323 -328 0
-323 -329 0
-323 -330 0
-323 -332 0
-323 -334 0
-324 -326 0
-324 -357 0
-324 -361 0
-324 -363 0
-324 -364 0
-325 -326 0
-325 -328 0
-325 -330 0
-325 -365 0
-325 -368 0
-325 -370 0
-325 -372 0
-327 -330 0
-327 -332 0
-327 -333 0
-327 -334 0
-327 -335 0
-327 -336 0
-328 -330 0
-328 -361 0
-328 -365 0
-328 -367 0
-328 -368 0
-329 -330 0
-329 -332 0
-329 -334 0
-329 -369 0
-329 -372 0
-329 -374 0
-329 -376 0
-331 -334 0
-331 -335 0
-331 -336 0
-332 -334 0
-332 -365 0
-332 -369 0
-332 -371 0
-332 -372 0
-333 -334 0
-333 -335 0
-333 -336 0
-333 -373 0
-333 -376 0
-333 -377 0
-333 -378 0
-335 -336 0
-335 -369 0
-335 -373 0
-335 -375 0
-335 -376 0
-337 -339 0
-337 -340 0
-337 -342 0
-337 -344 0
-338 -340 0
-338 -342 0
-338 -343 0
-338 -344 0
-338 -346 0
-338 -348 0
-339 -340 0
-339 -342 0
-339 -344 0
-339 -380 0
-339 -382 0
-339 -384 0
-339 -386 0
-341 -344 0
-341 -346 0
-341 -347 0
-341 -348 0
-341 -350 0
-341 -352 0
-342 -344 0
-342 -379 0
-342 -380 0
-342 -381 0
-342 -382 0
-343 -344 0
-343 -346 0
-343 -348 0
-343 -383 0
-343 -386 0
-343 -388 0
-343 -390 0
-345 -348 0
-345 -350 0
-345 -351 0
-345 -352 0
-345 -354 0
-345 -356 0
-346 -348 0
-346 -380 0
-346 -383 0
-346 -385 0
-346 -386 0
-347 -348 0
-347 -350 0
-347 -352 0
-347 -387 0
-347 -390 0
-347 -392 0
-347 -394 0
-349 -352 0
-349 -354 0
-349 -355 0
-349 -356 0
-349 -358 0
-349 -360 0
-350 -352 0
-350 -383 0
-350 -387 0
-350 -389 0
-350 -390 0
-351 -352 0
-351 -354 0
-351 -356 0
-351 -391 0
-351 -394 0
-351 -396 0
-351 -398 0
-353 -356 0
-353 -358 0
-353 -359 0
-353 -360 0
-353 -362 0
-353 -364 0
-354 -356 0
-354 -387 0
-354 -391 0
-354 -393 0
-354 -394 0
-355 -356 0
-355 -358 0
-355 -360 0
-355 -395 0
-355 -398 0
-355 -400 0
-355 -402 0
-357 -360 0
-357 -362 0
-357 -363 0
-357 -364 0
-357 -366 0
-357 -368 0
-358 -360 0
-358 -391 0
-358 -395 0
-358 -397 0
-358 -398 0
-359 -360 0
-359 -362 0
-359 -364 0
-359 -399 0
-359 -402 0
-359 -404 0
-359 -406 0
-361 -364 0
-361 -366 0
-361 -367 0
-361 -368 0
-361 -370 0
-361 -372 0
-362 -364 0
-362 -395 0
-362 -399 0
-362 -401 0
-362 -402 0
-363 -364 0
-363 -366 0
-363 -368 0
-363 -403 0
-363 -406 0
-363 -408 0
-363 -410 0
-365 -368 0
-365 -370 0
-365 -371 0
-365 -372 0
-365 -374 0
-365 -376 0
-366 -368 0
-366 -399 0
-366 -403 0
-366 -405 0
-366 -406 0
-367 -368 0
-367 -370 0
-367 -372 0
-367 -407 0
-367 -410 0
-367 -412 0
-367 -414 0
-369 -372 0
-369 -374 0
-369 -375 0
-369 -376 0
-369 -377 0
-369 -378 0
-370 -372 0
-370 -403 0
-370 -407 0
-370 -409 0
-370 -410 0
-371 -372 0
-371 -374 0
-371 -376 0
-371 -411 0
-371 -414 0
-371 -416 0
-371 -418 0
-373 -376 0
-373 -377 0
-373 -378 0
-374 -376 0
-374 -407 0
-374 -411 0
-374 -413 0
-374 -414 0
-375 -376 0
-375 -377 0
-375 -378 0
-375 -415 0
-375 -418 0
-375 -419 0
-375 -420 0
-377 -378 0
-377 -411 0
-377 -415 0
-377 -417 0
-377 -418 0
-379 -381 0
-379 -382 0
-379 -384 0
-379 -386 0
-380 -382 0
-380 -384 0
-380 -385 0
-380 -386 0
-380 -388 0
-380 -390 0
-381 -382 0
-381 -384 0
-381 -386 0
-381 -422 0
-381 -423 0
-381 -425 0
-381 -427 0
-383 -386 0
-383 -388 0
-383 -389 0
-383 -390 0
-383 -392 0
-383 -394 0
-384 -386 0
-384 -421 0
-384 -422 0
-384 -423 0
-385 -386 0
-385 -388 0
-385 -390 0
-385 -424 0
-385 -427 0
-385 -429 0
-385 -431 0
-387 -390 0
-387 -392 0
-387 -393 0
-387 -394 0
-387 -396 0
-387 -398 0
-388 -390 0
-388 -422 0
-388 -424 0
-388 -426 0
-388 -427 0
-389 -390 0
-389 -392 0
-389 -394 0
-389 -428 0
-389 -431 0
-389 -433 0
-389 -435 0
-391 -394 0
-391 -396 0
-391 -397 0
-391 -398 0
-391 -400 0
-391 -402 0
-392 -394 0
-392 -424 0
-392 -428 0
-392 -430 0
-392 -431 0
-393 -394 0
-393 -396 0
-393 -398 0
-393 -432 0
-393 -435 0
-393 -437 0
-393 -439 0
-395 -398 0
-395 -400 0
-395 -401 0
-395 -402 0
-395 -404 0
-395 -406 0
-396 -398 0
-396 -428 0
-396 -432 0
-396 -434 0
-396 -435 0
-397 -398 0
-397 -400 0
-397 -402 0
-397 -436 0
-397 -439 0
-397 -441 0
-397 -443 0
-399 -402 0
-399 -404 0
-399 -405 0
-399 -406 0
-399 -408 0
-399 -410 0
-400 -402 0
-400 -432 0
-400 -436 0
-400 -438 0
-400 -439 0
-401 -402 0
-401 -404 0
-401 -406 0
-401 -440 0
-401 -443 0
-401 -445 0
-401 -447 0
-403 -406 0
-403 -408 0
-403 -409 0
-403 -410 0
-403 -412 0
-403 -414 0
-404 -406 0
-404 -436 0
-404 -440 0
-404 -442 0
-404 -443 0
-405 -406 0
-405 -408 0
-405 -410 0
-405 -444 0
-405 -447 0
-405 -449 0
-405 -451 0
-407 -410 0
-407 -412 0
-407 -413 0
-407 -414 0
-407 -416 0
-407 -418 0
-408 -410 0
-408 -440 0
-408 -444 0
-408 -446 0
-408 -447 0
-409 -410 0
-409 -412 0
-409 -414 0
-409 -448 0
-409 -451 0
-409 -453 0
-409 -455 0
-411 -414 0
-411 -416 0
-411 -417 0
-411 -418 0
-411 -419 0
-411 -420 0
-412 -414 0
-412 -444 0
-412 -448 0
-412 -450 0
-412 -451 0
-413 -414 0
-413 -416 0
-413 -418 0
-413 -452 0
-413 -455 0
-413 -457 0
-413 -459 0
-415 -418 0
-415 -419 0
-415 -420 0
-416 -418 0
-416 -448 0
-416 -452 0
-416 -454 0
-416 -455 0
-417 -418 0
-417 -419 0
-417 -420 0
-417 -456 0
-417 -459 0
-417 -460 0
-419 -420 0
-419 -452 0
-419 -456 0
-419 -458 0
-419 -459 0
-421 -423 0
-421 -425 0
-421 -427 0
-422 -423 0
-422 -425 0
-422 -426 0
-422 -427 0
-422 -429 0
-422 -431 0
-424 -427 0
-424 -429 0
-424 -430 0
-424 -431 0
-424 -433 0
-424 -435 0
-425 -427 0
-425 -461 0
-426 -427 0
-426 -429 0
-426 -431 0
-426 -462 0
-426 -465 0
-426 -467 0
-426 -469 0
-428 -431 0
-428 -433 0
-428 -434 0
-428 -435 0
-428 -437 0
-428 -439 0
-429 -431 0
-429 -462 0
-429 -464 0
-429 -465 0
-430 -431 0
-430 -433 0
-430 -435 0
-430 -466 0
-430 -469 0
-430 -471 0
-430 -473 0
-432 -435 0
-432 -437 0
-432 -438 0
-432 -439 0
-432 -441 0
-432 -443 0
-433 -435 0
-433 -462 0
-433 -466 0
-433 -468 0
-433 -469 0
-434 -435 0
-434 -437 0
-434 -439 0
-434 -470 0
-434 -473 0
-434 -475 0
-434 -477 0
-436 -439 0
-436 -441 0
-436 -442 0
-436 -443 0
-436 -445 0
-436 -447 0
-437 -439 0
-437 -466 0
-437 -470 0
-437 -472 0
-437 -473 0
-438 -439 0
-438 -441 0
-438 -443 0
-438 -474 0
-438 -477 0
-438 -479 0
-438 -481 0
-440 -443 0
-440 -445 0
-440 -446 0
-440 -447 0
-440 -449 0
-440 -451 0
-441 -443 0
-441 -470 0
-441 -474 0
-441 -476 0
-441 -477 0
-442 -443 0
-442 -445 0
-442 -447 0
-442 -478 0
-442 -481 0
-442 -483 0
-442 -485 0
-444 -447 0
-444 -449 0
-444 -450 0
-444 -451 0
-444 -453 0
-444 -455 0
-445 -447 0
-445 -474 0
-445 -478 0
-445 -480 0
-445 -481 0
-446 -447 0
-446 -449 0
-446 -451 0
-446 -482 0
-446 -485 0
-446 -487 0
-446 -489 0
-448 -451 0
-448 -453 0
-448 -454 0
-448 -455 0
-448 -457 0
-448 -459 0
-449 -451 0
-449 -478 0
-449 -482 0
-449 -484 0
-449 -485 0
-450 -451 0
-450 -453 0
-450 -455 0
-450 -486 0
-450 -489 0
-450 -491 0
-450 -493 0
-452 -455 0
-452 -457 0
-452 -458 0
-452 -459 0
-452 -460 0
-453 -455 0
-453 -482 0
-453 -486 0
-453 -488 0
-453 -489 0
-454 -455 0
-454 -457 0
-454 -459 0
-454 -490 0
-454 -493 0
-454 -495 0
-456 -459 0
-456 -460 0
-457 -459 0
-457 -486 0
-457 -490 0
-457 -492 0
-457 -493 0
-458 -459 0
-458 -460 0
-458 -494 0
-462 -465 0
-462 -467 0
-462 -468 0
-462 -469 0
-462 -471 0
-462 -473 0
-463 -465 0
-464 -465 0
-464 -467 0
-464 -469 0
-466 -469 0
-466 -471 0
-466 -472 0
-466 -473 0
-466 -475 0
-466 -477 0
-467 -469 0
-468 -469 0
-468 -471 0
-468 -473 0
-470 -473 0
-470 -475 0
-470 -476 0
-470 -477 0
-470 -479 0
-470 -481 0
-471 -473 0
-472 -473 0
-472 -475 0
-472 -477 0
-474 -477 0
-474 -479 0
-474 -480 0
-474 -481 0
-474 -483 0
-474 -485 0
-475 -477 0
-476 -477 0
-476 -479 0
-476 -481 0
-478 -481 0
-478 -483 0
-478 -484 0
-478 -485 0
-478 -487 0
-478 -489 0
-479 -481 0
-480 -481 0
-480 -483 0
-480 -485 0
-482 -485 0
-482 -487 0
-482 -488 0
-482 -489 0
-482 -491 0
-482 -493 0
-483 -485 0
-484 -485 0
-484 -487 0
-484 -489 0
-486 -489 0
-486 -491 0
-486 -492 0
-486 -493 0
-486 -495 0
-487 -489 0
-488 -489 0
-488 -491 0
-488 -493 0
-490 -493 0
-490 -495 0
-490 -496 0
-491 -493 0
-492 -493 0
-492 -495 0
-278 0
-280 0
-275 0
-269 0
