p cnf 426 6881
-151 -158 -207 0
-151 -158 -222 0
-151 -158 -276 0
-151 -158 -277 0
-151 -158 -278 0
-151 -158 -279 0
-151 -207 -222 0
-151 -207 -276 0
-151 -207 -277 0
-151 -207 -278 0
-151 -207 -279 0
-151 -222 -276 0
-151 -222 -277 0
-151 -222 -278 0
-151 -222 -279 0
-151 -276 -277 0
-151 -276 -278 0
-151 -276 -279 0
-151 -277 -278 0
-151 -277 -279 0
-151 -278 -279 0
-158 -207 -222 0
-158 -207 -276 0
-158 -207 -277 0
-158 -207 -278 0
-158 -207 -279 0
-158 -222 -276 0
-158 -222 -277 0
-158 -222 -278 0
-158 -222 -279 0
-158 -276 -277 0
-158 -276 -278 0
-158 -276 -279 0
-158 -277 -278 0
-158 -277 -279 0
-158 -278 -279 0
-207 -222 -276 0
-207 -222 -277 0
-207 -222 -278 0
-207 -222 -279 0
-207 -276 -277 0
-207 -276 -278 0
-207 -276 -279 0
-207 -277 -278 0
-207 -277 -279 0
-207 -278 -279 0
-222 -276 -277 0
-222 -276 -278 0
-222 -276 -279 0
-222 -277 -278 0
-222 -277 -279 0
-222 -278 -279 0
-276 -277 -278 0
-276 -277 -279 0
-276 -278 -279 0
-277 -278 -279 0
151 158 207 222 276 277 278 0
151 158 207 222 276 277 279 0
151 158 207 222 276 278 279 0
151 158 207 222 277 278 279 0
151 158 207 276 277 278 279 0
151 158 222 276 277 278 279 0
151 207 222 276 277 278 279 0
158 207 222 276 277 278 279 0
-105 -112 -161 0
-105 -112 -176 0
-105 -112 -230 0
-105 -112 -231 0
-105 -112 -232 0
-105 -112 -233 0
-105 -161 -176 0
-105 -161 -230 0
-105 -161 -231 0
-105 -161 -232 0
-105 -161 -233 0
-105 -176 -230 0
-105 -176 -231 0
-105 -176 -232 0
-105 -176 -233 0
-105 -230 -231 0
-105 -230 -232 0
-105 -230 -233 0
-105 -231 -232 0
-105 -231 -233 0
-105 -232 -233 0
-112 -161 -176 0
-112 -161 -230 0
-112 -161 -231 0
-112 -161 -232 0
-112 -161 -233 0
-112 -176 -230 0
-112 -176 -231 0
-112 -176 -232 0
-112 -176 -233 0
-112 -230 -231 0
-112 -230 -232 0
-112 -230 -233 0
-112 -231 -232 0
-112 -231 -233 0
-112 -232 -233 0
-161 -176 -230 0
-161 -176 -231 0
-161 -176 -232 0
-161 -176 -233 0
-161 -230 -231 0
-161 -230 -232 0
-161 -230 -233 0
-161 -231 -232 0
-161 -231 -233 0
-161 -232 -233 0
-176 -230 -231 0
-176 -230 -232 0
-176 -230 -233 0
-176 -231 -232 0
-176 -231 -233 0
-176 -232 -233 0
-230 -231 -232 0
-230 -231 -233 0
-230 -232 -233 0
-231 -232 -233 0
105 112 161 176 230 231 232 0
105 112 161 176 230 231 233 0
105 112 161 176 230 232 233 0
105 112 161 176 231 232 233 0
105 112 161 230 231 232 233 0
105 112 176 230 231 232 233 0
105 161 176 230 231 232 233 0
112 161 176 230 231 232 233 0
-217 -224 -273 0
-217 -224 -288 0
-217 -224 -341 0
-217 -224 -342 0
-217 -224 -343 0
-217 -224 -344 0
-217 -273 -288 0
-217 -273 -341 0
-217 -273 -342 0
-217 -273 -343 0
-217 -273 -344 0
-217 -288 -341 0
-217 -288 -342 0
-217 -288 -343 0
-217 -288 -344 0
-217 -341 -342 0
-217 -341 -343 0
-217 -341 -344 0
-217 -342 -343 0
-217 -342 -344 0
-217 -343 -344 0
-224 -273 -288 0
-224 -273 -341 0
-224 -273 -342 0
-224 -273 -343 0
-224 -273 -344 0
-224 -288 -341 0
-224 -288 -342 0
-224 -288 -343 0
-224 -288 -344 0
-224 -341 -342 0
-224 -341 -343 0
-224 -341 -344 0
-224 -342 -343 0
-224 -342 -344 0
-224 -343 -344 0
-273 -288 -341 0
-273 -288 -342 0
-273 -288 -343 0
-273 -288 -344 0
-273 -341 -342 0
-273 -341 -343 0
-273 -341 -344 0
-273 -342 -343 0
-273 -342 -344 0
-273 -343 -344 0
-288 -341 -342 0
-288 -341 -343 0
-288 -341 -344 0
-288 -342 -343 0
-288 -342 -344 0
-288 -343 -344 0
-341 -342 -343 0
-341 -342 -344 0
-341 -343 -344 0
-342 -343 -344 0
217 224 273 288 341 342 343 0
217 224 273 288 341 342 344 0
217 224 273 288 341 343 344 0
217 224 273 288 342 343 344 0
217 224 273 341 342 343 344 0
217 224 288 341 342 343 344 0
217 273 288 341 342 343 344 0
224 273 288 341 342 343 344 0
-12 -13 -14 0
-12 -13 -15 0
-12 -14 -15 0
-13 -14 -15 0
12 13 14 0
12 13 15 0
12 14 15 0
13 14 15 0
-6 -70 -126 0
-6 -70 -127 0
-6 -126 -127 0
-70 -126 -127 0
-48 -49 -50 0
-48 -49 -51 0
-48 -50 -51 0
-49 -50 -51 0
48 49 50 0
48 49 51 0
48 50 51 0
49 50 51 0
-35 -42 -91 0
-35 -42 -106 0
-35 -42 -160 0
-35 -42 -161 0
-35 -42 -162 0
-35 -42 -163 0
-35 -91 -106 0
-35 -91 -160 0
-35 -91 -161 0
-35 -91 -162 0
-35 -91 -163 0
-35 -106 -160 0
-35 -106 -161 0
-35 -106 -162 0
-35 -106 -163 0
-35 -160 -161 0
-35 -160 -162 0
-35 -160 -163 0
-35 -161 -162 0
-35 -161 -163 0
-35 -162 -163 0
-42 -91 -106 0
-42 -91 -160 0
-42 -91 -161 0
-42 -91 -162 0
-42 -91 -163 0
-42 -106 -160 0
-42 -106 -161 0
-42 -106 -162 0
-42 -106 -163 0
-42 -160 -161 0
-42 -160 -162 0
-42 -160 -163 0
-42 -161 -162 0
-42 -161 -163 0
-42 -162 -163 0
-91 -106 -160 0
-91 -106 -161 0
-91 -106 -162 0
-91 -106 -163 0
-91 -160 -161 0
-91 -160 -162 0
-91 -160 -163 0
-91 -161 -162 0
-91 -161 -163 0
-91 -162 -163 0
-106 -160 -161 0
-106 -160 -162 0
-106 -160 -163 0
-106 -161 -162 0
-106 -161 -163 0
-106 -162 -163 0
-160 -161 -162 0
-160 -161 -163 0
-160 -162 -163 0
-161 -162 -163 0
35 42 91 106 160 161 162 0
35 42 91 106 160 161 163 0
35 42 91 106 160 162 163 0
35 42 91 106 161 162 163 0
35 42 91 160 161 162 163 0
35 42 106 160 161 162 163 0
35 91 106 160 161 162 163 0
42 91 106 160 161 162 163 0
-45 -60 -114 0
-45 -60 -115 0
-45 -60 -116 0
-45 -60 -117 0
-45 -114 -115 0
-45 -114 -116 0
-45 -114 -117 0
-45 -115 -116 0
-45 -115 -117 0
-45 -116 -117 0
-60 -114 -115 0
-60 -114 -116 0
-60 -114 -117 0
-60 -115 -116 0
-60 -115 -117 0
-60 -116 -117 0
-114 -115 -116 0
-114 -115 -117 0
-114 -116 -117 0
-115 -116 -117 0
45 60 114 115 116 0
45 60 114 115 117 0
45 60 114 116 117 0
45 60 115 116 117 0
45 114 115 116 117 0
60 114 115 116 117 0
-283 -290 -338 0
-283 -290 -353 0
-283 -290 -403 0
-283 -290 -404 0
-283 -290 -405 0
-283 -290 -406 0
-283 -338 -353 0
-283 -338 -403 0
-283 -338 -404 0
-283 -338 -405 0
-283 -338 -406 0
-283 -353 -403 0
-283 -353 -404 0
-283 -353 -405 0
-283 -353 -406 0
-283 -403 -404 0
-283 -403 -405 0
-283 -403 -406 0
-283 -404 -405 0
-283 -404 -406 0
-283 -405 -406 0
-290 -338 -353 0
-290 -338 -403 0
-290 -338 -404 0
-290 -338 -405 0
-290 -338 -406 0
-290 -353 -403 0
-290 -353 -404 0
-290 -353 -405 0
-290 -353 -406 0
-290 -403 -404 0
-290 -403 -405 0
-290 -403 -406 0
-290 -404 -405 0
-290 -404 -406 0
-290 -405 -406 0
-338 -353 -403 0
-338 -353 -404 0
-338 -353 -405 0
-338 -353 -406 0
-338 -403 -404 0
-338 -403 -405 0
-338 -403 -406 0
-338 -404 -405 0
-338 -404 -406 0
-338 -405 -406 0
-353 -403 -404 0
-353 -403 -405 0
-353 -403 -406 0
-353 -404 -405 0
-353 -404 -406 0
-353 -405 -406 0
-403 -404 -405 0
-403 -404 -406 0
-403 -405 -406 0
-404 -405 -406 0
283 290 338 353 403 404 405 0
283 290 338 353 403 404 406 0
283 290 338 353 403 405 406 0
283 290 338 353 404 405 406 0
283 290 338 403 404 405 406 0
283 290 353 403 404 405 406 0
283 338 353 403 404 405 406 0
290 338 353 403 404 405 406 0
-340 -347 -392 0
-340 -347 -407 0
-340 -392 -407 0
-347 -392 -407 0
-130 -194 -250 0
-130 -194 -251 0
-130 -250 -251 0
-194 -250 -251 0
-77 -84 -133 0
-77 -84 -148 0
-77 -84 -202 0
-77 -84 -203 0
-77 -84 -204 0
-77 -84 -205 0
-77 -133 -148 0
-77 -133 -202 0
-77 -133 -203 0
-77 -133 -204 0
-77 -133 -205 0
-77 -148 -202 0
-77 -148 -203 0
-77 -148 -204 0
-77 -148 -205 0
-77 -202 -203 0
-77 -202 -204 0
-77 -202 -205 0
-77 -203 -204 0
-77 -203 -205 0
-77 -204 -205 0
-84 -133 -148 0
-84 -133 -202 0
-84 -133 -203 0
-84 -133 -204 0
-84 -133 -205 0
-84 -148 -202 0
-84 -148 -203 0
-84 -148 -204 0
-84 -148 -205 0
-84 -202 -203 0
-84 -202 -204 0
-84 -202 -205 0
-84 -203 -204 0
-84 -203 -205 0
-84 -204 -205 0
-133 -148 -202 0
-133 -148 -203 0
-133 -148 -204 0
-133 -148 -205 0
-133 -202 -203 0
-133 -202 -204 0
-133 -202 -205 0
-133 -203 -204 0
-133 -203 -205 0
-133 -204 -205 0
-148 -202 -203 0
-148 -202 -204 0
-148 -202 -205 0
-148 -203 -204 0
-148 -203 -205 0
-148 -204 -205 0
-202 -203 -204 0
-202 -203 -205 0
-202 -204 -205 0
-203 -204 -205 0
77 84 133 148 202 203 204 0
77 84 133 148 202 203 205 0
77 84 133 148 202 204 205 0
77 84 133 148 203 204 205 0
77 84 133 202 203 204 205 0
77 84 148 202 203 204 205 0
77 133 148 202 203 204 205 0
84 133 148 202 203 204 205 0
-189 -196 -249 0
-189 -196 -260 0
-189 -196 -313 0
-189 -196 -314 0
-189 -196 -315 0
-189 -196 -316 0
-189 -249 -260 0
-189 -249 -313 0
-189 -249 -314 0
-189 -249 -315 0
-189 -249 -316 0
-189 -260 -313 0
-189 -260 -314 0
-189 -260 -315 0
-189 -260 -316 0
-189 -313 -314 0
-189 -313 -315 0
-189 -313 -316 0
-189 -314 -315 0
-189 -314 -316 0
-189 -315 -316 0
-196 -249 -260 0
-196 -249 -313 0
-196 -249 -314 0
-196 -249 -315 0
-196 -249 -316 0
-196 -260 -313 0
-196 -260 -314 0
-196 -260 -315 0
-196 -260 -316 0
-196 -313 -314 0
-196 -313 -315 0
-196 -313 -316 0
-196 -314 -315 0
-196 -314 -316 0
-196 -315 -316 0
-249 -260 -313 0
-249 -260 -314 0
-249 -260 -315 0
-249 -260 -316 0
-249 -313 -314 0
-249 -313 -315 0
-249 -313 -316 0
-249 -314 -315 0
-249 -314 -316 0
-249 -315 -316 0
-260 -313 -314 0
-260 -313 -315 0
-260 -313 -316 0
-260 -314 -315 0
-260 -314 -316 0
-260 -315 -316 0
-313 -314 -315 0
-313 -314 -316 0
-313 -315 -316 0
-314 -315 -316 0
189 196 249 260 313 314 315 0
189 196 249 260 313 314 316 0
189 196 249 260 313 315 316 0
189 196 249 260 314 315 316 0
189 196 249 313 314 315 316 0
189 196 260 313 314 315 316 0
189 249 260 313 314 315 316 0
196 249 260 313 314 315 316 0
-113 -120 -169 0
-113 -120 -184 0
-113 -120 -238 0
-113 -120 -239 0
-113 -120 -240 0
-113 -120 -241 0
-113 -169 -184 0
-113 -169 -238 0
-113 -169 -239 0
-113 -169 -240 0
-113 -169 -241 0
-113 -184 -238 0
-113 -184 -239 0
-113 -184 -240 0
-113 -184 -241 0
-113 -238 -239 0
-113 -238 -240 0
-113 -238 -241 0
-113 -239 -240 0
-113 -239 -241 0
-113 -240 -241 0
-120 -169 -184 0
-120 -169 -238 0
-120 -169 -239 0
-120 -169 -240 0
-120 -169 -241 0
-120 -184 -238 0
-120 -184 -239 0
-120 -184 -240 0
-120 -184 -241 0
-120 -238 -239 0
-120 -238 -240 0
-120 -238 -241 0
-120 -239 -240 0
-120 -239 -241 0
-120 -240 -241 0
-169 -184 -238 0
-169 -184 -239 0
-169 -184 -240 0
-169 -184 -241 0
-169 -238 -239 0
-169 -238 -240 0
-169 -238 -241 0
-169 -239 -240 0
-169 -239 -241 0
-169 -240 -241 0
-184 -238 -239 0
-184 -238 -240 0
-184 -238 -241 0
-184 -239 -240 0
-184 -239 -241 0
-184 -240 -241 0
-238 -239 -240 0
-238 -239 -241 0
-238 -240 -241 0
-239 -240 -241 0
113 120 169 184 238 239 240 0
113 120 169 184 238 239 241 0
113 120 169 184 238 240 241 0
113 120 169 184 239 240 241 0
113 120 169 238 239 240 241 0
113 120 184 238 239 240 241 0
113 169 184 238 239 240 241 0
120 169 184 238 239 240 241 0
-225 -232 -281 0
-225 -232 -296 0
-225 -232 -349 0
-225 -232 -350 0
-225 -232 -351 0
-225 -232 -352 0
-225 -281 -296 0
-225 -281 -349 0
-225 -281 -350 0
-225 -281 -351 0
-225 -281 -352 0
-225 -296 -349 0
-225 -296 -350 0
-225 -296 -351 0
-225 -296 -352 0
-225 -349 -350 0
-225 -349 -351 0
-225 -349 -352 0
-225 -350 -351 0
-225 -350 -352 0
-225 -351 -352 0
-232 -281 -296 0
-232 -281 -349 0
-232 -281 -350 0
-232 -281 -351 0
-232 -281 -352 0
-232 -296 -349 0
-232 -296 -350 0
-232 -296 -351 0
-232 -296 -352 0
-232 -349 -350 0
-232 -349 -351 0
-232 -349 -352 0
-232 -350 -351 0
-232 -350 -352 0
-232 -351 -352 0
-281 -296 -349 0
-281 -296 -350 0
-281 -296 -351 0
-281 -296 -352 0
-281 -349 -350 0
-281 -349 -351 0
-281 -349 -352 0
-281 -350 -351 0
-281 -350 -352 0
-281 -351 -352 0
-296 -349 -350 0
-296 -349 -351 0
-296 -349 -352 0
-296 -350 -351 0
-296 -350 -352 0
-296 -351 -352 0
-349 -350 -351 0
-349 -350 -352 0
-349 -351 -352 0
-350 -351 -352 0
225 232 281 296 349 350 351 0
225 232 281 296 349 350 352 0
225 232 281 296 349 351 352 0
225 232 281 296 350 351 352 0
225 232 281 349 350 351 352 0
225 232 296 349 350 351 352 0
225 281 296 349 350 351 352 0
232 281 296 349 350 351 352 0
-20 -21 -22 0
-20 -21 -23 0
-20 -22 -23 0
-21 -22 -23 0
20 21 22 0
20 21 23 0
20 22 23 0
21 22 23 0
-7 -14 -64 0
-7 -14 -78 0
-7 -14 -132 0
-7 -14 -133 0
-7 -14 -134 0
-7 -14 -135 0
-7 -64 -78 0
-7 -64 -132 0
-7 -64 -133 0
-7 -64 -134 0
-7 -64 -135 0
-7 -78 -132 0
-7 -78 -133 0
-7 -78 -134 0
-7 -78 -135 0
-7 -132 -133 0
-7 -132 -134 0
-7 -132 -135 0
-7 -133 -134 0
-7 -133 -135 0
-7 -134 -135 0
-14 -64 -78 0
-14 -64 -132 0
-14 -64 -133 0
-14 -64 -134 0
-14 -64 -135 0
-14 -78 -132 0
-14 -78 -133 0
-14 -78 -134 0
-14 -78 -135 0
-14 -132 -133 0
-14 -132 -134 0
-14 -132 -135 0
-14 -133 -134 0
-14 -133 -135 0
-14 -134 -135 0
-64 -78 -132 0
-64 -78 -133 0
-64 -78 -134 0
-64 -78 -135 0
-64 -132 -133 0
-64 -132 -134 0
-64 -132 -135 0
-64 -133 -134 0
-64 -133 -135 0
-64 -134 -135 0
-78 -132 -133 0
-78 -132 -134 0
-78 -132 -135 0
-78 -133 -134 0
-78 -133 -135 0
-78 -134 -135 0
-132 -133 -134 0
-132 -133 -135 0
-132 -134 -135 0
-133 -134 -135 0
7 14 64 78 132 133 134 0
7 14 64 78 132 133 135 0
7 14 64 78 132 134 135 0
7 14 64 78 133 134 135 0
7 14 64 132 133 134 135 0
7 14 78 132 133 134 135 0
7 64 78 132 133 134 135 0
14 64 78 132 133 134 135 0
-56 -57 -58 0
-56 -57 -59 0
-56 -58 -59 0
-57 -58 -59 0
56 57 58 0
56 57 59 0
56 58 59 0
57 58 59 0
-17 -32 -86 0
-17 -32 -87 0
-17 -32 -88 0
-17 -32 -89 0
-17 -86 -87 0
-17 -86 -88 0
-17 -86 -89 0
-17 -87 -88 0
-17 -87 -89 0
-17 -88 -89 0
-32 -86 -87 0
-32 -86 -88 0
-32 -86 -89 0
-32 -87 -88 0
-32 -87 -89 0
-32 -88 -89 0
-86 -87 -88 0
-86 -87 -89 0
-86 -88 -89 0
-87 -88 -89 0
17 32 86 87 88 0
17 32 86 87 89 0
17 32 86 88 89 0
17 32 87 88 89 0
17 86 87 88 89 0
32 86 87 88 89 0
-255 -262 -312 0
-255 -262 -325 0
-255 -262 -375 0
-255 -262 -376 0
-255 -262 -377 0
-255 -262 -378 0
-255 -312 -325 0
-255 -312 -375 0
-255 -312 -376 0
-255 -312 -377 0
-255 -312 -378 0
-255 -325 -375 0
-255 -325 -376 0
-255 -325 -377 0
-255 -325 -378 0
-255 -375 -376 0
-255 -375 -377 0
-255 -375 -378 0
-255 -376 -377 0
-255 -376 -378 0
-255 -377 -378 0
-262 -312 -325 0
-262 -312 -375 0
-262 -312 -376 0
-262 -312 -377 0
-262 -312 -378 0
-262 -325 -375 0
-262 -325 -376 0
-262 -325 -377 0
-262 -325 -378 0
-262 -375 -376 0
-262 -375 -377 0
-262 -375 -378 0
-262 -376 -377 0
-262 -376 -378 0
-262 -377 -378 0
-312 -325 -375 0
-312 -325 -376 0
-312 -325 -377 0
-312 -325 -378 0
-312 -375 -376 0
-312 -375 -377 0
-312 -375 -378 0
-312 -376 -377 0
-312 -376 -378 0
-312 -377 -378 0
-325 -375 -376 0
-325 -375 -377 0
-325 -375 -378 0
-325 -376 -377 0
-325 -376 -378 0
-325 -377 -378 0
-375 -376 -377 0
-375 -376 -378 0
-375 -377 -378 0
-376 -377 -378 0
255 262 312 325 375 376 377 0
255 262 312 325 375 376 378 0
255 262 312 325 375 377 378 0
255 262 312 325 376 377 378 0
255 262 312 375 376 377 378 0
255 262 325 375 376 377 378 0
255 312 325 375 376 377 378 0
262 312 325 375 376 377 378 0
-53 -122 -123 0
-291 -298 -346 0
-291 -298 -361 0
-291 -298 -411 0
-291 -298 -412 0
-291 -298 -413 0
-291 -298 -414 0
-291 -346 -361 0
-291 -346 -411 0
-291 -346 -412 0
-291 -346 -413 0
-291 -346 -414 0
-291 -361 -411 0
-291 -361 -412 0
-291 -361 -413 0
-291 -361 -414 0
-291 -411 -412 0
-291 -411 -413 0
-291 -411 -414 0
-291 -412 -413 0
-291 -412 -414 0
-291 -413 -414 0
-298 -346 -361 0
-298 -346 -411 0
-298 -346 -412 0
-298 -346 -413 0
-298 -346 -414 0
-298 -361 -411 0
-298 -361 -412 0
-298 -361 -413 0
-298 -361 -414 0
-298 -411 -412 0
-298 -411 -413 0
-298 -411 -414 0
-298 -412 -413 0
-298 -412 -414 0
-298 -413 -414 0
-346 -361 -411 0
-346 -361 -412 0
-346 -361 -413 0
-346 -361 -414 0
-346 -411 -412 0
-346 -411 -413 0
-346 -411 -414 0
-346 -412 -413 0
-346 -412 -414 0
-346 -413 -414 0
-361 -411 -412 0
-361 -411 -413 0
-361 -411 -414 0
-361 -412 -413 0
-361 -412 -414 0
-361 -413 -414 0
-411 -412 -413 0
-411 -412 -414 0
-411 -413 -414 0
-412 -413 -414 0
291 298 346 361 411 412 413 0
291 298 346 361 411 412 414 0
291 298 346 361 411 413 414 0
291 298 346 361 412 413 414 0
291 298 346 411 412 413 414 0
291 298 361 411 412 413 414 0
291 346 361 411 412 413 414 0
298 346 361 411 412 413 414 0
-348 -355 -400 0
-348 -355 -415 0
-348 -400 -415 0
-355 -400 -415 0
-85 -92 -141 0
-85 -92 -156 0
-85 -92 -210 0
-85 -92 -211 0
-85 -92 -212 0
-85 -92 -213 0
-85 -141 -156 0
-85 -141 -210 0
-85 -141 -211 0
-85 -141 -212 0
-85 -141 -213 0
-85 -156 -210 0
-85 -156 -211 0
-85 -156 -212 0
-85 -156 -213 0
-85 -210 -211 0
-85 -210 -212 0
-85 -210 -213 0
-85 -211 -212 0
-85 -211 -213 0
-85 -212 -213 0
-92 -141 -156 0
-92 -141 -210 0
-92 -141 -211 0
-92 -141 -212 0
-92 -141 -213 0
-92 -156 -210 0
-92 -156 -211 0
-92 -156 -212 0
-92 -156 -213 0
-92 -210 -211 0
-92 -210 -212 0
-92 -210 -213 0
-92 -211 -212 0
-92 -211 -213 0
-92 -212 -213 0
-141 -156 -210 0
-141 -156 -211 0
-141 -156 -212 0
-141 -156 -213 0
-141 -210 -211 0
-141 -210 -212 0
-141 -210 -213 0
-141 -211 -212 0
-141 -211 -213 0
-141 -212 -213 0
-156 -210 -211 0
-156 -210 -212 0
-156 -210 -213 0
-156 -211 -212 0
-156 -211 -213 0
-156 -212 -213 0
-210 -211 -212 0
-210 -211 -213 0
-210 -212 -213 0
-211 -212 -213 0
85 92 141 156 210 211 212 0
85 92 141 156 210 211 213 0
85 92 141 156 210 212 213 0
85 92 141 156 211 212 213 0
85 92 141 210 211 212 213 0
85 92 156 210 211 212 213 0
85 141 156 210 211 212 213 0
92 141 156 210 211 212 213 0
-197 -204 -253 0
-197 -204 -268 0
-197 -204 -321 0
-197 -204 -322 0
-197 -204 -323 0
-197 -204 -324 0
-197 -253 -268 0
-197 -253 -321 0
-197 -253 -322 0
-197 -253 -323 0
-197 -253 -324 0
-197 -268 -321 0
-197 -268 -322 0
-197 -268 -323 0
-197 -268 -324 0
-197 -321 -322 0
-197 -321 -323 0
-197 -321 -324 0
-197 -322 -323 0
-197 -322 -324 0
-197 -323 -324 0
-204 -253 -268 0
-204 -253 -321 0
-204 -253 -322 0
-204 -253 -323 0
-204 -253 -324 0
-204 -268 -321 0
-204 -268 -322 0
-204 -268 -323 0
-204 -268 -324 0
-204 -321 -322 0
-204 -321 -323 0
-204 -321 -324 0
-204 -322 -323 0
-204 -322 -324 0
-204 -323 -324 0
-253 -268 -321 0
-253 -268 -322 0
-253 -268 -323 0
-253 -268 -324 0
-253 -321 -322 0
-253 -321 -323 0
-253 -321 -324 0
-253 -322 -323 0
-253 -322 -324 0
-253 -323 -324 0
-268 -321 -322 0
-268 -321 -323 0
-268 -321 -324 0
-268 -322 -323 0
-268 -322 -324 0
-268 -323 -324 0
-321 -322 -323 0
-321 -322 -324 0
-321 -323 -324 0
-322 -323 -324 0
197 204 253 268 321 322 323 0
197 204 253 268 321 322 324 0
197 204 253 268 321 323 324 0
197 204 253 268 322 323 324 0
197 204 253 321 322 323 324 0
197 204 268 321 322 323 324 0
197 253 268 321 322 323 324 0
204 253 268 321 322 323 324 0
-121 -177 -246 0
-121 -177 -247 0
-121 -246 -247 0
-177 -246 -247 0
-233 -240 -289 0
-233 -240 -304 0
-233 -240 -357 0
-233 -240 -358 0
-233 -240 -359 0
-233 -240 -360 0
-233 -289 -304 0
-233 -289 -357 0
-233 -289 -358 0
-233 -289 -359 0
-233 -289 -360 0
-233 -304 -357 0
-233 -304 -358 0
-233 -304 -359 0
-233 -304 -360 0
-233 -357 -358 0
-233 -357 -359 0
-233 -357 -360 0
-233 -358 -359 0
-233 -358 -360 0
-233 -359 -360 0
-240 -289 -304 0
-240 -289 -357 0
-240 -289 -358 0
-240 -289 -359 0
-240 -289 -360 0
-240 -304 -357 0
-240 -304 -358 0
-240 -304 -359 0
-240 -304 -360 0
-240 -357 -358 0
-240 -357 -359 0
-240 -357 -360 0
-240 -358 -359 0
-240 -358 -360 0
-240 -359 -360 0
-289 -304 -357 0
-289 -304 -358 0
-289 -304 -359 0
-289 -304 -360 0
-289 -357 -358 0
-289 -357 -359 0
-289 -357 -360 0
-289 -358 -359 0
-289 -358 -360 0
-289 -359 -360 0
-304 -357 -358 0
-304 -357 -359 0
-304 -357 -360 0
-304 -358 -359 0
-304 -358 -360 0
-304 -359 -360 0
-357 -358 -359 0
-357 -358 -360 0
-357 -359 -360 0
-358 -359 -360 0
233 240 289 304 357 358 359 0
233 240 289 304 357 358 360 0
233 240 289 304 357 359 360 0
233 240 289 304 358 359 360 0
233 240 289 357 358 359 360 0
233 240 304 357 358 359 360 0
233 289 304 357 358 359 360 0
240 289 304 357 358 359 360 0
-28 -29 -30 0
-28 -29 -31 0
-28 -30 -31 0
-29 -30 -31 0
28 29 30 0
28 29 31 0
28 30 31 0
29 30 31 0
-25 -40 -94 0
-25 -40 -95 0
-25 -40 -96 0
-25 -40 -97 0
-25 -94 -95 0
-25 -94 -96 0
-25 -94 -97 0
-25 -95 -96 0
-25 -95 -97 0
-25 -96 -97 0
-40 -94 -95 0
-40 -94 -96 0
-40 -94 -97 0
-40 -95 -96 0
-40 -95 -97 0
-40 -96 -97 0
-94 -95 -96 0
-94 -95 -97 0
-94 -96 -97 0
-95 -96 -97 0
25 40 94 95 96 0
25 40 94 95 97 0
25 40 94 96 97 0
25 40 95 96 97 0
25 94 95 96 97 0
40 94 95 96 97 0
-263 -270 -318 0
-263 -270 -333 0
-263 -270 -383 0
-263 -270 -384 0
-263 -270 -385 0
-263 -270 -386 0
-263 -318 -333 0
-263 -318 -383 0
-263 -318 -384 0
-263 -318 -385 0
-263 -318 -386 0
-263 -333 -383 0
-263 -333 -384 0
-263 -333 -385 0
-263 -333 -386 0
-263 -383 -384 0
-263 -383 -385 0
-263 -383 -386 0
-263 -384 -385 0
-263 -384 -386 0
-263 -385 -386 0
-270 -318 -333 0
-270 -318 -383 0
-270 -318 -384 0
-270 -318 -385 0
-270 -318 -386 0
-270 -333 -383 0
-270 -333 -384 0
-270 -333 -385 0
-270 -333 -386 0
-270 -383 -384 0
-270 -383 -385 0
-270 -383 -386 0
-270 -384 -385 0
-270 -384 -386 0
-270 -385 -386 0
-318 -333 -383 0
-318 -333 -384 0
-318 -333 -385 0
-318 -333 -386 0
-318 -383 -384 0
-318 -383 -385 0
-318 -383 -386 0
-318 -384 -385 0
-318 -384 -386 0
-318 -385 -386 0
-333 -383 -384 0
-333 -383 -385 0
-333 -383 -386 0
-333 -384 -385 0
-333 -384 -386 0
-333 -385 -386 0
-383 -384 -385 0
-383 -384 -386 0
-383 -385 -386 0
-384 -385 -386 0
263 270 318 333 383 384 385 0
263 270 318 333 383 384 386 0
263 270 318 333 383 385 386 0
263 270 318 333 384 385 386 0
263 270 318 383 384 385 386 0
263 270 333 383 384 385 386 0
263 318 333 383 384 385 386 0
270 318 333 383 384 385 386 0
-320 -327 -372 0
-320 -327 -387 0
-320 -372 -387 0
-327 -372 -387 0
-356 -363 -408 0
-356 -363 -423 0
-356 -408 -423 0
-363 -408 -423 0
-93 -100 -149 0
-93 -100 -164 0
-93 -100 -218 0
-93 -100 -219 0
-93 -100 -220 0
-93 -100 -221 0
-93 -149 -164 0
-93 -149 -218 0
-93 -149 -219 0
-93 -149 -220 0
-93 -149 -221 0
-93 -164 -218 0
-93 -164 -219 0
-93 -164 -220 0
-93 -164 -221 0
-93 -218 -219 0
-93 -218 -220 0
-93 -218 -221 0
-93 -219 -220 0
-93 -219 -221 0
-93 -220 -221 0
-100 -149 -164 0
-100 -149 -218 0
-100 -149 -219 0
-100 -149 -220 0
-100 -149 -221 0
-100 -164 -218 0
-100 -164 -219 0
-100 -164 -220 0
-100 -164 -221 0
-100 -218 -219 0
-100 -218 -220 0
-100 -218 -221 0
-100 -219 -220 0
-100 -219 -221 0
-100 -220 -221 0
-149 -164 -218 0
-149 -164 -219 0
-149 -164 -220 0
-149 -164 -221 0
-149 -218 -219 0
-149 -218 -220 0
-149 -218 -221 0
-149 -219 -220 0
-149 -219 -221 0
-149 -220 -221 0
-164 -218 -219 0
-164 -218 -220 0
-164 -218 -221 0
-164 -219 -220 0
-164 -219 -221 0
-164 -220 -221 0
-218 -219 -220 0
-218 -219 -221 0
-218 -220 -221 0
-219 -220 -221 0
93 100 149 164 218 219 220 0
93 100 149 164 218 219 221 0
93 100 149 164 218 220 221 0
93 100 149 164 219 220 221 0
93 100 149 218 219 220 221 0
93 100 164 218 219 220 221 0
93 149 164 218 219 220 221 0
100 149 164 218 219 220 221 0
-205 -212 -261 0
-205 -212 -276 0
-205 -212 -329 0
-205 -212 -330 0
-205 -212 -331 0
-205 -212 -332 0
-205 -261 -276 0
-205 -261 -329 0
-205 -261 -330 0
-205 -261 -331 0
-205 -261 -332 0
-205 -276 -329 0
-205 -276 -330 0
-205 -276 -331 0
-205 -276 -332 0
-205 -329 -330 0
-205 -329 -331 0
-205 -329 -332 0
-205 -330 -331 0
-205 -330 -332 0
-205 -331 -332 0
-212 -261 -276 0
-212 -261 -329 0
-212 -261 -330 0
-212 -261 -331 0
-212 -261 -332 0
-212 -276 -329 0
-212 -276 -330 0
-212 -276 -331 0
-212 -276 -332 0
-212 -329 -330 0
-212 -329 -331 0
-212 -329 -332 0
-212 -330 -331 0
-212 -330 -332 0
-212 -331 -332 0
-261 -276 -329 0
-261 -276 -330 0
-261 -276 -331 0
-261 -276 -332 0
-261 -329 -330 0
-261 -329 -331 0
-261 -329 -332 0
-261 -330 -331 0
-261 -330 -332 0
-261 -331 -332 0
-276 -329 -330 0
-276 -329 -331 0
-276 -329 -332 0
-276 -330 -331 0
-276 -330 -332 0
-276 -331 -332 0
-329 -330 -331 0
-329 -330 -332 0
-329 -331 -332 0
-330 -331 -332 0
205 212 261 276 329 330 331 0
205 212 261 276 329 330 332 0
205 212 261 276 329 331 332 0
205 212 261 276 330 331 332 0
205 212 261 329 330 331 332 0
205 212 276 329 330 331 332 0
205 261 276 329 330 331 332 0
212 261 276 329 330 331 332 0
-241 -247 -297 0
-241 -247 -310 0
-241 -247 -365 0
-241 -247 -366 0
-241 -247 -367 0
-241 -247 -368 0
-241 -297 -310 0
-241 -297 -365 0
-241 -297 -366 0
-241 -297 -367 0
-241 -297 -368 0
-241 -310 -365 0
-241 -310 -366 0
-241 -310 -367 0
-241 -310 -368 0
-241 -365 -366 0
-241 -365 -367 0
-241 -365 -368 0
-241 -366 -367 0
-241 -366 -368 0
-241 -367 -368 0
-247 -297 -310 0
-247 -297 -365 0
-247 -297 -366 0
-247 -297 -367 0
-247 -297 -368 0
-247 -310 -365 0
-247 -310 -366 0
-247 -310 -367 0
-247 -310 -368 0
-247 -365 -366 0
-247 -365 -367 0
-247 -365 -368 0
-247 -366 -367 0
-247 -366 -368 0
-247 -367 -368 0
-297 -310 -365 0
-297 -310 -366 0
-297 -310 -367 0
-297 -310 -368 0
-297 -365 -366 0
-297 -365 -367 0
-297 -365 -368 0
-297 -366 -367 0
-297 -366 -368 0
-297 -367 -368 0
-310 -365 -366 0
-310 -365 -367 0
-310 -365 -368 0
-310 -366 -367 0
-310 -366 -368 0
-310 -367 -368 0
-365 -366 -367 0
-365 -366 -368 0
-365 -367 -368 0
-366 -367 -368 0
241 247 297 310 365 366 367 0
241 247 297 310 365 366 368 0
241 247 297 310 365 367 368 0
241 247 297 310 366 367 368 0
241 247 297 365 366 367 368 0
241 247 310 365 366 367 368 0
241 297 310 365 366 367 368 0
247 297 310 365 366 367 368 0
-1 -12 -66 0
-1 -12 -67 0
-1 -12 -68 0
-1 -12 -69 0
-1 -66 -67 0
-1 -66 -68 0
-1 -66 -69 0
-1 -67 -68 0
-1 -67 -69 0
-1 -68 -69 0
-12 -66 -67 0
-12 -66 -68 0
-12 -66 -69 0
-12 -67 -68 0
-12 -67 -69 0
-12 -68 -69 0
-66 -67 -68 0
-66 -67 -69 0
-66 -68 -69 0
-67 -68 -69 0
1 12 66 67 68 0
1 12 66 67 69 0
1 12 66 68 69 0
1 12 67 68 69 0
1 66 67 68 69 0
12 66 67 68 69 0
-33 -48 -102 0
-33 -48 -103 0
-33 -48 -104 0
-33 -48 -105 0
-33 -102 -103 0
-33 -102 -104 0
-33 -102 -105 0
-33 -103 -104 0
-33 -103 -105 0
-33 -104 -105 0
-48 -102 -103 0
-48 -102 -104 0
-48 -102 -105 0
-48 -103 -104 0
-48 -103 -105 0
-48 -104 -105 0
-102 -103 -104 0
-102 -103 -105 0
-102 -104 -105 0
-103 -104 -105 0
33 48 102 103 104 0
33 48 102 103 105 0
33 48 102 104 105 0
33 48 103 104 105 0
33 102 103 104 105 0
48 102 103 104 105 0
-328 -335 -380 0
-328 -335 -395 0
-328 -380 -395 0
-335 -380 -395 0
-65 -72 -125 0
-65 -72 -136 0
-65 -72 -190 0
-65 -72 -191 0
-65 -72 -192 0
-65 -72 -193 0
-65 -125 -136 0
-65 -125 -190 0
-65 -125 -191 0
-65 -125 -192 0
-65 -125 -193 0
-65 -136 -190 0
-65 -136 -191 0
-65 -136 -192 0
-65 -136 -193 0
-65 -190 -191 0
-65 -190 -192 0
-65 -190 -193 0
-65 -191 -192 0
-65 -191 -193 0
-65 -192 -193 0
-72 -125 -136 0
-72 -125 -190 0
-72 -125 -191 0
-72 -125 -192 0
-72 -125 -193 0
-72 -136 -190 0
-72 -136 -191 0
-72 -136 -192 0
-72 -136 -193 0
-72 -190 -191 0
-72 -190 -192 0
-72 -190 -193 0
-72 -191 -192 0
-72 -191 -193 0
-72 -192 -193 0
-125 -136 -190 0
-125 -136 -191 0
-125 -136 -192 0
-125 -136 -193 0
-125 -190 -191 0
-125 -190 -192 0
-125 -190 -193 0
-125 -191 -192 0
-125 -191 -193 0
-125 -192 -193 0
-136 -190 -191 0
-136 -190 -192 0
-136 -190 -193 0
-136 -191 -192 0
-136 -191 -193 0
-136 -192 -193 0
-190 -191 -192 0
-190 -191 -193 0
-190 -192 -193 0
-191 -192 -193 0
65 72 125 136 190 191 192 0
65 72 125 136 190 191 193 0
65 72 125 136 190 192 193 0
65 72 125 136 191 192 193 0
65 72 125 190 191 192 193 0
65 72 136 190 191 192 193 0
65 125 136 190 191 192 193 0
72 125 136 190 191 192 193 0
-101 -108 -157 0
-101 -108 -172 0
-101 -108 -226 0
-101 -108 -227 0
-101 -108 -228 0
-101 -108 -229 0
-101 -157 -172 0
-101 -157 -226 0
-101 -157 -227 0
-101 -157 -228 0
-101 -157 -229 0
-101 -172 -226 0
-101 -172 -227 0
-101 -172 -228 0
-101 -172 -229 0
-101 -226 -227 0
-101 -226 -228 0
-101 -226 -229 0
-101 -227 -228 0
-101 -227 -229 0
-101 -228 -229 0
-108 -157 -172 0
-108 -157 -226 0
-108 -157 -227 0
-108 -157 -228 0
-108 -157 -229 0
-108 -172 -226 0
-108 -172 -227 0
-108 -172 -228 0
-108 -172 -229 0
-108 -226 -227 0
-108 -226 -228 0
-108 -226 -229 0
-108 -227 -228 0
-108 -227 -229 0
-108 -228 -229 0
-157 -172 -226 0
-157 -172 -227 0
-157 -172 -228 0
-157 -172 -229 0
-157 -226 -227 0
-157 -226 -228 0
-157 -226 -229 0
-157 -227 -228 0
-157 -227 -229 0
-157 -228 -229 0
-172 -226 -227 0
-172 -226 -228 0
-172 -226 -229 0
-172 -227 -228 0
-172 -227 -229 0
-172 -228 -229 0
-226 -227 -228 0
-226 -227 -229 0
-226 -228 -229 0
-227 -228 -229 0
101 108 157 172 226 227 228 0
101 108 157 172 226 227 229 0
101 108 157 172 226 228 229 0
101 108 157 172 227 228 229 0
101 108 157 226 227 228 229 0
101 108 172 226 227 228 229 0
101 157 172 226 227 228 229 0
108 157 172 226 227 228 229 0
-213 -220 -269 0
-213 -220 -284 0
-213 -220 -337 0
-213 -220 -338 0
-213 -220 -339 0
-213 -220 -340 0
-213 -269 -284 0
-213 -269 -337 0
-213 -269 -338 0
-213 -269 -339 0
-213 -269 -340 0
-213 -284 -337 0
-213 -284 -338 0
-213 -284 -339 0
-213 -284 -340 0
-213 -337 -338 0
-213 -337 -339 0
-213 -337 -340 0
-213 -338 -339 0
-213 -338 -340 0
-213 -339 -340 0
-220 -269 -284 0
-220 -269 -337 0
-220 -269 -338 0
-220 -269 -339 0
-220 -269 -340 0
-220 -284 -337 0
-220 -284 -338 0
-220 -284 -339 0
-220 -284 -340 0
-220 -337 -338 0
-220 -337 -339 0
-220 -337 -340 0
-220 -338 -339 0
-220 -338 -340 0
-220 -339 -340 0
-269 -284 -337 0
-269 -284 -338 0
-269 -284 -339 0
-269 -284 -340 0
-269 -337 -338 0
-269 -337 -339 0
-269 -337 -340 0
-269 -338 -339 0
-269 -338 -340 0
-269 -339 -340 0
-284 -337 -338 0
-284 -337 -339 0
-284 -337 -340 0
-284 -338 -339 0
-284 -338 -340 0
-284 -339 -340 0
-337 -338 -339 0
-337 -338 -340 0
-337 -339 -340 0
-338 -339 -340 0
213 220 269 284 337 338 339 0
213 220 269 284 337 338 340 0
213 220 269 284 337 339 340 0
213 220 269 284 338 339 340 0
213 220 269 337 338 339 340 0
213 220 284 337 338 339 340 0
213 269 284 337 338 339 340 0
220 269 284 337 338 339 340 0
-159 -166 -215 0
-159 -166 -230 0
-159 -166 -284 0
-159 -166 -285 0
-159 -166 -286 0
-159 -166 -287 0
-159 -215 -230 0
-159 -215 -284 0
-159 -215 -285 0
-159 -215 -286 0
-159 -215 -287 0
-159 -230 -284 0
-159 -230 -285 0
-159 -230 -286 0
-159 -230 -287 0
-159 -284 -285 0
-159 -284 -286 0
-159 -284 -287 0
-159 -285 -286 0
-159 -285 -287 0
-159 -286 -287 0
-166 -215 -230 0
-166 -215 -284 0
-166 -215 -285 0
-166 -215 -286 0
-166 -215 -287 0
-166 -230 -284 0
-166 -230 -285 0
-166 -230 -286 0
-166 -230 -287 0
-166 -284 -285 0
-166 -284 -286 0
-166 -284 -287 0
-166 -285 -286 0
-166 -285 -287 0
-166 -286 -287 0
-215 -230 -284 0
-215 -230 -285 0
-215 -230 -286 0
-215 -230 -287 0
-215 -284 -285 0
-215 -284 -286 0
-215 -284 -287 0
-215 -285 -286 0
-215 -285 -287 0
-215 -286 -287 0
-230 -284 -285 0
-230 -284 -286 0
-230 -284 -287 0
-230 -285 -286 0
-230 -285 -287 0
-230 -286 -287 0
-284 -285 -286 0
-284 -285 -287 0
-284 -286 -287 0
-285 -286 -287 0
159 166 215 230 284 285 286 0
159 166 215 230 284 285 287 0
159 166 215 230 284 286 287 0
159 166 215 230 285 286 287 0
159 166 215 284 285 286 287 0
159 166 230 284 285 286 287 0
159 215 230 284 285 286 287 0
166 215 230 284 285 286 287 0
-5 -20 -74 0
-5 -20 -75 0
-5 -20 -76 0
-5 -20 -77 0
-5 -74 -75 0
-5 -74 -76 0
-5 -74 -77 0
-5 -75 -76 0
-5 -75 -77 0
-5 -76 -77 0
-20 -74 -75 0
-20 -74 -76 0
-20 -74 -77 0
-20 -75 -76 0
-20 -75 -77 0
-20 -76 -77 0
-74 -75 -76 0
-74 -75 -77 0
-74 -76 -77 0
-75 -76 -77 0
5 20 74 75 76 0
5 20 74 75 77 0
5 20 74 76 77 0
5 20 75 76 77 0
5 74 75 76 77 0
20 74 75 76 77 0
-41 -56 -110 0
-41 -56 -111 0
-41 -56 -112 0
-41 -56 -113 0
-41 -110 -111 0
-41 -110 -112 0
-41 -110 -113 0
-41 -111 -112 0
-41 -111 -113 0
-41 -112 -113 0
-56 -110 -111 0
-56 -110 -112 0
-56 -110 -113 0
-56 -111 -112 0
-56 -111 -113 0
-56 -112 -113 0
-110 -111 -112 0
-110 -111 -113 0
-110 -112 -113 0
-111 -112 -113 0
41 56 110 111 112 0
41 56 110 111 113 0
41 56 110 112 113 0
41 56 111 112 113 0
41 110 111 112 113 0
56 110 111 112 113 0
-43 -50 -99 0
-43 -50 -114 0
-43 -50 -168 0
-43 -50 -169 0
-43 -50 -170 0
-43 -50 -171 0
-43 -99 -114 0
-43 -99 -168 0
-43 -99 -169 0
-43 -99 -170 0
-43 -99 -171 0
-43 -114 -168 0
-43 -114 -169 0
-43 -114 -170 0
-43 -114 -171 0
-43 -168 -169 0
-43 -168 -170 0
-43 -168 -171 0
-43 -169 -170 0
-43 -169 -171 0
-43 -170 -171 0
-50 -99 -114 0
-50 -99 -168 0
-50 -99 -169 0
-50 -99 -170 0
-50 -99 -171 0
-50 -114 -168 0
-50 -114 -169 0
-50 -114 -170 0
-50 -114 -171 0
-50 -168 -169 0
-50 -168 -170 0
-50 -168 -171 0
-50 -169 -170 0
-50 -169 -171 0
-50 -170 -171 0
-99 -114 -168 0
-99 -114 -169 0
-99 -114 -170 0
-99 -114 -171 0
-99 -168 -169 0
-99 -168 -170 0
-99 -168 -171 0
-99 -169 -170 0
-99 -169 -171 0
-99 -170 -171 0
-114 -168 -169 0
-114 -168 -170 0
-114 -168 -171 0
-114 -169 -170 0
-114 -169 -171 0
-114 -170 -171 0
-168 -169 -170 0
-168 -169 -171 0
-168 -170 -171 0
-169 -170 -171 0
43 50 99 114 168 169 170 0
43 50 99 114 168 169 171 0
43 50 99 114 168 170 171 0
43 50 99 114 169 170 171 0
43 50 99 168 169 170 171 0
43 50 114 168 169 170 171 0
43 99 114 168 169 170 171 0
50 99 114 168 169 170 171 0
-336 -343 -388 0
-336 -343 -403 0
-336 -388 -403 0
-343 -388 -403 0
-73 -80 -129 0
-73 -80 -144 0
-73 -80 -198 0
-73 -80 -199 0
-73 -80 -200 0
-73 -80 -201 0
-73 -129 -144 0
-73 -129 -198 0
-73 -129 -199 0
-73 -129 -200 0
-73 -129 -201 0
-73 -144 -198 0
-73 -144 -199 0
-73 -144 -200 0
-73 -144 -201 0
-73 -198 -199 0
-73 -198 -200 0
-73 -198 -201 0
-73 -199 -200 0
-73 -199 -201 0
-73 -200 -201 0
-80 -129 -144 0
-80 -129 -198 0
-80 -129 -199 0
-80 -129 -200 0
-80 -129 -201 0
-80 -144 -198 0
-80 -144 -199 0
-80 -144 -200 0
-80 -144 -201 0
-80 -198 -199 0
-80 -198 -200 0
-80 -198 -201 0
-80 -199 -200 0
-80 -199 -201 0
-80 -200 -201 0
-129 -144 -198 0
-129 -144 -199 0
-129 -144 -200 0
-129 -144 -201 0
-129 -198 -199 0
-129 -198 -200 0
-129 -198 -201 0
-129 -199 -200 0
-129 -199 -201 0
-129 -200 -201 0
-144 -198 -199 0
-144 -198 -200 0
-144 -198 -201 0
-144 -199 -200 0
-144 -199 -201 0
-144 -200 -201 0
-198 -199 -200 0
-198 -199 -201 0
-198 -200 -201 0
-199 -200 -201 0
73 80 129 144 198 199 200 0
73 80 129 144 198 199 201 0
73 80 129 144 198 200 201 0
73 80 129 144 199 200 201 0
73 80 129 198 199 200 201 0
73 80 144 198 199 200 201 0
73 129 144 198 199 200 201 0
80 129 144 198 199 200 201 0
-192 -256 -312 0
-131 -138 -188 0
-131 -138 -202 0
-131 -138 -256 0
-131 -138 -257 0
-131 -138 -258 0
-131 -138 -259 0
-131 -188 -202 0
-131 -188 -256 0
-131 -188 -257 0
-131 -188 -258 0
-131 -188 -259 0
-131 -202 -256 0
-131 -202 -257 0
-131 -202 -258 0
-131 -202 -259 0
-131 -256 -257 0
-131 -256 -258 0
-131 -256 -259 0
-131 -257 -258 0
-131 -257 -259 0
-131 -258 -259 0
-138 -188 -202 0
-138 -188 -256 0
-138 -188 -257 0
-138 -188 -258 0
-138 -188 -259 0
-138 -202 -256 0
-138 -202 -257 0
-138 -202 -258 0
-138 -202 -259 0
-138 -256 -257 0
-138 -256 -258 0
-138 -256 -259 0
-138 -257 -258 0
-138 -257 -259 0
-138 -258 -259 0
-188 -202 -256 0
-188 -202 -257 0
-188 -202 -258 0
-188 -202 -259 0
-188 -256 -257 0
-188 -256 -258 0
-188 -256 -259 0
-188 -257 -258 0
-188 -257 -259 0
-188 -258 -259 0
-202 -256 -257 0
-202 -256 -258 0
-202 -256 -259 0
-202 -257 -258 0
-202 -257 -259 0
-202 -258 -259 0
-256 -257 -258 0
-256 -257 -259 0
-256 -258 -259 0
-257 -258 -259 0
131 138 188 202 256 257 258 0
131 138 188 202 256 257 259 0
131 138 188 202 256 258 259 0
131 138 188 202 257 258 259 0
131 138 188 256 257 258 259 0
131 138 202 256 257 258 259 0
131 188 202 256 257 258 259 0
138 188 202 256 257 258 259 0
-109 -116 -165 0
-109 -116 -180 0
-109 -116 -234 0
-109 -116 -235 0
-109 -116 -236 0
-109 -116 -237 0
-109 -165 -180 0
-109 -165 -234 0
-109 -165 -235 0
-109 -165 -236 0
-109 -165 -237 0
-109 -180 -234 0
-109 -180 -235 0
-109 -180 -236 0
-109 -180 -237 0
-109 -234 -235 0
-109 -234 -236 0
-109 -234 -237 0
-109 -235 -236 0
-109 -235 -237 0
-109 -236 -237 0
-116 -165 -180 0
-116 -165 -234 0
-116 -165 -235 0
-116 -165 -236 0
-116 -165 -237 0
-116 -180 -234 0
-116 -180 -235 0
-116 -180 -236 0
-116 -180 -237 0
-116 -234 -235 0
-116 -234 -236 0
-116 -234 -237 0
-116 -235 -236 0
-116 -235 -237 0
-116 -236 -237 0
-165 -180 -234 0
-165 -180 -235 0
-165 -180 -236 0
-165 -180 -237 0
-165 -234 -235 0
-165 -234 -236 0
-165 -234 -237 0
-165 -235 -236 0
-165 -235 -237 0
-165 -236 -237 0
-180 -234 -235 0
-180 -234 -236 0
-180 -234 -237 0
-180 -235 -236 0
-180 -235 -237 0
-180 -236 -237 0
-234 -235 -236 0
-234 -235 -237 0
-234 -236 -237 0
-235 -236 -237 0
109 116 165 180 234 235 236 0
109 116 165 180 234 235 237 0
109 116 165 180 234 236 237 0
109 116 165 180 235 236 237 0
109 116 165 234 235 236 237 0
109 116 180 234 235 236 237 0
109 165 180 234 235 236 237 0
116 165 180 234 235 236 237 0
-221 -228 -277 0
-221 -228 -292 0
-221 -228 -345 0
-221 -228 -346 0
-221 -228 -347 0
-221 -228 -348 0
-221 -277 -292 0
-221 -277 -345 0
-221 -277 -346 0
-221 -277 -347 0
-221 -277 -348 0
-221 -292 -345 0
-221 -292 -346 0
-221 -292 -347 0
-221 -292 -348 0
-221 -345 -346 0
-221 -345 -347 0
-221 -345 -348 0
-221 -346 -347 0
-221 -346 -348 0
-221 -347 -348 0
-228 -277 -292 0
-228 -277 -345 0
-228 -277 -346 0
-228 -277 -347 0
-228 -277 -348 0
-228 -292 -345 0
-228 -292 -346 0
-228 -292 -347 0
-228 -292 -348 0
-228 -345 -346 0
-228 -345 -347 0
-228 -345 -348 0
-228 -346 -347 0
-228 -346 -348 0
-228 -347 -348 0
-277 -292 -345 0
-277 -292 -346 0
-277 -292 -347 0
-277 -292 -348 0
-277 -345 -346 0
-277 -345 -347 0
-277 -345 -348 0
-277 -346 -347 0
-277 -346 -348 0
-277 -347 -348 0
-292 -345 -346 0
-292 -345 -347 0
-292 -345 -348 0
-292 -346 -347 0
-292 -346 -348 0
-292 -347 -348 0
-345 -346 -347 0
-345 -346 -348 0
-345 -347 -348 0
-346 -347 -348 0
221 228 277 292 345 346 347 0
221 228 277 292 345 346 348 0
221 228 277 292 345 347 348 0
221 228 277 292 346 347 348 0
221 228 277 345 346 347 348 0
221 228 292 345 346 347 348 0
221 277 292 345 346 347 348 0
228 277 292 345 346 347 348 0
-167 -174 -223 0
-167 -174 -238 0
-167 -174 -292 0
-167 -174 -293 0
-167 -174 -294 0
-167 -174 -295 0
-167 -223 -238 0
-167 -223 -292 0
-167 -223 -293 0
-167 -223 -294 0
-167 -223 -295 0
-167 -238 -292 0
-167 -238 -293 0
-167 -238 -294 0
-167 -238 -295 0
-167 -292 -293 0
-167 -292 -294 0
-167 -292 -295 0
-167 -293 -294 0
-167 -293 -295 0
-167 -294 -295 0
-174 -223 -238 0
-174 -223 -292 0
-174 -223 -293 0
-174 -223 -294 0
-174 -223 -295 0
-174 -238 -292 0
-174 -238 -293 0
-174 -238 -294 0
-174 -238 -295 0
-174 -292 -293 0
-174 -292 -294 0
-174 -292 -295 0
-174 -293 -294 0
-174 -293 -295 0
-174 -294 -295 0
-223 -238 -292 0
-223 -238 -293 0
-223 -238 -294 0
-223 -238 -295 0
-223 -292 -293 0
-223 -292 -294 0
-223 -292 -295 0
-223 -293 -294 0
-223 -293 -295 0
-223 -294 -295 0
-238 -292 -293 0
-238 -292 -294 0
-238 -292 -295 0
-238 -293 -294 0
-238 -293 -295 0
-238 -294 -295 0
-292 -293 -294 0
-292 -293 -295 0
-292 -294 -295 0
-293 -294 -295 0
167 174 223 238 292 293 294 0
167 174 223 238 292 293 295 0
167 174 223 238 292 294 295 0
167 174 223 238 293 294 295 0
167 174 223 292 293 294 295 0
167 174 238 292 293 294 295 0
167 223 238 292 293 294 295 0
174 223 238 292 293 294 295 0
-13 -28 -82 0
-13 -28 -83 0
-13 -28 -84 0
-13 -28 -85 0
-13 -82 -83 0
-13 -82 -84 0
-13 -82 -85 0
-13 -83 -84 0
-13 -83 -85 0
-13 -84 -85 0
-28 -82 -83 0
-28 -82 -84 0
-28 -82 -85 0
-28 -83 -84 0
-28 -83 -85 0
-28 -84 -85 0
-82 -83 -84 0
-82 -83 -85 0
-82 -84 -85 0
-83 -84 -85 0
13 28 82 83 84 0
13 28 82 83 85 0
13 28 82 84 85 0
13 28 83 84 85 0
13 82 83 84 85 0
28 82 83 84 85 0
-15 -22 -71 0
-15 -22 -86 0
-15 -22 -140 0
-15 -22 -141 0
-15 -22 -142 0
-15 -22 -143 0
-15 -71 -86 0
-15 -71 -140 0
-15 -71 -141 0
-15 -71 -142 0
-15 -71 -143 0
-15 -86 -140 0
-15 -86 -141 0
-15 -86 -142 0
-15 -86 -143 0
-15 -140 -141 0
-15 -140 -142 0
-15 -140 -143 0
-15 -141 -142 0
-15 -141 -143 0
-15 -142 -143 0
-22 -71 -86 0
-22 -71 -140 0
-22 -71 -141 0
-22 -71 -142 0
-22 -71 -143 0
-22 -86 -140 0
-22 -86 -141 0
-22 -86 -142 0
-22 -86 -143 0
-22 -140 -141 0
-22 -140 -142 0
-22 -140 -143 0
-22 -141 -142 0
-22 -141 -143 0
-22 -142 -143 0
-71 -86 -140 0
-71 -86 -141 0
-71 -86 -142 0
-71 -86 -143 0
-71 -140 -141 0
-71 -140 -142 0
-71 -140 -143 0
-71 -141 -142 0
-71 -141 -143 0
-71 -142 -143 0
-86 -140 -141 0
-86 -140 -142 0
-86 -140 -143 0
-86 -141 -142 0
-86 -141 -143 0
-86 -142 -143 0
-140 -141 -142 0
-140 -141 -143 0
-140 -142 -143 0
-141 -142 -143 0
15 22 71 86 140 141 142 0
15 22 71 86 140 141 143 0
15 22 71 86 140 142 143 0
15 22 71 86 141 142 143 0
15 22 71 140 141 142 143 0
15 22 86 140 141 142 143 0
15 71 86 140 141 142 143 0
22 71 86 140 141 142 143 0
-49 -62 -118 0
-49 -62 -119 0
-49 -62 -120 0
-49 -62 -121 0
-49 -118 -119 0
-49 -118 -120 0
-49 -118 -121 0
-49 -119 -120 0
-49 -119 -121 0
-49 -120 -121 0
-62 -118 -119 0
-62 -118 -120 0
-62 -118 -121 0
-62 -119 -120 0
-62 -119 -121 0
-62 -120 -121 0
-118 -119 -120 0
-118 -119 -121 0
-118 -120 -121 0
-119 -120 -121 0
49 62 118 119 120 0
49 62 118 119 121 0
49 62 118 120 121 0
49 62 119 120 121 0
49 118 119 120 121 0
62 118 119 120 121 0
-51 -58 -107 0
-51 -58 -122 0
-51 -58 -176 0
-51 -58 -177 0
-51 -58 -178 0
-51 -58 -179 0
-51 -107 -122 0
-51 -107 -176 0
-51 -107 -177 0
-51 -107 -178 0
-51 -107 -179 0
-51 -122 -176 0
-51 -122 -177 0
-51 -122 -178 0
-51 -122 -179 0
-51 -176 -177 0
-51 -176 -178 0
-51 -176 -179 0
-51 -177 -178 0
-51 -177 -179 0
-51 -178 -179 0
-58 -107 -122 0
-58 -107 -176 0
-58 -107 -177 0
-58 -107 -178 0
-58 -107 -179 0
-58 -122 -176 0
-58 -122 -177 0
-58 -122 -178 0
-58 -122 -179 0
-58 -176 -177 0
-58 -176 -178 0
-58 -176 -179 0
-58 -177 -178 0
-58 -177 -179 0
-58 -178 -179 0
-107 -122 -176 0
-107 -122 -177 0
-107 -122 -178 0
-107 -122 -179 0
-107 -176 -177 0
-107 -176 -178 0
-107 -176 -179 0
-107 -177 -178 0
-107 -177 -179 0
-107 -178 -179 0
-122 -176 -177 0
-122 -176 -178 0
-122 -176 -179 0
-122 -177 -178 0
-122 -177 -179 0
-122 -178 -179 0
-176 -177 -178 0
-176 -177 -179 0
-176 -178 -179 0
-177 -178 -179 0
51 58 107 122 176 177 178 0
51 58 107 122 176 177 179 0
51 58 107 122 176 178 179 0
51 58 107 122 177 178 179 0
51 58 107 176 177 178 179 0
51 58 122 176 177 178 179 0
51 107 122 176 177 178 179 0
58 107 122 176 177 178 179 0
-344 -351 -396 0
-344 -351 -411 0
-344 -396 -411 0
-351 -396 -411 0
-299 -306 -354 0
-299 -306 -369 0
-299 -306 -419 0
-299 -306 -420 0
-299 -306 -421 0
-299 -306 -422 0
-299 -354 -369 0
-299 -354 -419 0
-299 -354 -420 0
-299 -354 -421 0
-299 -354 -422 0
-299 -369 -419 0
-299 -369 -420 0
-299 -369 -421 0
-299 -369 -422 0
-299 -419 -420 0
-299 -419 -421 0
-299 -419 -422 0
-299 -420 -421 0
-299 -420 -422 0
-299 -421 -422 0
-306 -354 -369 0
-306 -354 -419 0
-306 -354 -420 0
-306 -354 -421 0
-306 -354 -422 0
-306 -369 -419 0
-306 -369 -420 0
-306 -369 -421 0
-306 -369 -422 0
-306 -419 -420 0
-306 -419 -421 0
-306 -419 -422 0
-306 -420 -421 0
-306 -420 -422 0
-306 -421 -422 0
-354 -369 -419 0
-354 -369 -420 0
-354 -369 -421 0
-354 -369 -422 0
-354 -419 -420 0
-354 -419 -421 0
-354 -419 -422 0
-354 -420 -421 0
-354 -420 -422 0
-354 -421 -422 0
-369 -419 -420 0
-369 -419 -421 0
-369 -419 -422 0
-369 -420 -421 0
-369 -420 -422 0
-369 -421 -422 0
-419 -420 -421 0
-419 -420 -422 0
-419 -421 -422 0
-420 -421 -422 0
299 306 354 369 419 420 421 0
299 306 354 369 419 420 422 0
299 306 354 369 419 421 422 0
299 306 354 369 420 421 422 0
299 306 354 419 420 421 422 0
299 306 369 419 420 421 422 0
299 354 369 419 420 421 422 0
306 354 369 419 420 421 422 0
-81 -88 -137 0
-81 -88 -152 0
-81 -88 -206 0
-81 -88 -207 0
-81 -88 -208 0
-81 -88 -209 0
-81 -137 -152 0
-81 -137 -206 0
-81 -137 -207 0
-81 -137 -208 0
-81 -137 -209 0
-81 -152 -206 0
-81 -152 -207 0
-81 -152 -208 0
-81 -152 -209 0
-81 -206 -207 0
-81 -206 -208 0
-81 -206 -209 0
-81 -207 -208 0
-81 -207 -209 0
-81 -208 -209 0
-88 -137 -152 0
-88 -137 -206 0
-88 -137 -207 0
-88 -137 -208 0
-88 -137 -209 0
-88 -152 -206 0
-88 -152 -207 0
-88 -152 -208 0
-88 -152 -209 0
-88 -206 -207 0
-88 -206 -208 0
-88 -206 -209 0
-88 -207 -208 0
-88 -207 -209 0
-88 -208 -209 0
-137 -152 -206 0
-137 -152 -207 0
-137 -152 -208 0
-137 -152 -209 0
-137 -206 -207 0
-137 -206 -208 0
-137 -206 -209 0
-137 -207 -208 0
-137 -207 -209 0
-137 -208 -209 0
-152 -206 -207 0
-152 -206 -208 0
-152 -206 -209 0
-152 -207 -208 0
-152 -207 -209 0
-152 -208 -209 0
-206 -207 -208 0
-206 -207 -209 0
-206 -208 -209 0
-207 -208 -209 0
81 88 137 152 206 207 208 0
81 88 137 152 206 207 209 0
81 88 137 152 206 208 209 0
81 88 137 152 207 208 209 0
81 88 137 206 207 208 209 0
81 88 152 206 207 208 209 0
81 137 152 206 207 208 209 0
88 137 152 206 207 208 209 0
-193 -200 -250 0
-193 -200 -264 0
-193 -200 -317 0
-193 -200 -318 0
-193 -200 -319 0
-193 -200 -320 0
-193 -250 -264 0
-193 -250 -317 0
-193 -250 -318 0
-193 -250 -319 0
-193 -250 -320 0
-193 -264 -317 0
-193 -264 -318 0
-193 -264 -319 0
-193 -264 -320 0
-193 -317 -318 0
-193 -317 -319 0
-193 -317 -320 0
-193 -318 -319 0
-193 -318 -320 0
-193 -319 -320 0
-200 -250 -264 0
-200 -250 -317 0
-200 -250 -318 0
-200 -250 -319 0
-200 -250 -320 0
-200 -264 -317 0
-200 -264 -318 0
-200 -264 -319 0
-200 -264 -320 0
-200 -317 -318 0
-200 -317 -319 0
-200 -317 -320 0
-200 -318 -319 0
-200 -318 -320 0
-200 -319 -320 0
-250 -264 -317 0
-250 -264 -318 0
-250 -264 -319 0
-250 -264 -320 0
-250 -317 -318 0
-250 -317 -319 0
-250 -317 -320 0
-250 -318 -319 0
-250 -318 -320 0
-250 -319 -320 0
-264 -317 -318 0
-264 -317 -319 0
-264 -317 -320 0
-264 -318 -319 0
-264 -318 -320 0
-264 -319 -320 0
-317 -318 -319 0
-317 -318 -320 0
-317 -319 -320 0
-318 -319 -320 0
193 200 250 264 317 318 319 0
193 200 250 264 317 318 320 0
193 200 250 264 317 319 320 0
193 200 250 264 318 319 320 0
193 200 250 317 318 319 320 0
193 200 264 317 318 319 320 0
193 250 264 317 318 319 320 0
200 250 264 317 318 319 320 0
-139 -146 -195 0
-139 -146 -210 0
-139 -146 -264 0
-139 -146 -265 0
-139 -146 -266 0
-139 -146 -267 0
-139 -195 -210 0
-139 -195 -264 0
-139 -195 -265 0
-139 -195 -266 0
-139 -195 -267 0
-139 -210 -264 0
-139 -210 -265 0
-139 -210 -266 0
-139 -210 -267 0
-139 -264 -265 0
-139 -264 -266 0
-139 -264 -267 0
-139 -265 -266 0
-139 -265 -267 0
-139 -266 -267 0
-146 -195 -210 0
-146 -195 -264 0
-146 -195 -265 0
-146 -195 -266 0
-146 -195 -267 0
-146 -210 -264 0
-146 -210 -265 0
-146 -210 -266 0
-146 -210 -267 0
-146 -264 -265 0
-146 -264 -266 0
-146 -264 -267 0
-146 -265 -266 0
-146 -265 -267 0
-146 -266 -267 0
-195 -210 -264 0
-195 -210 -265 0
-195 -210 -266 0
-195 -210 -267 0
-195 -264 -265 0
-195 -264 -266 0
-195 -264 -267 0
-195 -265 -266 0
-195 -265 -267 0
-195 -266 -267 0
-210 -264 -265 0
-210 -264 -266 0
-210 -264 -267 0
-210 -265 -266 0
-210 -265 -267 0
-210 -266 -267 0
-264 -265 -266 0
-264 -265 -267 0
-264 -266 -267 0
-265 -266 -267 0
139 146 195 210 264 265 266 0
139 146 195 210 264 265 267 0
139 146 195 210 264 266 267 0
139 146 195 210 265 266 267 0
139 146 195 264 265 266 267 0
139 146 210 264 265 266 267 0
139 195 210 264 265 266 267 0
146 195 210 264 265 266 267 0
-117 -123 -173 0
-117 -123 -186 0
-117 -123 -242 0
-117 -123 -243 0
-117 -123 -244 0
-117 -123 -245 0
-117 -173 -186 0
-117 -173 -242 0
-117 -173 -243 0
-117 -173 -244 0
-117 -173 -245 0
-117 -186 -242 0
-117 -186 -243 0
-117 -186 -244 0
-117 -186 -245 0
-117 -242 -243 0
-117 -242 -244 0
-117 -242 -245 0
-117 -243 -244 0
-117 -243 -245 0
-117 -244 -245 0
-123 -173 -186 0
-123 -173 -242 0
-123 -173 -243 0
-123 -173 -244 0
-123 -173 -245 0
-123 -186 -242 0
-123 -186 -243 0
-123 -186 -244 0
-123 -186 -245 0
-123 -242 -243 0
-123 -242 -244 0
-123 -242 -245 0
-123 -243 -244 0
-123 -243 -245 0
-123 -244 -245 0
-173 -186 -242 0
-173 -186 -243 0
-173 -186 -244 0
-173 -186 -245 0
-173 -242 -243 0
-173 -242 -244 0
-173 -242 -245 0
-173 -243 -244 0
-173 -243 -245 0
-173 -244 -245 0
-186 -242 -243 0
-186 -242 -244 0
-186 -242 -245 0
-186 -243 -244 0
-186 -243 -245 0
-186 -244 -245 0
-242 -243 -244 0
-242 -243 -245 0
-242 -244 -245 0
-243 -244 -245 0
117 123 173 186 242 243 244 0
117 123 173 186 242 243 245 0
117 123 173 186 242 244 245 0
117 123 173 186 243 244 245 0
117 123 173 242 243 244 245 0
117 123 186 242 243 244 245 0
117 173 186 242 243 244 245 0
123 173 186 242 243 244 245 0
-229 -236 -285 0
-229 -236 -300 0
-229 -236 -353 0
-229 -236 -354 0
-229 -236 -355 0
-229 -236 -356 0
-229 -285 -300 0
-229 -285 -353 0
-229 -285 -354 0
-229 -285 -355 0
-229 -285 -356 0
-229 -300 -353 0
-229 -300 -354 0
-229 -300 -355 0
-229 -300 -356 0
-229 -353 -354 0
-229 -353 -355 0
-229 -353 -356 0
-229 -354 -355 0
-229 -354 -356 0
-229 -355 -356 0
-236 -285 -300 0
-236 -285 -353 0
-236 -285 -354 0
-236 -285 -355 0
-236 -285 -356 0
-236 -300 -353 0
-236 -300 -354 0
-236 -300 -355 0
-236 -300 -356 0
-236 -353 -354 0
-236 -353 -355 0
-236 -353 -356 0
-236 -354 -355 0
-236 -354 -356 0
-236 -355 -356 0
-285 -300 -353 0
-285 -300 -354 0
-285 -300 -355 0
-285 -300 -356 0
-285 -353 -354 0
-285 -353 -355 0
-285 -353 -356 0
-285 -354 -355 0
-285 -354 -356 0
-285 -355 -356 0
-300 -353 -354 0
-300 -353 -355 0
-300 -353 -356 0
-300 -354 -355 0
-300 -354 -356 0
-300 -355 -356 0
-353 -354 -355 0
-353 -354 -356 0
-353 -355 -356 0
-354 -355 -356 0
229 236 285 300 353 354 355 0
229 236 285 300 353 354 356 0
229 236 285 300 353 355 356 0
229 236 285 300 354 355 356 0
229 236 285 353 354 355 356 0
229 236 300 353 354 355 356 0
229 285 300 353 354 355 356 0
236 285 300 353 354 355 356 0
-175 -182 -231 0
-175 -182 -246 0
-175 -182 -300 0
-175 -182 -301 0
-175 -182 -302 0
-175 -182 -303 0
-175 -231 -246 0
-175 -231 -300 0
-175 -231 -301 0
-175 -231 -302 0
-175 -231 -303 0
-175 -246 -300 0
-175 -246 -301 0
-175 -246 -302 0
-175 -246 -303 0
-175 -300 -301 0
-175 -300 -302 0
-175 -300 -303 0
-175 -301 -302 0
-175 -301 -303 0
-175 -302 -303 0
-182 -231 -246 0
-182 -231 -300 0
-182 -231 -301 0
-182 -231 -302 0
-182 -231 -303 0
-182 -246 -300 0
-182 -246 -301 0
-182 -246 -302 0
-182 -246 -303 0
-182 -300 -301 0
-182 -300 -302 0
-182 -300 -303 0
-182 -301 -302 0
-182 -301 -303 0
-182 -302 -303 0
-231 -246 -300 0
-231 -246 -301 0
-231 -246 -302 0
-231 -246 -303 0
-231 -300 -301 0
-231 -300 -302 0
-231 -300 -303 0
-231 -301 -302 0
-231 -301 -303 0
-231 -302 -303 0
-246 -300 -301 0
-246 -300 -302 0
-246 -300 -303 0
-246 -301 -302 0
-246 -301 -303 0
-246 -302 -303 0
-300 -301 -302 0
-300 -301 -303 0
-300 -302 -303 0
-301 -302 -303 0
175 182 231 246 300 301 302 0
175 182 231 246 300 301 303 0
175 182 231 246 300 302 303 0
175 182 231 246 301 302 303 0
175 182 231 300 301 302 303 0
175 182 246 300 301 302 303 0
175 231 246 300 301 302 303 0
182 231 246 300 301 302 303 0
-21 -36 -90 0
-21 -36 -91 0
-21 -36 -92 0
-21 -36 -93 0
-21 -90 -91 0
-21 -90 -92 0
-21 -90 -93 0
-21 -91 -92 0
-21 -91 -93 0
-21 -92 -93 0
-36 -90 -91 0
-36 -90 -92 0
-36 -90 -93 0
-36 -91 -92 0
-36 -91 -93 0
-36 -92 -93 0
-90 -91 -92 0
-90 -91 -93 0
-90 -92 -93 0
-91 -92 -93 0
21 36 90 91 92 0
21 36 90 91 93 0
21 36 90 92 93 0
21 36 91 92 93 0
21 90 91 92 93 0
36 90 91 92 93 0
-36 -37 -38 0
-36 -37 -39 0
-36 -38 -39 0
-37 -38 -39 0
36 37 38 0
36 37 39 0
36 38 39 0
37 38 39 0
-23 -30 -79 0
-23 -30 -94 0
-23 -30 -148 0
-23 -30 -149 0
-23 -30 -150 0
-23 -30 -151 0
-23 -79 -94 0
-23 -79 -148 0
-23 -79 -149 0
-23 -79 -150 0
-23 -79 -151 0
-23 -94 -148 0
-23 -94 -149 0
-23 -94 -150 0
-23 -94 -151 0
-23 -148 -149 0
-23 -148 -150 0
-23 -148 -151 0
-23 -149 -150 0
-23 -149 -151 0
-23 -150 -151 0
-30 -79 -94 0
-30 -79 -148 0
-30 -79 -149 0
-30 -79 -150 0
-30 -79 -151 0
-30 -94 -148 0
-30 -94 -149 0
-30 -94 -150 0
-30 -94 -151 0
-30 -148 -149 0
-30 -148 -150 0
-30 -148 -151 0
-30 -149 -150 0
-30 -149 -151 0
-30 -150 -151 0
-79 -94 -148 0
-79 -94 -149 0
-79 -94 -150 0
-79 -94 -151 0
-79 -148 -149 0
-79 -148 -150 0
-79 -148 -151 0
-79 -149 -150 0
-79 -149 -151 0
-79 -150 -151 0
-94 -148 -149 0
-94 -148 -150 0
-94 -148 -151 0
-94 -149 -150 0
-94 -149 -151 0
-94 -150 -151 0
-148 -149 -150 0
-148 -149 -151 0
-148 -150 -151 0
-149 -150 -151 0
23 30 79 94 148 149 150 0
23 30 79 94 148 149 151 0
23 30 79 94 148 150 151 0
23 30 79 94 149 150 151 0
23 30 79 148 149 150 151 0
23 30 94 148 149 150 151 0
23 79 94 148 149 150 151 0
30 79 94 148 149 150 151 0
-316 -323 -383 0
-59 -115 -184 0
-59 -115 -185 0
-59 -184 -185 0
-115 -184 -185 0
-271 -278 -326 0
-271 -278 -341 0
-271 -278 -391 0
-271 -278 -392 0
-271 -278 -393 0
-271 -278 -394 0
-271 -326 -341 0
-271 -326 -391 0
-271 -326 -392 0
-271 -326 -393 0
-271 -326 -394 0
-271 -341 -391 0
-271 -341 -392 0
-271 -341 -393 0
-271 -341 -394 0
-271 -391 -392 0
-271 -391 -393 0
-271 -391 -394 0
-271 -392 -393 0
-271 -392 -394 0
-271 -393 -394 0
-278 -326 -341 0
-278 -326 -391 0
-278 -326 -392 0
-278 -326 -393 0
-278 -326 -394 0
-278 -341 -391 0
-278 -341 -392 0
-278 -341 -393 0
-278 -341 -394 0
-278 -391 -392 0
-278 -391 -393 0
-278 -391 -394 0
-278 -392 -393 0
-278 -392 -394 0
-278 -393 -394 0
-326 -341 -391 0
-326 -341 -392 0
-326 -341 -393 0
-326 -341 -394 0
-326 -391 -392 0
-326 -391 -393 0
-326 -391 -394 0
-326 -392 -393 0
-326 -392 -394 0
-326 -393 -394 0
-341 -391 -392 0
-341 -391 -393 0
-341 -391 -394 0
-341 -392 -393 0
-341 -392 -394 0
-341 -393 -394 0
-391 -392 -393 0
-391 -392 -394 0
-391 -393 -394 0
-392 -393 -394 0
271 278 326 341 391 392 393 0
271 278 326 341 391 392 394 0
271 278 326 341 391 393 394 0
271 278 326 341 392 393 394 0
271 278 326 391 392 393 394 0
271 278 341 391 392 393 394 0
271 326 341 391 392 393 394 0
278 326 341 391 392 393 394 0
-89 -96 -145 0
-89 -96 -160 0
-89 -96 -214 0
-89 -96 -215 0
-89 -96 -216 0
-89 -96 -217 0
-89 -145 -160 0
-89 -145 -214 0
-89 -145 -215 0
-89 -145 -216 0
-89 -145 -217 0
-89 -160 -214 0
-89 -160 -215 0
-89 -160 -216 0
-89 -160 -217 0
-89 -214 -215 0
-89 -214 -216 0
-89 -214 -217 0
-89 -215 -216 0
-89 -215 -217 0
-89 -216 -217 0
-96 -145 -160 0
-96 -145 -214 0
-96 -145 -215 0
-96 -145 -216 0
-96 -145 -217 0
-96 -160 -214 0
-96 -160 -215 0
-96 -160 -216 0
-96 -160 -217 0
-96 -214 -215 0
-96 -214 -216 0
-96 -214 -217 0
-96 -215 -216 0
-96 -215 -217 0
-96 -216 -217 0
-145 -160 -214 0
-145 -160 -215 0
-145 -160 -216 0
-145 -160 -217 0
-145 -214 -215 0
-145 -214 -216 0
-145 -214 -217 0
-145 -215 -216 0
-145 -215 -217 0
-145 -216 -217 0
-160 -214 -215 0
-160 -214 -216 0
-160 -214 -217 0
-160 -215 -216 0
-160 -215 -217 0
-160 -216 -217 0
-214 -215 -216 0
-214 -215 -217 0
-214 -216 -217 0
-215 -216 -217 0
89 96 145 160 214 215 216 0
89 96 145 160 214 215 217 0
89 96 145 160 214 216 217 0
89 96 145 160 215 216 217 0
89 96 145 214 215 216 217 0
89 96 160 214 215 216 217 0
89 145 160 214 215 216 217 0
96 145 160 214 215 216 217 0
-201 -208 -257 0
-201 -208 -272 0
-201 -208 -325 0
-201 -208 -326 0
-201 -208 -327 0
-201 -208 -328 0
-201 -257 -272 0
-201 -257 -325 0
-201 -257 -326 0
-201 -257 -327 0
-201 -257 -328 0
-201 -272 -325 0
-201 -272 -326 0
-201 -272 -327 0
-201 -272 -328 0
-201 -325 -326 0
-201 -325 -327 0
-201 -325 -328 0
-201 -326 -327 0
-201 -326 -328 0
-201 -327 -328 0
-208 -257 -272 0
-208 -257 -325 0
-208 -257 -326 0
-208 -257 -327 0
-208 -257 -328 0
-208 -272 -325 0
-208 -272 -326 0
-208 -272 -327 0
-208 -272 -328 0
-208 -325 -326 0
-208 -325 -327 0
-208 -325 -328 0
-208 -326 -327 0
-208 -326 -328 0
-208 -327 -328 0
-257 -272 -325 0
-257 -272 -326 0
-257 -272 -327 0
-257 -272 -328 0
-257 -325 -326 0
-257 -325 -327 0
-257 -325 -328 0
-257 -326 -327 0
-257 -326 -328 0
-257 -327 -328 0
-272 -325 -326 0
-272 -325 -327 0
-272 -325 -328 0
-272 -326 -327 0
-272 -326 -328 0
-272 -327 -328 0
-325 -326 -327 0
-325 -326 -328 0
-325 -327 -328 0
-326 -327 -328 0
201 208 257 272 325 326 327 0
201 208 257 272 325 326 328 0
201 208 257 272 325 327 328 0
201 208 257 272 326 327 328 0
201 208 257 325 326 327 328 0
201 208 272 325 326 327 328 0
201 257 272 325 326 327 328 0
208 257 272 325 326 327 328 0
-147 -154 -203 0
-147 -154 -218 0
-147 -154 -272 0
-147 -154 -273 0
-147 -154 -274 0
-147 -154 -275 0
-147 -203 -218 0
-147 -203 -272 0
-147 -203 -273 0
-147 -203 -274 0
-147 -203 -275 0
-147 -218 -272 0
-147 -218 -273 0
-147 -218 -274 0
-147 -218 -275 0
-147 -272 -273 0
-147 -272 -274 0
-147 -272 -275 0
-147 -273 -274 0
-147 -273 -275 0
-147 -274 -275 0
-154 -203 -218 0
-154 -203 -272 0
-154 -203 -273 0
-154 -203 -274 0
-154 -203 -275 0
-154 -218 -272 0
-154 -218 -273 0
-154 -218 -274 0
-154 -218 -275 0
-154 -272 -273 0
-154 -272 -274 0
-154 -272 -275 0
-154 -273 -274 0
-154 -273 -275 0
-154 -274 -275 0
-203 -218 -272 0
-203 -218 -273 0
-203 -218 -274 0
-203 -218 -275 0
-203 -272 -273 0
-203 -272 -274 0
-203 -272 -275 0
-203 -273 -274 0
-203 -273 -275 0
-203 -274 -275 0
-218 -272 -273 0
-218 -272 -274 0
-218 -272 -275 0
-218 -273 -274 0
-218 -273 -275 0
-218 -274 -275 0
-272 -273 -274 0
-272 -273 -275 0
-272 -274 -275 0
-273 -274 -275 0
147 154 203 218 272 273 274 0
147 154 203 218 272 273 275 0
147 154 203 218 272 274 275 0
147 154 203 218 273 274 275 0
147 154 203 272 273 274 275 0
147 154 218 272 273 274 275 0
147 203 218 272 273 274 275 0
154 203 218 272 273 274 275 0
-183 -239 -308 0
-183 -239 -309 0
-183 -308 -309 0
-239 -308 -309 0
-8 -64 -65 0
-8 -9 -10 0
-8 -9 -11 0
-8 -10 -11 0
-9 -10 -11 0
8 9 10 0
8 9 11 0
8 10 11 0
9 10 11 0
-29 -44 -98 0
-29 -44 -99 0
-29 -44 -100 0
-29 -44 -101 0
-29 -98 -99 0
-29 -98 -100 0
-29 -98 -101 0
-29 -99 -100 0
-29 -99 -101 0
-29 -100 -101 0
-44 -98 -99 0
-44 -98 -100 0
-44 -98 -101 0
-44 -99 -100 0
-44 -99 -101 0
-44 -100 -101 0
-98 -99 -100 0
-98 -99 -101 0
-98 -100 -101 0
-99 -100 -101 0
29 44 98 99 100 0
29 44 98 99 101 0
29 44 98 100 101 0
29 44 99 100 101 0
29 98 99 100 101 0
44 98 99 100 101 0
-44 -45 -46 0
-44 -45 -47 0
-44 -46 -47 0
-45 -46 -47 0
44 45 46 0
44 45 47 0
44 46 47 0
45 46 47 0
-31 -38 -87 0
-31 -38 -102 0
-31 -38 -156 0
-31 -38 -157 0
-31 -38 -158 0
-31 -38 -159 0
-31 -87 -102 0
-31 -87 -156 0
-31 -87 -157 0
-31 -87 -158 0
-31 -87 -159 0
-31 -102 -156 0
-31 -102 -157 0
-31 -102 -158 0
-31 -102 -159 0
-31 -156 -157 0
-31 -156 -158 0
-31 -156 -159 0
-31 -157 -158 0
-31 -157 -159 0
-31 -158 -159 0
-38 -87 -102 0
-38 -87 -156 0
-38 -87 -157 0
-38 -87 -158 0
-38 -87 -159 0
-38 -102 -156 0
-38 -102 -157 0
-38 -102 -158 0
-38 -102 -159 0
-38 -156 -157 0
-38 -156 -158 0
-38 -156 -159 0
-38 -157 -158 0
-38 -157 -159 0
-38 -158 -159 0
-87 -102 -156 0
-87 -102 -157 0
-87 -102 -158 0
-87 -102 -159 0
-87 -156 -157 0
-87 -156 -158 0
-87 -156 -159 0
-87 -157 -158 0
-87 -157 -159 0
-87 -158 -159 0
-102 -156 -157 0
-102 -156 -158 0
-102 -156 -159 0
-102 -157 -158 0
-102 -157 -159 0
-102 -158 -159 0
-156 -157 -158 0
-156 -157 -159 0
-156 -158 -159 0
-157 -158 -159 0
31 38 87 102 156 157 158 0
31 38 87 102 156 157 159 0
31 38 87 102 156 158 159 0
31 38 87 102 157 158 159 0
31 38 87 156 157 158 159 0
31 38 102 156 157 158 159 0
31 87 102 156 157 158 159 0
38 87 102 156 157 158 159 0
-279 -286 -334 0
-279 -286 -349 0
-279 -286 -399 0
-279 -286 -400 0
-279 -286 -401 0
-279 -286 -402 0
-279 -334 -349 0
-279 -334 -399 0
-279 -334 -400 0
-279 -334 -401 0
-279 -334 -402 0
-279 -349 -399 0
-279 -349 -400 0
-279 -349 -401 0
-279 -349 -402 0
-279 -399 -400 0
-279 -399 -401 0
-279 -399 -402 0
-279 -400 -401 0
-279 -400 -402 0
-279 -401 -402 0
-286 -334 -349 0
-286 -334 -399 0
-286 -334 -400 0
-286 -334 -401 0
-286 -334 -402 0
-286 -349 -399 0
-286 -349 -400 0
-286 -349 -401 0
-286 -349 -402 0
-286 -399 -400 0
-286 -399 -401 0
-286 -399 -402 0
-286 -400 -401 0
-286 -400 -402 0
-286 -401 -402 0
-334 -349 -399 0
-334 -349 -400 0
-334 -349 -401 0
-334 -349 -402 0
-334 -399 -400 0
-334 -399 -401 0
-334 -399 -402 0
-334 -400 -401 0
-334 -400 -402 0
-334 -401 -402 0
-349 -399 -400 0
-349 -399 -401 0
-349 -399 -402 0
-349 -400 -401 0
-349 -400 -402 0
-349 -401 -402 0
-399 -400 -401 0
-399 -400 -402 0
-399 -401 -402 0
-400 -401 -402 0
279 286 334 349 399 400 401 0
279 286 334 349 399 400 402 0
279 286 334 349 399 401 402 0
279 286 334 349 400 401 402 0
279 286 334 399 400 401 402 0
279 286 349 399 400 401 402 0
279 334 349 399 400 401 402 0
286 334 349 399 400 401 402 0
-68 -132 -188 0
-68 -132 -189 0
-68 -188 -189 0
-132 -188 -189 0
-97 -104 -153 0
-97 -104 -168 0
-97 -104 -222 0
-97 -104 -223 0
-97 -104 -224 0
-97 -104 -225 0
-97 -153 -168 0
-97 -153 -222 0
-97 -153 -223 0
-97 -153 -224 0
-97 -153 -225 0
-97 -168 -222 0
-97 -168 -223 0
-97 -168 -224 0
-97 -168 -225 0
-97 -222 -223 0
-97 -222 -224 0
-97 -222 -225 0
-97 -223 -224 0
-97 -223 -225 0
-97 -224 -225 0
-104 -153 -168 0
-104 -153 -222 0
-104 -153 -223 0
-104 -153 -224 0
-104 -153 -225 0
-104 -168 -222 0
-104 -168 -223 0
-104 -168 -224 0
-104 -168 -225 0
-104 -222 -223 0
-104 -222 -224 0
-104 -222 -225 0
-104 -223 -224 0
-104 -223 -225 0
-104 -224 -225 0
-153 -168 -222 0
-153 -168 -223 0
-153 -168 -224 0
-153 -168 -225 0
-153 -222 -223 0
-153 -222 -224 0
-153 -222 -225 0
-153 -223 -224 0
-153 -223 -225 0
-153 -224 -225 0
-168 -222 -223 0
-168 -222 -224 0
-168 -222 -225 0
-168 -223 -224 0
-168 -223 -225 0
-168 -224 -225 0
-222 -223 -224 0
-222 -223 -225 0
-222 -224 -225 0
-223 -224 -225 0
97 104 153 168 222 223 224 0
97 104 153 168 222 223 225 0
97 104 153 168 222 224 225 0
97 104 153 168 223 224 225 0
97 104 153 222 223 224 225 0
97 104 168 222 223 224 225 0
97 153 168 222 223 224 225 0
104 153 168 222 223 224 225 0
-155 -162 -211 0
-155 -162 -226 0
-155 -162 -280 0
-155 -162 -281 0
-155 -162 -282 0
-155 -162 -283 0
-155 -211 -226 0
-155 -211 -280 0
-155 -211 -281 0
-155 -211 -282 0
-155 -211 -283 0
-155 -226 -280 0
-155 -226 -281 0
-155 -226 -282 0
-155 -226 -283 0
-155 -280 -281 0
-155 -280 -282 0
-155 -280 -283 0
-155 -281 -282 0
-155 -281 -283 0
-155 -282 -283 0
-162 -211 -226 0
-162 -211 -280 0
-162 -211 -281 0
-162 -211 -282 0
-162 -211 -283 0
-162 -226 -280 0
-162 -226 -281 0
-162 -226 -282 0
-162 -226 -283 0
-162 -280 -281 0
-162 -280 -282 0
-162 -280 -283 0
-162 -281 -282 0
-162 -281 -283 0
-162 -282 -283 0
-211 -226 -280 0
-211 -226 -281 0
-211 -226 -282 0
-211 -226 -283 0
-211 -280 -281 0
-211 -280 -282 0
-211 -280 -283 0
-211 -281 -282 0
-211 -281 -283 0
-211 -282 -283 0
-226 -280 -281 0
-226 -280 -282 0
-226 -280 -283 0
-226 -281 -282 0
-226 -281 -283 0
-226 -282 -283 0
-280 -281 -282 0
-280 -281 -283 0
-280 -282 -283 0
-281 -282 -283 0
155 162 211 226 280 281 282 0
155 162 211 226 280 281 283 0
155 162 211 226 280 282 283 0
155 162 211 226 281 282 283 0
155 162 211 280 281 282 283 0
155 162 226 280 281 282 283 0
155 211 226 280 281 282 283 0
162 211 226 280 281 282 283 0
-2 -16 -70 0
-2 -16 -71 0
-2 -16 -72 0
-2 -16 -73 0
-2 -70 -71 0
-2 -70 -72 0
-2 -70 -73 0
-2 -71 -72 0
-2 -71 -73 0
-2 -72 -73 0
-16 -70 -71 0
-16 -70 -72 0
-16 -70 -73 0
-16 -71 -72 0
-16 -71 -73 0
-16 -72 -73 0
-70 -71 -72 0
-70 -71 -73 0
-70 -72 -73 0
-71 -72 -73 0
2 16 70 71 72 0
2 16 70 71 73 0
2 16 70 72 73 0
2 16 71 72 73 0
2 70 71 72 73 0
16 70 71 72 73 0
-16 -17 -18 0
-16 -17 -19 0
-16 -18 -19 0
-17 -18 -19 0
16 17 18 0
16 17 19 0
16 18 19 0
17 18 19 0
-3 -10 -63 0
-3 -10 -74 0
-3 -10 -128 0
-3 -10 -129 0
-3 -10 -130 0
-3 -10 -131 0
-3 -63 -74 0
-3 -63 -128 0
-3 -63 -129 0
-3 -63 -130 0
-3 -63 -131 0
-3 -74 -128 0
-3 -74 -129 0
-3 -74 -130 0
-3 -74 -131 0
-3 -128 -129 0
-3 -128 -130 0
-3 -128 -131 0
-3 -129 -130 0
-3 -129 -131 0
-3 -130 -131 0
-10 -63 -74 0
-10 -63 -128 0
-10 -63 -129 0
-10 -63 -130 0
-10 -63 -131 0
-10 -74 -128 0
-10 -74 -129 0
-10 -74 -130 0
-10 -74 -131 0
-10 -128 -129 0
-10 -128 -130 0
-10 -128 -131 0
-10 -129 -130 0
-10 -129 -131 0
-10 -130 -131 0
-63 -74 -128 0
-63 -74 -129 0
-63 -74 -130 0
-63 -74 -131 0
-63 -128 -129 0
-63 -128 -130 0
-63 -128 -131 0
-63 -129 -130 0
-63 -129 -131 0
-63 -130 -131 0
-74 -128 -129 0
-74 -128 -130 0
-74 -128 -131 0
-74 -129 -130 0
-74 -129 -131 0
-74 -130 -131 0
-128 -129 -130 0
-128 -129 -131 0
-128 -130 -131 0
-129 -130 -131 0
3 10 63 74 128 129 130 0
3 10 63 74 128 129 131 0
3 10 63 74 128 130 131 0
3 10 63 74 129 130 131 0
3 10 63 128 129 130 131 0
3 10 74 128 129 130 131 0
3 63 74 128 129 130 131 0
10 63 74 128 129 130 131 0
-37 -52 -106 0
-37 -52 -107 0
-37 -52 -108 0
-37 -52 -109 0
-37 -106 -107 0
-37 -106 -108 0
-37 -106 -109 0
-37 -107 -108 0
-37 -107 -109 0
-37 -108 -109 0
-52 -106 -107 0
-52 -106 -108 0
-52 -106 -109 0
-52 -107 -108 0
-52 -107 -109 0
-52 -108 -109 0
-106 -107 -108 0
-106 -107 -109 0
-106 -108 -109 0
-107 -108 -109 0
37 52 106 107 108 0
37 52 106 107 109 0
37 52 106 108 109 0
37 52 107 108 109 0
37 106 107 108 109 0
52 106 107 108 109 0
-52 -53 -54 0
-52 -53 -55 0
-52 -54 -55 0
-53 -54 -55 0
52 53 54 0
52 53 55 0
52 54 55 0
53 54 55 0
-39 -46 -95 0
-39 -46 -110 0
-39 -46 -164 0
-39 -46 -165 0
-39 -46 -166 0
-39 -46 -167 0
-39 -95 -110 0
-39 -95 -164 0
-39 -95 -165 0
-39 -95 -166 0
-39 -95 -167 0
-39 -110 -164 0
-39 -110 -165 0
-39 -110 -166 0
-39 -110 -167 0
-39 -164 -165 0
-39 -164 -166 0
-39 -164 -167 0
-39 -165 -166 0
-39 -165 -167 0
-39 -166 -167 0
-46 -95 -110 0
-46 -95 -164 0
-46 -95 -165 0
-46 -95 -166 0
-46 -95 -167 0
-46 -110 -164 0
-46 -110 -165 0
-46 -110 -166 0
-46 -110 -167 0
-46 -164 -165 0
-46 -164 -166 0
-46 -164 -167 0
-46 -165 -166 0
-46 -165 -167 0
-46 -166 -167 0
-95 -110 -164 0
-95 -110 -165 0
-95 -110 -166 0
-95 -110 -167 0
-95 -164 -165 0
-95 -164 -166 0
-95 -164 -167 0
-95 -165 -166 0
-95 -165 -167 0
-95 -166 -167 0
-110 -164 -165 0
-110 -164 -166 0
-110 -164 -167 0
-110 -165 -166 0
-110 -165 -167 0
-110 -166 -167 0
-164 -165 -166 0
-164 -165 -167 0
-164 -166 -167 0
-165 -166 -167 0
39 46 95 110 164 165 166 0
39 46 95 110 164 165 167 0
39 46 95 110 164 166 167 0
39 46 95 110 165 166 167 0
39 46 95 164 165 166 167 0
39 46 110 164 165 166 167 0
39 95 110 164 165 166 167 0
46 95 110 164 165 166 167 0
-251 -258 -311 0
-251 -258 -321 0
-251 -258 -371 0
-251 -258 -372 0
-251 -258 -373 0
-251 -258 -374 0
-251 -311 -321 0
-251 -311 -371 0
-251 -311 -372 0
-251 -311 -373 0
-251 -311 -374 0
-251 -321 -371 0
-251 -321 -372 0
-251 -321 -373 0
-251 -321 -374 0
-251 -371 -372 0
-251 -371 -373 0
-251 -371 -374 0
-251 -372 -373 0
-251 -372 -374 0
-251 -373 -374 0
-258 -311 -321 0
-258 -311 -371 0
-258 -311 -372 0
-258 -311 -373 0
-258 -311 -374 0
-258 -321 -371 0
-258 -321 -372 0
-258 -321 -373 0
-258 -321 -374 0
-258 -371 -372 0
-258 -371 -373 0
-258 -371 -374 0
-258 -372 -373 0
-258 -372 -374 0
-258 -373 -374 0
-311 -321 -371 0
-311 -321 -372 0
-311 -321 -373 0
-311 -321 -374 0
-311 -371 -372 0
-311 -371 -373 0
-311 -371 -374 0
-311 -372 -373 0
-311 -372 -374 0
-311 -373 -374 0
-321 -371 -372 0
-321 -371 -373 0
-321 -371 -374 0
-321 -372 -373 0
-321 -372 -374 0
-321 -373 -374 0
-371 -372 -373 0
-371 -372 -374 0
-371 -373 -374 0
-372 -373 -374 0
251 258 311 321 371 372 373 0
251 258 311 321 371 372 374 0
251 258 311 321 371 373 374 0
251 258 311 321 372 373 374 0
251 258 311 371 372 373 374 0
251 258 321 371 372 373 374 0
251 311 321 371 372 373 374 0
258 311 321 371 372 373 374 0
-287 -294 -342 0
-287 -294 -357 0
-287 -294 -407 0
-287 -294 -408 0
-287 -294 -409 0
-287 -294 -410 0
-287 -342 -357 0
-287 -342 -407 0
-287 -342 -408 0
-287 -342 -409 0
-287 -342 -410 0
-287 -357 -407 0
-287 -357 -408 0
-287 -357 -409 0
-287 -357 -410 0
-287 -407 -408 0
-287 -407 -409 0
-287 -407 -410 0
-287 -408 -409 0
-287 -408 -410 0
-287 -409 -410 0
-294 -342 -357 0
-294 -342 -407 0
-294 -342 -408 0
-294 -342 -409 0
-294 -342 -410 0
-294 -357 -407 0
-294 -357 -408 0
-294 -357 -409 0
-294 -357 -410 0
-294 -407 -408 0
-294 -407 -409 0
-294 -407 -410 0
-294 -408 -409 0
-294 -408 -410 0
-294 -409 -410 0
-342 -357 -407 0
-342 -357 -408 0
-342 -357 -409 0
-342 -357 -410 0
-342 -407 -408 0
-342 -407 -409 0
-342 -407 -410 0
-342 -408 -409 0
-342 -408 -410 0
-342 -409 -410 0
-357 -407 -408 0
-357 -407 -409 0
-357 -407 -410 0
-357 -408 -409 0
-357 -408 -410 0
-357 -409 -410 0
-407 -408 -409 0
-407 -408 -410 0
-407 -409 -410 0
-408 -409 -410 0
287 294 342 357 407 408 409 0
287 294 342 357 407 408 410 0
287 294 342 357 407 409 410 0
287 294 342 357 408 409 410 0
287 294 342 407 408 409 410 0
287 294 357 407 408 409 410 0
287 342 357 407 408 409 410 0
294 342 357 407 408 409 410 0
-69 -76 -126 0
-69 -76 -140 0
-69 -76 -194 0
-69 -76 -195 0
-69 -76 -196 0
-69 -76 -197 0
-69 -126 -140 0
-69 -126 -194 0
-69 -126 -195 0
-69 -126 -196 0
-69 -126 -197 0
-69 -140 -194 0
-69 -140 -195 0
-69 -140 -196 0
-69 -140 -197 0
-69 -194 -195 0
-69 -194 -196 0
-69 -194 -197 0
-69 -195 -196 0
-69 -195 -197 0
-69 -196 -197 0
-76 -126 -140 0
-76 -126 -194 0
-76 -126 -195 0
-76 -126 -196 0
-76 -126 -197 0
-76 -140 -194 0
-76 -140 -195 0
-76 -140 -196 0
-76 -140 -197 0
-76 -194 -195 0
-76 -194 -196 0
-76 -194 -197 0
-76 -195 -196 0
-76 -195 -197 0
-76 -196 -197 0
-126 -140 -194 0
-126 -140 -195 0
-126 -140 -196 0
-126 -140 -197 0
-126 -194 -195 0
-126 -194 -196 0
-126 -194 -197 0
-126 -195 -196 0
-126 -195 -197 0
-126 -196 -197 0
-140 -194 -195 0
-140 -194 -196 0
-140 -194 -197 0
-140 -195 -196 0
-140 -195 -197 0
-140 -196 -197 0
-194 -195 -196 0
-194 -195 -197 0
-194 -196 -197 0
-195 -196 -197 0
69 76 126 140 194 195 196 0
69 76 126 140 194 195 197 0
69 76 126 140 194 196 197 0
69 76 126 140 195 196 197 0
69 76 126 194 195 196 197 0
69 76 140 194 195 196 197 0
69 126 140 194 195 196 197 0
76 126 140 194 195 196 197 0
-127 -134 -187 0
-127 -134 -198 0
-127 -134 -252 0
-127 -134 -253 0
-127 -134 -254 0
-127 -134 -255 0
-127 -187 -198 0
-127 -187 -252 0
-127 -187 -253 0
-127 -187 -254 0
-127 -187 -255 0
-127 -198 -252 0
-127 -198 -253 0
-127 -198 -254 0
-127 -198 -255 0
-127 -252 -253 0
-127 -252 -254 0
-127 -252 -255 0
-127 -253 -254 0
-127 -253 -255 0
-127 -254 -255 0
-134 -187 -198 0
-134 -187 -252 0
-134 -187 -253 0
-134 -187 -254 0
-134 -187 -255 0
-134 -198 -252 0
-134 -198 -253 0
-134 -198 -254 0
-134 -198 -255 0
-134 -252 -253 0
-134 -252 -254 0
-134 -252 -255 0
-134 -253 -254 0
-134 -253 -255 0
-134 -254 -255 0
-187 -198 -252 0
-187 -198 -253 0
-187 -198 -254 0
-187 -198 -255 0
-187 -252 -253 0
-187 -252 -254 0
-187 -252 -255 0
-187 -253 -254 0
-187 -253 -255 0
-187 -254 -255 0
-198 -252 -253 0
-198 -252 -254 0
-198 -252 -255 0
-198 -253 -254 0
-198 -253 -255 0
-198 -254 -255 0
-252 -253 -254 0
-252 -253 -255 0
-252 -254 -255 0
-253 -254 -255 0
127 134 187 198 252 253 254 0
127 134 187 198 252 253 255 0
127 134 187 198 252 254 255 0
127 134 187 198 253 254 255 0
127 134 187 252 253 254 255 0
127 134 198 252 253 254 255 0
127 187 198 252 253 254 255 0
134 187 198 252 253 254 255 0
-163 -170 -219 0
-163 -170 -234 0
-163 -170 -288 0
-163 -170 -289 0
-163 -170 -290 0
-163 -170 -291 0
-163 -219 -234 0
-163 -219 -288 0
-163 -219 -289 0
-163 -219 -290 0
-163 -219 -291 0
-163 -234 -288 0
-163 -234 -289 0
-163 -234 -290 0
-163 -234 -291 0
-163 -288 -289 0
-163 -288 -290 0
-163 -288 -291 0
-163 -289 -290 0
-163 -289 -291 0
-163 -290 -291 0
-170 -219 -234 0
-170 -219 -288 0
-170 -219 -289 0
-170 -219 -290 0
-170 -219 -291 0
-170 -234 -288 0
-170 -234 -289 0
-170 -234 -290 0
-170 -234 -291 0
-170 -288 -289 0
-170 -288 -290 0
-170 -288 -291 0
-170 -289 -290 0
-170 -289 -291 0
-170 -290 -291 0
-219 -234 -288 0
-219 -234 -289 0
-219 -234 -290 0
-219 -234 -291 0
-219 -288 -289 0
-219 -288 -290 0
-219 -288 -291 0
-219 -289 -290 0
-219 -289 -291 0
-219 -290 -291 0
-234 -288 -289 0
-234 -288 -290 0
-234 -288 -291 0
-234 -289 -290 0
-234 -289 -291 0
-234 -290 -291 0
-288 -289 -290 0
-288 -289 -291 0
-288 -290 -291 0
-289 -290 -291 0
163 170 219 234 288 289 290 0
163 170 219 234 288 289 291 0
163 170 219 234 288 290 291 0
163 170 219 234 289 290 291 0
163 170 219 288 289 290 291 0
163 170 234 288 289 290 291 0
163 219 234 288 289 290 291 0
170 219 234 288 289 290 291 0
-9 -24 -78 0
-9 -24 -79 0
-9 -24 -80 0
-9 -24 -81 0
-9 -78 -79 0
-9 -78 -80 0
-9 -78 -81 0
-9 -79 -80 0
-9 -79 -81 0
-9 -80 -81 0
-24 -78 -79 0
-24 -78 -80 0
-24 -78 -81 0
-24 -79 -80 0
-24 -79 -81 0
-24 -80 -81 0
-78 -79 -80 0
-78 -79 -81 0
-78 -80 -81 0
-79 -80 -81 0
9 24 78 79 80 0
9 24 78 79 81 0
9 24 78 80 81 0
9 24 79 80 81 0
9 78 79 80 81 0
24 78 79 80 81 0
-24 -25 -26 0
-24 -25 -27 0
-24 -26 -27 0
-25 -26 -27 0
24 25 26 0
24 25 27 0
24 26 27 0
25 26 27 0
-11 -18 -67 0
-11 -18 -82 0
-11 -18 -136 0
-11 -18 -137 0
-11 -18 -138 0
-11 -18 -139 0
-11 -67 -82 0
-11 -67 -136 0
-11 -67 -137 0
-11 -67 -138 0
-11 -67 -139 0
-11 -82 -136 0
-11 -82 -137 0
-11 -82 -138 0
-11 -82 -139 0
-11 -136 -137 0
-11 -136 -138 0
-11 -136 -139 0
-11 -137 -138 0
-11 -137 -139 0
-11 -138 -139 0
-18 -67 -82 0
-18 -67 -136 0
-18 -67 -137 0
-18 -67 -138 0
-18 -67 -139 0
-18 -82 -136 0
-18 -82 -137 0
-18 -82 -138 0
-18 -82 -139 0
-18 -136 -137 0
-18 -136 -138 0
-18 -136 -139 0
-18 -137 -138 0
-18 -137 -139 0
-18 -138 -139 0
-67 -82 -136 0
-67 -82 -137 0
-67 -82 -138 0
-67 -82 -139 0
-67 -136 -137 0
-67 -136 -138 0
-67 -136 -139 0
-67 -137 -138 0
-67 -137 -139 0
-67 -138 -139 0
-82 -136 -137 0
-82 -136 -138 0
-82 -136 -139 0
-82 -137 -138 0
-82 -137 -139 0
-82 -138 -139 0
-136 -137 -138 0
-136 -137 -139 0
-136 -138 -139 0
-137 -138 -139 0
11 18 67 82 136 137 138 0
11 18 67 82 136 137 139 0
11 18 67 82 136 138 139 0
11 18 67 82 137 138 139 0
11 18 67 136 137 138 139 0
11 18 82 136 137 138 139 0
11 67 82 136 137 138 139 0
18 67 82 136 137 138 139 0
-47 -54 -103 0
-47 -54 -118 0
-47 -54 -172 0
-47 -54 -173 0
-47 -54 -174 0
-47 -54 -175 0
-47 -103 -118 0
-47 -103 -172 0
-47 -103 -173 0
-47 -103 -174 0
-47 -103 -175 0
-47 -118 -172 0
-47 -118 -173 0
-47 -118 -174 0
-47 -118 -175 0
-47 -172 -173 0
-47 -172 -174 0
-47 -172 -175 0
-47 -173 -174 0
-47 -173 -175 0
-47 -174 -175 0
-54 -103 -118 0
-54 -103 -172 0
-54 -103 -173 0
-54 -103 -174 0
-54 -103 -175 0
-54 -118 -172 0
-54 -118 -173 0
-54 -118 -174 0
-54 -118 -175 0
-54 -172 -173 0
-54 -172 -174 0
-54 -172 -175 0
-54 -173 -174 0
-54 -173 -175 0
-54 -174 -175 0
-103 -118 -172 0
-103 -118 -173 0
-103 -118 -174 0
-103 -118 -175 0
-103 -172 -173 0
-103 -172 -174 0
-103 -172 -175 0
-103 -173 -174 0
-103 -173 -175 0
-103 -174 -175 0
-118 -172 -173 0
-118 -172 -174 0
-118 -172 -175 0
-118 -173 -174 0
-118 -173 -175 0
-118 -174 -175 0
-172 -173 -174 0
-172 -173 -175 0
-172 -174 -175 0
-173 -174 -175 0
47 54 103 118 172 173 174 0
47 54 103 118 172 173 175 0
47 54 103 118 172 174 175 0
47 54 103 118 173 174 175 0
47 54 103 172 173 174 175 0
47 54 118 172 173 174 175 0
47 103 118 172 173 174 175 0
54 103 118 172 173 174 175 0
-259 -266 -314 0
-259 -266 -329 0
-259 -266 -379 0
-259 -266 -380 0
-259 -266 -381 0
-259 -266 -382 0
-259 -314 -329 0
-259 -314 -379 0
-259 -314 -380 0
-259 -314 -381 0
-259 -314 -382 0
-259 -329 -379 0
-259 -329 -380 0
-259 -329 -381 0
-259 -329 -382 0
-259 -379 -380 0
-259 -379 -381 0
-259 -379 -382 0
-259 -380 -381 0
-259 -380 -382 0
-259 -381 -382 0
-266 -314 -329 0
-266 -314 -379 0
-266 -314 -380 0
-266 -314 -381 0
-266 -314 -382 0
-266 -329 -379 0
-266 -329 -380 0
-266 -329 -381 0
-266 -329 -382 0
-266 -379 -380 0
-266 -379 -381 0
-266 -379 -382 0
-266 -380 -381 0
-266 -380 -382 0
-266 -381 -382 0
-314 -329 -379 0
-314 -329 -380 0
-314 -329 -381 0
-314 -329 -382 0
-314 -379 -380 0
-314 -379 -381 0
-314 -379 -382 0
-314 -380 -381 0
-314 -380 -382 0
-314 -381 -382 0
-329 -379 -380 0
-329 -379 -381 0
-329 -379 -382 0
-329 -380 -381 0
-329 -380 -382 0
-329 -381 -382 0
-379 -380 -381 0
-379 -380 -382 0
-379 -381 -382 0
-380 -381 -382 0
259 266 314 329 379 380 381 0
259 266 314 329 379 380 382 0
259 266 314 329 379 381 382 0
259 266 314 329 380 381 382 0
259 266 314 379 380 381 382 0
259 266 329 379 380 381 382 0
259 314 329 379 380 381 382 0
266 314 329 379 380 381 382 0
-295 -302 -350 0
-295 -302 -365 0
-295 -302 -415 0
-295 -302 -416 0
-295 -302 -417 0
-295 -302 -418 0
-295 -350 -365 0
-295 -350 -415 0
-295 -350 -416 0
-295 -350 -417 0
-295 -350 -418 0
-295 -365 -415 0
-295 -365 -416 0
-295 -365 -417 0
-295 -365 -418 0
-295 -415 -416 0
-295 -415 -417 0
-295 -415 -418 0
-295 -416 -417 0
-295 -416 -418 0
-295 -417 -418 0
-302 -350 -365 0
-302 -350 -415 0
-302 -350 -416 0
-302 -350 -417 0
-302 -350 -418 0
-302 -365 -415 0
-302 -365 -416 0
-302 -365 -417 0
-302 -365 -418 0
-302 -415 -416 0
-302 -415 -417 0
-302 -415 -418 0
-302 -416 -417 0
-302 -416 -418 0
-302 -417 -418 0
-350 -365 -415 0
-350 -365 -416 0
-350 -365 -417 0
-350 -365 -418 0
-350 -415 -416 0
-350 -415 -417 0
-350 -415 -418 0
-350 -416 -417 0
-350 -416 -418 0
-350 -417 -418 0
-365 -415 -416 0
-365 -415 -417 0
-365 -415 -418 0
-365 -416 -417 0
-365 -416 -418 0
-365 -417 -418 0
-415 -416 -417 0
-415 -416 -418 0
-415 -417 -418 0
-416 -417 -418 0
295 302 350 365 415 416 417 0
295 302 350 365 415 416 418 0
295 302 350 365 415 417 418 0
295 302 350 365 416 417 418 0
295 302 350 415 416 417 418 0
295 302 365 415 416 417 418 0
295 350 365 415 416 417 418 0
302 350 365 415 416 417 418 0
-352 -359 -404 0
-352 -359 -419 0
-352 -404 -419 0
-359 -404 -419 0
-135 -142 -191 0
-135 -142 -206 0
-135 -142 -260 0
-135 -142 -261 0
-135 -142 -262 0
-135 -142 -263 0
-135 -191 -206 0
-135 -191 -260 0
-135 -191 -261 0
-135 -191 -262 0
-135 -191 -263 0
-135 -206 -260 0
-135 -206 -261 0
-135 -206 -262 0
-135 -206 -263 0
-135 -260 -261 0
-135 -260 -262 0
-135 -260 -263 0
-135 -261 -262 0
-135 -261 -263 0
-135 -262 -263 0
-142 -191 -206 0
-142 -191 -260 0
-142 -191 -261 0
-142 -191 -262 0
-142 -191 -263 0
-142 -206 -260 0
-142 -206 -261 0
-142 -206 -262 0
-142 -206 -263 0
-142 -260 -261 0
-142 -260 -262 0
-142 -260 -263 0
-142 -261 -262 0
-142 -261 -263 0
-142 -262 -263 0
-191 -206 -260 0
-191 -206 -261 0
-191 -206 -262 0
-191 -206 -263 0
-191 -260 -261 0
-191 -260 -262 0
-191 -260 -263 0
-191 -261 -262 0
-191 -261 -263 0
-191 -262 -263 0
-206 -260 -261 0
-206 -260 -262 0
-206 -260 -263 0
-206 -261 -262 0
-206 -261 -263 0
-206 -262 -263 0
-260 -261 -262 0
-260 -261 -263 0
-260 -262 -263 0
-261 -262 -263 0
135 142 191 206 260 261 262 0
135 142 191 206 260 261 263 0
135 142 191 206 260 262 263 0
135 142 191 206 261 262 263 0
135 142 191 260 261 262 263 0
135 142 206 260 261 262 263 0
135 191 206 260 261 262 263 0
142 191 206 260 261 262 263 0
-171 -178 -227 0
-171 -178 -242 0
-171 -178 -296 0
-171 -178 -297 0
-171 -178 -298 0
-171 -178 -299 0
-171 -227 -242 0
-171 -227 -296 0
-171 -227 -297 0
-171 -227 -298 0
-171 -227 -299 0
-171 -242 -296 0
-171 -242 -297 0
-171 -242 -298 0
-171 -242 -299 0
-171 -296 -297 0
-171 -296 -298 0
-171 -296 -299 0
-171 -297 -298 0
-171 -297 -299 0
-171 -298 -299 0
-178 -227 -242 0
-178 -227 -296 0
-178 -227 -297 0
-178 -227 -298 0
-178 -227 -299 0
-178 -242 -296 0
-178 -242 -297 0
-178 -242 -298 0
-178 -242 -299 0
-178 -296 -297 0
-178 -296 -298 0
-178 -296 -299 0
-178 -297 -298 0
-178 -297 -299 0
-178 -298 -299 0
-227 -242 -296 0
-227 -242 -297 0
-227 -242 -298 0
-227 -242 -299 0
-227 -296 -297 0
-227 -296 -298 0
-227 -296 -299 0
-227 -297 -298 0
-227 -297 -299 0
-227 -298 -299 0
-242 -296 -297 0
-242 -296 -298 0
-242 -296 -299 0
-242 -297 -298 0
-242 -297 -299 0
-242 -298 -299 0
-296 -297 -298 0
-296 -297 -299 0
-296 -298 -299 0
-297 -298 -299 0
171 178 227 242 296 297 298 0
171 178 227 242 296 297 299 0
171 178 227 242 296 298 299 0
171 178 227 242 297 298 299 0
171 178 227 296 297 298 299 0
171 178 242 296 297 298 299 0
171 227 242 296 297 298 299 0
178 227 242 296 297 298 299 0
-237 -244 -293 0
-237 -244 -308 0
-237 -244 -361 0
-237 -244 -362 0
-237 -244 -363 0
-237 -244 -364 0
-237 -293 -308 0
-237 -293 -361 0
-237 -293 -362 0
-237 -293 -363 0
-237 -293 -364 0
-237 -308 -361 0
-237 -308 -362 0
-237 -308 -363 0
-237 -308 -364 0
-237 -361 -362 0
-237 -361 -363 0
-237 -361 -364 0
-237 -362 -363 0
-237 -362 -364 0
-237 -363 -364 0
-244 -293 -308 0
-244 -293 -361 0
-244 -293 -362 0
-244 -293 -363 0
-244 -293 -364 0
-244 -308 -361 0
-244 -308 -362 0
-244 -308 -363 0
-244 -308 -364 0
-244 -361 -362 0
-244 -361 -363 0
-244 -361 -364 0
-244 -362 -363 0
-244 -362 -364 0
-244 -363 -364 0
-293 -308 -361 0
-293 -308 -362 0
-293 -308 -363 0
-293 -308 -364 0
-293 -361 -362 0
-293 -361 -363 0
-293 -361 -364 0
-293 -362 -363 0
-293 -362 -364 0
-293 -363 -364 0
-308 -361 -362 0
-308 -361 -363 0
-308 -361 -364 0
-308 -362 -363 0
-308 -362 -364 0
-308 -363 -364 0
-361 -362 -363 0
-361 -362 -364 0
-361 -363 -364 0
-362 -363 -364 0
237 244 293 308 361 362 363 0
237 244 293 308 361 362 364 0
237 244 293 308 361 363 364 0
237 244 293 308 362 363 364 0
237 244 293 361 362 363 364 0
237 244 308 361 362 363 364 0
237 293 308 361 362 363 364 0
244 293 308 361 362 363 364 0
-32 -33 -34 0
-32 -33 -35 0
-32 -34 -35 0
-33 -34 -35 0
32 33 34 0
32 33 35 0
32 34 35 0
33 34 35 0
-19 -26 -75 0
-19 -26 -90 0
-19 -26 -144 0
-19 -26 -145 0
-19 -26 -146 0
-19 -26 -147 0
-19 -75 -90 0
-19 -75 -144 0
-19 -75 -145 0
-19 -75 -146 0
-19 -75 -147 0
-19 -90 -144 0
-19 -90 -145 0
-19 -90 -146 0
-19 -90 -147 0
-19 -144 -145 0
-19 -144 -146 0
-19 -144 -147 0
-19 -145 -146 0
-19 -145 -147 0
-19 -146 -147 0
-26 -75 -90 0
-26 -75 -144 0
-26 -75 -145 0
-26 -75 -146 0
-26 -75 -147 0
-26 -90 -144 0
-26 -90 -145 0
-26 -90 -146 0
-26 -90 -147 0
-26 -144 -145 0
-26 -144 -146 0
-26 -144 -147 0
-26 -145 -146 0
-26 -145 -147 0
-26 -146 -147 0
-75 -90 -144 0
-75 -90 -145 0
-75 -90 -146 0
-75 -90 -147 0
-75 -144 -145 0
-75 -144 -146 0
-75 -144 -147 0
-75 -145 -146 0
-75 -145 -147 0
-75 -146 -147 0
-90 -144 -145 0
-90 -144 -146 0
-90 -144 -147 0
-90 -145 -146 0
-90 -145 -147 0
-90 -146 -147 0
-144 -145 -146 0
-144 -145 -147 0
-144 -146 -147 0
-145 -146 -147 0
19 26 75 90 144 145 146 0
19 26 75 90 144 145 147 0
19 26 75 90 144 146 147 0
19 26 75 90 145 146 147 0
19 26 75 144 145 146 147 0
19 26 90 144 145 146 147 0
19 75 90 144 145 146 147 0
26 75 90 144 145 146 147 0
-55 -61 -111 0
-55 -61 -124 0
-55 -61 -180 0
-55 -61 -181 0
-55 -61 -182 0
-55 -61 -183 0
-55 -111 -124 0
-55 -111 -180 0
-55 -111 -181 0
-55 -111 -182 0
-55 -111 -183 0
-55 -124 -180 0
-55 -124 -181 0
-55 -124 -182 0
-55 -124 -183 0
-55 -180 -181 0
-55 -180 -182 0
-55 -180 -183 0
-55 -181 -182 0
-55 -181 -183 0
-55 -182 -183 0
-61 -111 -124 0
-61 -111 -180 0
-61 -111 -181 0
-61 -111 -182 0
-61 -111 -183 0
-61 -124 -180 0
-61 -124 -181 0
-61 -124 -182 0
-61 -124 -183 0
-61 -180 -181 0
-61 -180 -182 0
-61 -180 -183 0
-61 -181 -182 0
-61 -181 -183 0
-61 -182 -183 0
-111 -124 -180 0
-111 -124 -181 0
-111 -124 -182 0
-111 -124 -183 0
-111 -180 -181 0
-111 -180 -182 0
-111 -180 -183 0
-111 -181 -182 0
-111 -181 -183 0
-111 -182 -183 0
-124 -180 -181 0
-124 -180 -182 0
-124 -180 -183 0
-124 -181 -182 0
-124 -181 -183 0
-124 -182 -183 0
-180 -181 -182 0
-180 -181 -183 0
-180 -182 -183 0
-181 -182 -183 0
55 61 111 124 180 181 182 0
55 61 111 124 180 181 183 0
55 61 111 124 180 182 183 0
55 61 111 124 181 182 183 0
55 61 111 180 181 182 183 0
55 61 124 180 181 182 183 0
55 111 124 180 181 182 183 0
61 111 124 180 181 182 183 0
-267 -274 -322 0
-267 -274 -337 0
-267 -274 -387 0
-267 -274 -388 0
-267 -274 -389 0
-267 -274 -390 0
-267 -322 -337 0
-267 -322 -387 0
-267 -322 -388 0
-267 -322 -389 0
-267 -322 -390 0
-267 -337 -387 0
-267 -337 -388 0
-267 -337 -389 0
-267 -337 -390 0
-267 -387 -388 0
-267 -387 -389 0
-267 -387 -390 0
-267 -388 -389 0
-267 -388 -390 0
-267 -389 -390 0
-274 -322 -337 0
-274 -322 -387 0
-274 -322 -388 0
-274 -322 -389 0
-274 -322 -390 0
-274 -337 -387 0
-274 -337 -388 0
-274 -337 -389 0
-274 -337 -390 0
-274 -387 -388 0
-274 -387 -389 0
-274 -387 -390 0
-274 -388 -389 0
-274 -388 -390 0
-274 -389 -390 0
-322 -337 -387 0
-322 -337 -388 0
-322 -337 -389 0
-322 -337 -390 0
-322 -387 -388 0
-322 -387 -389 0
-322 -387 -390 0
-322 -388 -389 0
-322 -388 -390 0
-322 -389 -390 0
-337 -387 -388 0
-337 -387 -389 0
-337 -387 -390 0
-337 -388 -389 0
-337 -388 -390 0
-337 -389 -390 0
-387 -388 -389 0
-387 -388 -390 0
-387 -389 -390 0
-388 -389 -390 0
267 274 322 337 387 388 389 0
267 274 322 337 387 388 390 0
267 274 322 337 387 389 390 0
267 274 322 337 388 389 390 0
267 274 322 387 388 389 390 0
267 274 337 387 388 389 390 0
267 322 337 387 388 389 390 0
274 322 337 387 388 389 390 0
-324 -331 -376 0
-324 -331 -391 0
-324 -376 -391 0
-331 -376 -391 0
-303 -309 -358 0
-303 -309 -370 0
-303 -309 -423 0
-303 -309 -424 0
-303 -309 -425 0
-303 -309 -426 0
-303 -358 -370 0
-303 -358 -423 0
-303 -358 -424 0
-303 -358 -425 0
-303 -358 -426 0
-303 -370 -423 0
-303 -370 -424 0
-303 -370 -425 0
-303 -370 -426 0
-303 -423 -424 0
-303 -423 -425 0
-303 -423 -426 0
-303 -424 -425 0
-303 -424 -426 0
-303 -425 -426 0
-309 -358 -370 0
-309 -358 -423 0
-309 -358 -424 0
-309 -358 -425 0
-309 -358 -426 0
-309 -370 -423 0
-309 -370 -424 0
-309 -370 -425 0
-309 -370 -426 0
-309 -423 -424 0
-309 -423 -425 0
-309 -423 -426 0
-309 -424 -425 0
-309 -424 -426 0
-309 -425 -426 0
-358 -370 -423 0
-358 -370 -424 0
-358 -370 -425 0
-358 -370 -426 0
-358 -423 -424 0
-358 -423 -425 0
-358 -423 -426 0
-358 -424 -425 0
-358 -424 -426 0
-358 -425 -426 0
-370 -423 -424 0
-370 -423 -425 0
-370 -423 -426 0
-370 -424 -425 0
-370 -424 -426 0
-370 -425 -426 0
-423 -424 -425 0
-423 -424 -426 0
-423 -425 -426 0
-424 -425 -426 0
303 309 358 370 423 424 425 0
303 309 358 370 423 424 426 0
303 309 358 370 423 425 426 0
303 309 358 370 424 425 426 0
303 309 358 423 424 425 426 0
303 309 370 423 424 425 426 0
303 358 370 423 424 425 426 0
309 358 370 423 424 425 426 0
-360 -367 -412 0
-143 -150 -199 0
-143 -150 -214 0
-143 -150 -268 0
-143 -150 -269 0
-143 -150 -270 0
-143 -150 -271 0
-143 -199 -214 0
-143 -199 -268 0
-143 -199 -269 0
-143 -199 -270 0
-143 -199 -271 0
-143 -214 -268 0
-143 -214 -269 0
-143 -214 -270 0
-143 -214 -271 0
-143 -268 -269 0
-143 -268 -270 0
-143 -268 -271 0
-143 -269 -270 0
-143 -269 -271 0
-143 -270 -271 0
-150 -199 -214 0
-150 -199 -268 0
-150 -199 -269 0
-150 -199 -270 0
-150 -199 -271 0
-150 -214 -268 0
-150 -214 -269 0
-150 -214 -270 0
-150 -214 -271 0
-150 -268 -269 0
-150 -268 -270 0
-150 -268 -271 0
-150 -269 -270 0
-150 -269 -271 0
-150 -270 -271 0
-199 -214 -268 0
-199 -214 -269 0
-199 -214 -270 0
-199 -214 -271 0
-199 -268 -269 0
-199 -268 -270 0
-199 -268 -271 0
-199 -269 -270 0
-199 -269 -271 0
-199 -270 -271 0
-214 -268 -269 0
-214 -268 -270 0
-214 -268 -271 0
-214 -269 -270 0
-214 -269 -271 0
-214 -270 -271 0
-268 -269 -270 0
-268 -269 -271 0
-268 -270 -271 0
-269 -270 -271 0
143 150 199 214 268 269 270 0
143 150 199 214 268 269 271 0
143 150 199 214 268 270 271 0
143 150 199 214 269 270 271 0
143 150 199 268 269 270 271 0
143 150 214 268 269 270 271 0
143 199 214 268 269 270 271 0
150 199 214 268 269 270 271 0
-179 -185 -235 0
-179 -185 -248 0
-179 -185 -304 0
-179 -185 -305 0
-179 -185 -306 0
-179 -185 -307 0
-179 -235 -248 0
-179 -235 -304 0
-179 -235 -305 0
-179 -235 -306 0
-179 -235 -307 0
-179 -248 -304 0
-179 -248 -305 0
-179 -248 -306 0
-179 -248 -307 0
-179 -304 -305 0
-179 -304 -306 0
-179 -304 -307 0
-179 -305 -306 0
-179 -305 -307 0
-179 -306 -307 0
-185 -235 -248 0
-185 -235 -304 0
-185 -235 -305 0
-185 -235 -306 0
-185 -235 -307 0
-185 -248 -304 0
-185 -248 -305 0
-185 -248 -306 0
-185 -248 -307 0
-185 -304 -305 0
-185 -304 -306 0
-185 -304 -307 0
-185 -305 -306 0
-185 -305 -307 0
-185 -306 -307 0
-235 -248 -304 0
-235 -248 -305 0
-235 -248 -306 0
-235 -248 -307 0
-235 -304 -305 0
-235 -304 -306 0
-235 -304 -307 0
-235 -305 -306 0
-235 -305 -307 0
-235 -306 -307 0
-248 -304 -305 0
-248 -304 -306 0
-248 -304 -307 0
-248 -305 -306 0
-248 -305 -307 0
-248 -306 -307 0
-304 -305 -306 0
-304 -305 -307 0
-304 -306 -307 0
-305 -306 -307 0
179 185 235 248 304 305 306 0
179 185 235 248 304 305 307 0
179 185 235 248 304 306 307 0
179 185 235 248 305 306 307 0
179 185 235 304 305 306 307 0
179 185 248 304 305 306 307 0
179 235 248 304 305 306 307 0
185 235 248 304 305 306 307 0
-209 -216 -265 0
-209 -216 -280 0
-209 -216 -333 0
-209 -216 -334 0
-209 -216 -335 0
-209 -216 -336 0
-209 -265 -280 0
-209 -265 -333 0
-209 -265 -334 0
-209 -265 -335 0
-209 -265 -336 0
-209 -280 -333 0
-209 -280 -334 0
-209 -280 -335 0
-209 -280 -336 0
-209 -333 -334 0
-209 -333 -335 0
-209 -333 -336 0
-209 -334 -335 0
-209 -334 -336 0
-209 -335 -336 0
-216 -265 -280 0
-216 -265 -333 0
-216 -265 -334 0
-216 -265 -335 0
-216 -265 -336 0
-216 -280 -333 0
-216 -280 -334 0
-216 -280 -335 0
-216 -280 -336 0
-216 -333 -334 0
-216 -333 -335 0
-216 -333 -336 0
-216 -334 -335 0
-216 -334 -336 0
-216 -335 -336 0
-265 -280 -333 0
-265 -280 -334 0
-265 -280 -335 0
-265 -280 -336 0
-265 -333 -334 0
-265 -333 -335 0
-265 -333 -336 0
-265 -334 -335 0
-265 -334 -336 0
-265 -335 -336 0
-280 -333 -334 0
-280 -333 -335 0
-280 -333 -336 0
-280 -334 -335 0
-280 -334 -336 0
-280 -335 -336 0
-333 -334 -335 0
-333 -334 -336 0
-333 -335 -336 0
-334 -335 -336 0
209 216 265 280 333 334 335 0
209 216 265 280 333 334 336 0
209 216 265 280 333 335 336 0
209 216 265 280 334 335 336 0
209 216 265 333 334 335 336 0
209 216 280 333 334 335 336 0
209 265 280 333 334 335 336 0
216 265 280 333 334 335 336 0
-4 -5 -6 0
-4 -5 -7 0
-4 -6 -7 0
-5 -6 -7 0
4 5 6 0
4 5 7 0
4 6 7 0
5 6 7 0
-245 -301 -369 0
-40 -41 -42 0
-40 -41 -43 0
-40 -42 -43 0
-41 -42 -43 0
40 41 42 0
40 41 43 0
40 42 43 0
41 42 43 0
-27 -34 -83 0
-27 -34 -98 0
-27 -34 -152 0
-27 -34 -153 0
-27 -34 -154 0
-27 -34 -155 0
-27 -83 -98 0
-27 -83 -152 0
-27 -83 -153 0
-27 -83 -154 0
-27 -83 -155 0
-27 -98 -152 0
-27 -98 -153 0
-27 -98 -154 0
-27 -98 -155 0
-27 -152 -153 0
-27 -152 -154 0
-27 -152 -155 0
-27 -153 -154 0
-27 -153 -155 0
-27 -154 -155 0
-34 -83 -98 0
-34 -83 -152 0
-34 -83 -153 0
-34 -83 -154 0
-34 -83 -155 0
-34 -98 -152 0
-34 -98 -153 0
-34 -98 -154 0
-34 -98 -155 0
-34 -152 -153 0
-34 -152 -154 0
-34 -152 -155 0
-34 -153 -154 0
-34 -153 -155 0
-34 -154 -155 0
-83 -98 -152 0
-83 -98 -153 0
-83 -98 -154 0
-83 -98 -155 0
-83 -152 -153 0
-83 -152 -154 0
-83 -152 -155 0
-83 -153 -154 0
-83 -153 -155 0
-83 -154 -155 0
-98 -152 -153 0
-98 -152 -154 0
-98 -152 -155 0
-98 -153 -154 0
-98 -153 -155 0
-98 -154 -155 0
-152 -153 -154 0
-152 -153 -155 0
-152 -154 -155 0
-153 -154 -155 0
27 34 83 98 152 153 154 0
27 34 83 98 152 153 155 0
27 34 83 98 152 154 155 0
27 34 83 98 153 154 155 0
27 34 83 152 153 154 155 0
27 34 98 152 153 154 155 0
27 83 98 152 153 154 155 0
34 83 98 152 153 154 155 0
-275 -282 -330 0
-275 -282 -345 0
-275 -282 -395 0
-275 -282 -396 0
-275 -282 -397 0
-275 -282 -398 0
-275 -330 -345 0
-275 -330 -395 0
-275 -330 -396 0
-275 -330 -397 0
-275 -330 -398 0
-275 -345 -395 0
-275 -345 -396 0
-275 -345 -397 0
-275 -345 -398 0
-275 -395 -396 0
-275 -395 -397 0
-275 -395 -398 0
-275 -396 -397 0
-275 -396 -398 0
-275 -397 -398 0
-282 -330 -345 0
-282 -330 -395 0
-282 -330 -396 0
-282 -330 -397 0
-282 -330 -398 0
-282 -345 -395 0
-282 -345 -396 0
-282 -345 -397 0
-282 -345 -398 0
-282 -395 -396 0
-282 -395 -397 0
-282 -395 -398 0
-282 -396 -397 0
-282 -396 -398 0
-282 -397 -398 0
-330 -345 -395 0
-330 -345 -396 0
-330 -345 -397 0
-330 -345 -398 0
-330 -395 -396 0
-330 -395 -397 0
-330 -395 -398 0
-330 -396 -397 0
-330 -396 -398 0
-330 -397 -398 0
-345 -395 -396 0
-345 -395 -397 0
-345 -395 -398 0
-345 -396 -397 0
-345 -396 -398 0
-345 -397 -398 0
-395 -396 -397 0
-395 -396 -398 0
-395 -397 -398 0
-396 -397 -398 0
275 282 330 345 395 396 397 0
275 282 330 345 395 396 398 0
275 282 330 345 395 397 398 0
275 282 330 345 396 397 398 0
275 282 330 395 396 397 398 0
275 282 345 395 396 397 398 0
275 330 345 395 396 397 398 0
282 330 345 395 396 397 398 0
-332 -339 -384 0
-332 -339 -399 0
-332 -384 -399 0
-339 -384 -399 0
1 0
2 0
3 0
-4 0
5 0
-6 0
7 0
-8 0
9 0
-10 0
11 0
-12 0
13 0
-14 0
15 0
-16 0
17 0
-18 0
19 0
-20 0
21 0
-22 0
23 0
-24 0
25 0
-26 0
27 0
-28 0
29 0
-30 0
31 0
-32 0
33 0
-34 0
35 0
-36 0
37 0
-38 0
39 0
-40 0
41 0
-42 0
43 0
-44 0
45 0
-46 0
47 0
-48 0
49 0
-50 0
51 0
-52 0
53 0
-54 0
55 0
-56 0
57 0
-58 0
59 0
-60 0
-61 0
-62 0
-63 0
-64 0
65 0
-66 0
-67 0
-68 0
69 0
-70 0
-71 0
-72 0
73 0
-74 0
-75 0
-76 0
77 0
-78 0
-79 0
-80 0
81 0
-82 0
-83 0
-84 0
85 0
-86 0
-87 0
-88 0
89 0
-90 0
-91 0
-92 0
93 0
-94 0
-95 0
-96 0
97 0
-98 0
-99 0
-100 0
101 0
-102 0
-103 0
-104 0
105 0
-106 0
-107 0
-108 0
109 0
-110 0
-111 0
-112 0
113 0
-114 0
-115 0
-116 0
117 0
-118 0
-119 0
-120 0
121 0
-122 0
-123 0
-124 0
-1 -4 0
-1 -6 0
-1 -8 0
-2 -4 0
-2 -6 0
-2 -8 0
-2 -10 0
-2 -12 0
-3 -4 0
-3 -6 0
-3 -8 0
-3 -64 0
-3 -66 0
-3 -68 0
-3 -70 0
-5 -8 0
-5 -10 0
-5 -12 0
-5 -14 0
-5 -16 0
-6 -8 0
-6 -63 0
-6 -64 0
-6 -65 0
-6 -66 0
-7 -8 0
-7 -10 0
-7 -12 0
-7 -67 0
-7 -70 0
-7 -72 0
-7 -74 0
-9 -12 0
-9 -14 0
-9 -16 0
-9 -18 0
-9 -20 0
-10 -12 0
-10 -64 0
-10 -67 0
-10 -69 0
-10 -70 0
-11 -12 0
-11 -14 0
-11 -16 0
-11 -71 0
-11 -74 0
-11 -76 0
-11 -78 0
-13 -16 0
-13 -18 0
-13 -20 0
-13 -22 0
-13 -24 0
-14 -16 0
-14 -67 0
-14 -71 0
-14 -73 0
-14 -74 0
-15 -16 0
-15 -18 0
-15 -20 0
-15 -75 0
-15 -78 0
-15 -80 0
-15 -82 0
-17 -20 0
-17 -22 0
-17 -24 0
-17 -26 0
-17 -28 0
-18 -20 0
-18 -71 0
-18 -75 0
-18 -77 0
-18 -78 0
-19 -20 0
-19 -22 0
-19 -24 0
-19 -79 0
-19 -82 0
-19 -84 0
-19 -86 0
-21 -24 0
-21 -26 0
-21 -28 0
-21 -30 0
-21 -32 0
-22 -24 0
-22 -75 0
-22 -79 0
-22 -81 0
-22 -82 0
-23 -24 0
-23 -26 0
-23 -28 0
-23 -83 0
-23 -86 0
-23 -88 0
-23 -90 0
-25 -28 0
-25 -30 0
-25 -32 0
-25 -34 0
-25 -36 0
-26 -28 0
-26 -79 0
-26 -83 0
-26 -85 0
-26 -86 0
-27 -28 0
-27 -30 0
-27 -32 0
-27 -87 0
-27 -90 0
-27 -92 0
-27 -94 0
-29 -32 0
-29 -34 0
-29 -36 0
-29 -38 0
-29 -40 0
-30 -32 0
-30 -83 0
-30 -87 0
-30 -89 0
-30 -90 0
-31 -32 0
-31 -34 0
-31 -36 0
-31 -91 0
-31 -94 0
-31 -96 0
-31 -98 0
-33 -36 0
-33 -38 0
-33 -40 0
-33 -42 0
-33 -44 0
-34 -36 0
-34 -87 0
-34 -91 0
-34 -93 0
-34 -94 0
-35 -36 0
-35 -38 0
-35 -40 0
-35 -95 0
-35 -98 0
-35 -100 0
-35 -102 0
-37 -40 0
-37 -42 0
-37 -44 0
-37 -46 0
-37 -48 0
-38 -40 0
-38 -91 0
-38 -95 0
-38 -97 0
-38 -98 0
-39 -40 0
-39 -42 0
-39 -44 0
-39 -99 0
-39 -102 0
-39 -104 0
-39 -106 0
-41 -44 0
-41 -46 0
-41 -48 0
-41 -50 0
-41 -52 0
-42 -44 0
-42 -95 0
-42 -99 0
-42 -101 0
-42 -102 0
-43 -44 0
-43 -46 0
-43 -48 0
-43 -103 0
-43 -106 0
-43 -108 0
-43 -110 0
-45 -48 0
-45 -50 0
-45 -52 0
-45 -54 0
-45 -56 0
-46 -48 0
-46 -99 0
-46 -103 0
-46 -105 0
-46 -106 0
-47 -48 0
-47 -50 0
-47 -52 0
-47 -107 0
-47 -110 0
-47 -112 0
-47 -114 0
-49 -52 0
-49 -54 0
-49 -56 0
-49 -58 0
-49 -60 0
-50 -52 0
-50 -103 0
-50 -107 0
-50 -109 0
-50 -110 0
-51 -52 0
-51 -54 0
-51 -56 0
-51 -111 0
-51 -114 0
-51 -116 0
-51 -118 0
-53 -56 0
-53 -58 0
-53 -60 0
-53 -61 0
-53 -62 0
-54 -56 0
-54 -107 0
-54 -111 0
-54 -113 0
-54 -114 0
-55 -56 0
-55 -58 0
-55 -60 0
-55 -115 0
-55 -118 0
-55 -120 0
-55 -122 0
-57 -60 0
-57 -61 0
-57 -62 0
-58 -60 0
-58 -111 0
-58 -115 0
-58 -117 0
-58 -118 0
-59 -60 0
-59 -61 0
-59 -62 0
-59 -119 0
-59 -122 0
-59 -123 0
-59 -124 0
-61 -62 0
-61 -115 0
-61 -119 0
-61 -121 0
-61 -122 0
-63 -65 0
-63 -66 0
-63 -68 0
-63 -70 0
-64 -66 0
-64 -68 0
-64 -69 0
-64 -70 0
-64 -72 0
-64 -74 0
-65 -66 0
-65 -68 0
-65 -70 0
-65 -126 0
-65 -128 0
-65 -130 0
-65 -132 0
-67 -70 0
-67 -72 0
-67 -73 0
-67 -74 0
-67 -76 0
-67 -78 0
-68 -70 0
-68 -125 0
-68 -126 0
-68 -127 0
-68 -128 0
-69 -70 0
-69 -72 0
-69 -74 0
-69 -129 0
-69 -132 0
-69 -134 0
-69 -136 0
-71 -74 0
-71 -76 0
-71 -77 0
-71 -78 0
-71 -80 0
-71 -82 0
-72 -74 0
-72 -126 0
-72 -129 0
-72 -131 0
-72 -132 0
-73 -74 0
-73 -76 0
-73 -78 0
-73 -133 0
-73 -136 0
-73 -138 0
-73 -140 0
-75 -78 0
-75 -80 0
-75 -81 0
-75 -82 0
-75 -84 0
-75 -86 0
-76 -78 0
-76 -129 0
-76 -133 0
-76 -135 0
-76 -136 0
-77 -78 0
-77 -80 0
-77 -82 0
-77 -137 0
-77 -140 0
-77 -142 0
-77 -144 0
-79 -82 0
-79 -84 0
-79 -85 0
-79 -86 0
-79 -88 0
-79 -90 0
-80 -82 0
-80 -133 0
-80 -137 0
-80 -139 0
-80 -140 0
-81 -82 0
-81 -84 0
-81 -86 0
-81 -141 0
-81 -144 0
-81 -146 0
-81 -148 0
-83 -86 0
-83 -88 0
-83 -89 0
-83 -90 0
-83 -92 0
-83 -94 0
-84 -86 0
-84 -137 0
-84 -141 0
-84 -143 0
-84 -144 0
-85 -86 0
-85 -88 0
-85 -90 0
-85 -145 0
-85 -148 0
-85 -150 0
-85 -152 0
-87 -90 0
-87 -92 0
-87 -93 0
-87 -94 0
-87 -96 0
-87 -98 0
-88 -90 0
-88 -141 0
-88 -145 0
-88 -147 0
-88 -148 0
-89 -90 0
-89 -92 0
-89 -94 0
-89 -149 0
-89 -152 0
-89 -154 0
-89 -156 0
-91 -94 0
-91 -96 0
-91 -97 0
-91 -98 0
-91 -100 0
-91 -102 0
-92 -94 0
-92 -145 0
-92 -149 0
-92 -151 0
-92 -152 0
-93 -94 0
-93 -96 0
-93 -98 0
-93 -153 0
-93 -156 0
-93 -158 0
-93 -160 0
-95 -98 0
-95 -100 0
-95 -101 0
-95 -102 0
-95 -104 0
-95 -106 0
-96 -98 0
-96 -149 0
-96 -153 0
-96 -155 0
-96 -156 0
-97 -98 0
-97 -100 0
-97 -102 0
-97 -157 0
-97 -160 0
-97 -162 0
-97 -164 0
-99 -102 0
-99 -104 0
-99 -105 0
-99 -106 0
-99 -108 0
-99 -110 0
-100 -102 0
-100 -153 0
-100 -157 0
-100 -159 0
-100 -160 0
-101 -102 0
-101 -104 0
-101 -106 0
-101 -161 0
-101 -164 0
-101 -166 0
-101 -168 0
-103 -106 0
-103 -108 0
-103 -109 0
-103 -110 0
-103 -112 0
-103 -114 0
-104 -106 0
-104 -157 0
-104 -161 0
-104 -163 0
-104 -164 0
-105 -106 0
-105 -108 0
-105 -110 0
-105 -165 0
-105 -168 0
-105 -170 0
-105 -172 0
-107 -110 0
-107 -112 0
-107 -113 0
-107 -114 0
-107 -116 0
-107 -118 0
-108 -110 0
-108 -161 0
-108 -165 0
-108 -167 0
-108 -168 0
-109 -110 0
-109 -112 0
-109 -114 0
-109 -169 0
-109 -172 0
-109 -174 0
-109 -176 0
-111 -114 0
-111 -116 0
-111 -117 0
-111 -118 0
-111 -120 0
-111 -122 0
-112 -114 0
-112 -165 0
-112 -169 0
-112 -171 0
-112 -172 0
-113 -114 0
-113 -116 0
-113 -118 0
-113 -173 0
-113 -176 0
-113 -178 0
-113 -180 0
-115 -118 0
-115 -120 0
-115 -121 0
-115 -122 0
-115 -123 0
-115 -124 0
-116 -118 0
-116 -169 0
-116 -173 0
-116 -175 0
-116 -176 0
-117 -118 0
-117 -120 0
-117 -122 0
-117 -177 0
-117 -180 0
-117 -182 0
-117 -184 0
-119 -122 0
-119 -123 0
-119 -124 0
-120 -122 0
-120 -173 0
-120 -177 0
-120 -179 0
-120 -180 0
-121 -122 0
-121 -123 0
-121 -124 0
-121 -181 0
-121 -184 0
-121 -185 0
-121 -186 0
-123 -124 0
-123 -177 0
-123 -181 0
-123 -183 0
-123 -184 0
-125 -127 0
-125 -128 0
-125 -130 0
-125 -132 0
-126 -128 0
-126 -130 0
-126 -131 0
-126 -132 0
-126 -134 0
-126 -136 0
-127 -128 0
-127 -130 0
-127 -132 0
-127 -188 0
-127 -190 0
-127 -192 0
-127 -194 0
-129 -132 0
-129 -134 0
-129 -135 0
-129 -136 0
-129 -138 0
-129 -140 0
-130 -132 0
-130 -187 0
-130 -188 0
-130 -189 0
-130 -190 0
-131 -132 0
-131 -134 0
-131 -136 0
-131 -191 0
-131 -194 0
-131 -196 0
-131 -198 0
-133 -136 0
-133 -138 0
-133 -139 0
-133 -140 0
-133 -142 0
-133 -144 0
-134 -136 0
-134 -188 0
-134 -191 0
-134 -193 0
-134 -194 0
-135 -136 0
-135 -138 0
-135 -140 0
-135 -195 0
-135 -198 0
-135 -200 0
-135 -202 0
-137 -140 0
-137 -142 0
-137 -143 0
-137 -144 0
-137 -146 0
-137 -148 0
-138 -140 0
-138 -191 0
-138 -195 0
-138 -197 0
-138 -198 0
-139 -140 0
-139 -142 0
-139 -144 0
-139 -199 0
-139 -202 0
-139 -204 0
-139 -206 0
-141 -144 0
-141 -146 0
-141 -147 0
-141 -148 0
-141 -150 0
-141 -152 0
-142 -144 0
-142 -195 0
-142 -199 0
-142 -201 0
-142 -202 0
-143 -144 0
-143 -146 0
-143 -148 0
-143 -203 0
-143 -206 0
-143 -208 0
-143 -210 0
-145 -148 0
-145 -150 0
-145 -151 0
-145 -152 0
-145 -154 0
-145 -156 0
-146 -148 0
-146 -199 0
-146 -203 0
-146 -205 0
-146 -206 0
-147 -148 0
-147 -150 0
-147 -152 0
-147 -207 0
-147 -210 0
-147 -212 0
-147 -214 0
-149 -152 0
-149 -154 0
-149 -155 0
-149 -156 0
-149 -158 0
-149 -160 0
-150 -152 0
-150 -203 0
-150 -207 0
-150 -209 0
-150 -210 0
-151 -152 0
-151 -154 0
-151 -156 0
-151 -211 0
-151 -214 0
-151 -216 0
-151 -218 0
-153 -156 0
-153 -158 0
-153 -159 0
-153 -160 0
-153 -162 0
-153 -164 0
-154 -156 0
-154 -207 0
-154 -211 0
-154 -213 0
-154 -214 0
-155 -156 0
-155 -158 0
-155 -160 0
-155 -215 0
-155 -218 0
-155 -220 0
-155 -222 0
-157 -160 0
-157 -162 0
-157 -163 0
-157 -164 0
-157 -166 0
-157 -168 0
-158 -160 0
-158 -211 0
-158 -215 0
-158 -217 0
-158 -218 0
-159 -160 0
-159 -162 0
-159 -164 0
-159 -219 0
-159 -222 0
-159 -224 0
-159 -226 0
-161 -164 0
-161 -166 0
-161 -167 0
-161 -168 0
-161 -170 0
-161 -172 0
-162 -164 0
-162 -215 0
-162 -219 0
-162 -221 0
-162 -222 0
-163 -164 0
-163 -166 0
-163 -168 0
-163 -223 0
-163 -226 0
-163 -228 0
-163 -230 0
-165 -168 0
-165 -170 0
-165 -171 0
-165 -172 0
-165 -174 0
-165 -176 0
-166 -168 0
-166 -219 0
-166 -223 0
-166 -225 0
-166 -226 0
-167 -168 0
-167 -170 0
-167 -172 0
-167 -227 0
-167 -230 0
-167 -232 0
-167 -234 0
-169 -172 0
-169 -174 0
-169 -175 0
-169 -176 0
-169 -178 0
-169 -180 0
-170 -172 0
-170 -223 0
-170 -227 0
-170 -229 0
-170 -230 0
-171 -172 0
-171 -174 0
-171 -176 0
-171 -231 0
-171 -234 0
-171 -236 0
-171 -238 0
-173 -176 0
-173 -178 0
-173 -179 0
-173 -180 0
-173 -182 0
-173 -184 0
-174 -176 0
-174 -227 0
-174 -231 0
-174 -233 0
-174 -234 0
-175 -176 0
-175 -178 0
-175 -180 0
-175 -235 0
-175 -238 0
-175 -240 0
-175 -242 0
-177 -180 0
-177 -182 0
-177 -183 0
-177 -184 0
-177 -185 0
-177 -186 0
-178 -180 0
-178 -231 0
-178 -235 0
-178 -237 0
-178 -238 0
-179 -180 0
-179 -182 0
-179 -184 0
-179 -239 0
-179 -242 0
-179 -244 0
-179 -246 0
-181 -184 0
-181 -185 0
-181 -186 0
-182 -184 0
-182 -235 0
-182 -239 0
-182 -241 0
-182 -242 0
-183 -184 0
-183 -185 0
-183 -186 0
-183 -243 0
-183 -246 0
-183 -247 0
-183 -248 0
-185 -186 0
-185 -239 0
-185 -243 0
-185 -245 0
-185 -246 0
-187 -189 0
-187 -190 0
-187 -192 0
-187 -194 0
-188 -190 0
-188 -192 0
-188 -193 0
-188 -194 0
-188 -196 0
-188 -198 0
-189 -190 0
-189 -192 0
-189 -194 0
-189 -250 0
-189 -252 0
-189 -254 0
-189 -256 0
-191 -194 0
-191 -196 0
-191 -197 0
-191 -198 0
-191 -200 0
-191 -202 0
-192 -194 0
-192 -249 0
-192 -250 0
-192 -251 0
-192 -252 0
-193 -194 0
-193 -196 0
-193 -198 0
-193 -253 0
-193 -256 0
-193 -258 0
-193 -260 0
-195 -198 0
-195 -200 0
-195 -201 0
-195 -202 0
-195 -204 0
-195 -206 0
-196 -198 0
-196 -250 0
-196 -253 0
-196 -255 0
-196 -256 0
-197 -198 0
-197 -200 0
-197 -202 0
-197 -257 0
-197 -260 0
-197 -262 0
-197 -264 0
-199 -202 0
-199 -204 0
-199 -205 0
-199 -206 0
-199 -208 0
-199 -210 0
-200 -202 0
-200 -253 0
-200 -257 0
-200 -259 0
-200 -260 0
-201 -202 0
-201 -204 0
-201 -206 0
-201 -261 0
-201 -264 0
-201 -266 0
-201 -268 0
-203 -206 0
-203 -208 0
-203 -209 0
-203 -210 0
-203 -212 0
-203 -214 0
-204 -206 0
-204 -257 0
-204 -261 0
-204 -263 0
-204 -264 0
-205 -206 0
-205 -208 0
-205 -210 0
-205 -265 0
-205 -268 0
-205 -270 0
-205 -272 0
-207 -210 0
-207 -212 0
-207 -213 0
-207 -214 0
-207 -216 0
-207 -218 0
-208 -210 0
-208 -261 0
-208 -265 0
-208 -267 0
-208 -268 0
-209 -210 0
-209 -212 0
-209 -214 0
-209 -269 0
-209 -272 0
-209 -274 0
-209 -276 0
-211 -214 0
-211 -216 0
-211 -217 0
-211 -218 0
-211 -220 0
-211 -222 0
-212 -214 0
-212 -265 0
-212 -269 0
-212 -271 0
-212 -272 0
-213 -214 0
-213 -216 0
-213 -218 0
-213 -273 0
-213 -276 0
-213 -278 0
-213 -280 0
-215 -218 0
-215 -220 0
-215 -221 0
-215 -222 0
-215 -224 0
-215 -226 0
-216 -218 0
-216 -269 0
-216 -273 0
-216 -275 0
-216 -276 0
-217 -218 0
-217 -220 0
-217 -222 0
-217 -277 0
-217 -280 0
-217 -282 0
-217 -284 0
-219 -222 0
-219 -224 0
-219 -225 0
-219 -226 0
-219 -228 0
-219 -230 0
-220 -222 0
-220 -273 0
-220 -277 0
-220 -279 0
-220 -280 0
-221 -222 0
-221 -224 0
-221 -226 0
-221 -281 0
-221 -284 0
-221 -286 0
-221 -288 0
-223 -226 0
-223 -228 0
-223 -229 0
-223 -230 0
-223 -232 0
-223 -234 0
-224 -226 0
-224 -277 0
-224 -281 0
-224 -283 0
-224 -284 0
-225 -226 0
-225 -228 0
-225 -230 0
-225 -285 0
-225 -288 0
-225 -290 0
-225 -292 0
-227 -230 0
-227 -232 0
-227 -233 0
-227 -234 0
-227 -236 0
-227 -238 0
-228 -230 0
-228 -281 0
-228 -285 0
-228 -287 0
-228 -288 0
-229 -230 0
-229 -232 0
-229 -234 0
-229 -289 0
-229 -292 0
-229 -294 0
-229 -296 0
-231 -234 0
-231 -236 0
-231 -237 0
-231 -238 0
-231 -240 0
-231 -242 0
-232 -234 0
-232 -285 0
-232 -289 0
-232 -291 0
-232 -292 0
-233 -234 0
-233 -236 0
-233 -238 0
-233 -293 0
-233 -296 0
-233 -298 0
-233 -300 0
-235 -238 0
-235 -240 0
-235 -241 0
-235 -242 0
-235 -244 0
-235 -246 0
-236 -238 0
-236 -289 0
-236 -293 0
-236 -295 0
-236 -296 0
-237 -238 0
-237 -240 0
-237 -242 0
-237 -297 0
-237 -300 0
-237 -302 0
-237 -304 0
-239 -242 0
-239 -244 0
-239 -245 0
-239 -246 0
-239 -247 0
-239 -248 0
-240 -242 0
-240 -293 0
-240 -297 0
-240 -299 0
-240 -300 0
-241 -242 0
-241 -244 0
-241 -246 0
-241 -301 0
-241 -304 0
-241 -306 0
-241 -308 0
-243 -246 0
-243 -247 0
-243 -248 0
-244 -246 0
-244 -297 0
-244 -301 0
-244 -303 0
-244 -304 0
-245 -246 0
-245 -247 0
-245 -248 0
-245 -305 0
-245 -308 0
-245 -309 0
-245 -310 0
-247 -248 0
-247 -301 0
-247 -305 0
-247 -307 0
-247 -308 0
-249 -251 0
-249 -252 0
-249 -254 0
-249 -256 0
-250 -252 0
-250 -254 0
-250 -255 0
-250 -256 0
-250 -258 0
-250 -260 0
-251 -252 0
-251 -254 0
-251 -256 0
-251 -312 0
-251 -313 0
-251 -315 0
-251 -317 0
-253 -256 0
-253 -258 0
-253 -259 0
-253 -260 0
-253 -262 0
-253 -264 0
-254 -256 0
-254 -311 0
-254 -312 0
-254 -313 0
-255 -256 0
-255 -258 0
-255 -260 0
-255 -314 0
-255 -317 0
-255 -319 0
-255 -321 0
-257 -260 0
-257 -262 0
-257 -263 0
-257 -264 0
-257 -266 0
-257 -268 0
-258 -260 0
-258 -312 0
-258 -314 0
-258 -316 0
-258 -317 0
-259 -260 0
-259 -262 0
-259 -264 0
-259 -318 0
-259 -321 0
-259 -323 0
-259 -325 0
-261 -264 0
-261 -266 0
-261 -267 0
-261 -268 0
-261 -270 0
-261 -272 0
-262 -264 0
-262 -314 0
-262 -318 0
-262 -320 0
-262 -321 0
-263 -264 0
-263 -266 0
-263 -268 0
-263 -322 0
-263 -325 0
-263 -327 0
-263 -329 0
-265 -268 0
-265 -270 0
-265 -271 0
-265 -272 0
-265 -274 0
-265 -276 0
-266 -268 0
-266 -318 0
-266 -322 0
-266 -324 0
-266 -325 0
-267 -268 0
-267 -270 0
-267 -272 0
-267 -326 0
-267 -329 0
-267 -331 0
-267 -333 0
-269 -272 0
-269 -274 0
-269 -275 0
-269 -276 0
-269 -278 0
-269 -280 0
-270 -272 0
-270 -322 0
-270 -326 0
-270 -328 0
-270 -329 0
-271 -272 0
-271 -274 0
-271 -276 0
-271 -330 0
-271 -333 0
-271 -335 0
-271 -337 0
-273 -276 0
-273 -278 0
-273 -279 0
-273 -280 0
-273 -282 0
-273 -284 0
-274 -276 0
-274 -326 0
-274 -330 0
-274 -332 0
-274 -333 0
-275 -276 0
-275 -278 0
-275 -280 0
-275 -334 0
-275 -337 0
-275 -339 0
-275 -341 0
-277 -280 0
-277 -282 0
-277 -283 0
-277 -284 0
-277 -286 0
-277 -288 0
-278 -280 0
-278 -330 0
-278 -334 0
-278 -336 0
-278 -337 0
-279 -280 0
-279 -282 0
-279 -284 0
-279 -338 0
-279 -341 0
-279 -343 0
-279 -345 0
-281 -284 0
-281 -286 0
-281 -287 0
-281 -288 0
-281 -290 0
-281 -292 0
-282 -284 0
-282 -334 0
-282 -338 0
-282 -340 0
-282 -341 0
-283 -284 0
-283 -286 0
-283 -288 0
-283 -342 0
-283 -345 0
-283 -347 0
-283 -349 0
-285 -288 0
-285 -290 0
-285 -291 0
-285 -292 0
-285 -294 0
-285 -296 0
-286 -288 0
-286 -338 0
-286 -342 0
-286 -344 0
-286 -345 0
-287 -288 0
-287 -290 0
-287 -292 0
-287 -346 0
-287 -349 0
-287 -351 0
-287 -353 0
-289 -292 0
-289 -294 0
-289 -295 0
-289 -296 0
-289 -298 0
-289 -300 0
-290 -292 0
-290 -342 0
-290 -346 0
-290 -348 0
-290 -349 0
-291 -292 0
-291 -294 0
-291 -296 0
-291 -350 0
-291 -353 0
-291 -355 0
-291 -357 0
-293 -296 0
-293 -298 0
-293 -299 0
-293 -300 0
-293 -302 0
-293 -304 0
-294 -296 0
-294 -346 0
-294 -350 0
-294 -352 0
-294 -353 0
-295 -296 0
-295 -298 0
-295 -300 0
-295 -354 0
-295 -357 0
-295 -359 0
-295 -361 0
-297 -300 0
-297 -302 0
-297 -303 0
-297 -304 0
-297 -306 0
-297 -308 0
-298 -300 0
-298 -350 0
-298 -354 0
-298 -356 0
-298 -357 0
-299 -300 0
-299 -302 0
-299 -304 0
-299 -358 0
-299 -361 0
-299 -363 0
-299 -365 0
-301 -304 0
-301 -306 0
-301 -307 0
-301 -308 0
-301 -309 0
-301 -310 0
-302 -304 0
-302 -354 0
-302 -358 0
-302 -360 0
-302 -361 0
-303 -304 0
-303 -306 0
-303 -308 0
-303 -362 0
-303 -365 0
-303 -367 0
-303 -369 0
-305 -308 0
-305 -309 0
-305 -310 0
-306 -308 0
-306 -358 0
-306 -362 0
-306 -364 0
-306 -365 0
-307 -308 0
-307 -309 0
-307 -310 0
-307 -366 0
-307 -369 0
-307 -370 0
-309 -310 0
-309 -362 0
-309 -366 0
-309 -368 0
-309 -369 0
-311 -313 0
-311 -315 0
-311 -317 0
-312 -313 0
-312 -315 0
-312 -316 0
-312 -317 0
-312 -319 0
-312 -321 0
-314 -317 0
-314 -319 0
-314 -320 0
-314 -321 0
-314 -323 0
-314 -325 0
-315 -317 0
-315 -371 0
-316 -317 0
-316 -319 0
-316 -321 0
-316 -372 0
-316 -375 0
-316 -377 0
-316 -379 0
-318 -321 0
-318 -323 0
-318 -324 0
-318 -325 0
-318 -327 0
-318 -329 0
-319 -321 0
-319 -372 0
-319 -374 0
-319 -375 0
-320 -321 0
-320 -323 0
-320 -325 0
-320 -376 0
-320 -379 0
-320 -381 0
-320 -383 0
-322 -325 0
-322 -327 0
-322 -328 0
-322 -329 0
-322 -331 0
-322 -333 0
-323 -325 0
-323 -372 0
-323 -376 0
-323 -378 0
-323 -379 0
-324 -325 0
-324 -327 0
-324 -329 0
-324 -380 0
-324 -383 0
-324 -385 0
-324 -387 0
-326 -329 0
-326 -331 0
-326 -332 0
-326 -333 0
-326 -335 0
-326 -337 0
-327 -329 0
-327 -376 0
-327 -380 0
-327 -382 0
-327 -383 0
-328 -329 0
-328 -331 0
-328 -333 0
-328 -384 0
-328 -387 0
-328 -389 0
-328 -391 0
-330 -333 0
-330 -335 0
-330 -336 0
-330 -337 0
-330 -339 0
-330 -341 0
-331 -333 0
-331 -380 0
-331 -384 0
-331 -386 0
-331 -387 0
-332 -333 0
-332 -335 0
-332 -337 0
-332 -388 0
-332 -391 0
-332 -393 0
-332 -395 0
-334 -337 0
-334 -339 0
-334 -340 0
-334 -341 0
-334 -343 0
-334 -345 0
-335 -337 0
-335 -384 0
-335 -388 0
-335 -390 0
-335 -391 0
-336 -337 0
-336 -339 0
-336 -341 0
-336 -392 0
-336 -395 0
-336 -397 0
-336 -399 0
-338 -341 0
-338 -343 0
-338 -344 0
-338 -345 0
-338 -347 0
-338 -349 0
-339 -341 0
-339 -388 0
-339 -392 0
-339 -394 0
-339 -395 0
-340 -341 0
-340 -343 0
-340 -345 0
-340 -396 0
-340 -399 0
-340 -401 0
-340 -403 0
-342 -345 0
-342 -347 0
-342 -348 0
-342 -349 0
-342 -351 0
-342 -353 0
-343 -345 0
-343 -392 0
-343 -396 0
-343 -398 0
-343 -399 0
-344 -345 0
-344 -347 0
-344 -349 0
-344 -400 0
-344 -403 0
-344 -405 0
-344 -407 0
-346 -349 0
-346 -351 0
-346 -352 0
-346 -353 0
-346 -355 0
-346 -357 0
-347 -349 0
-347 -396 0
-347 -400 0
-347 -402 0
-347 -403 0
-348 -349 0
-348 -351 0
-348 -353 0
-348 -404 0
-348 -407 0
-348 -409 0
-348 -411 0
-350 -353 0
-350 -355 0
-350 -356 0
-350 -357 0
-350 -359 0
-350 -361 0
-351 -353 0
-351 -400 0
-351 -404 0
-351 -406 0
-351 -407 0
-352 -353 0
-352 -355 0
-352 -357 0
-352 -408 0
-352 -411 0
-352 -413 0
-352 -415 0
-354 -357 0
-354 -359 0
-354 -360 0
-354 -361 0
-354 -363 0
-354 -365 0
-355 -357 0
-355 -404 0
-355 -408 0
-355 -410 0
-355 -411 0
-356 -357 0
-356 -359 0
-356 -361 0
-356 -412 0
-356 -415 0
-356 -417 0
-356 -419 0
-358 -361 0
-358 -363 0
-358 -364 0
-358 -365 0
-358 -367 0
-358 -369 0
-359 -361 0
-359 -408 0
-359 -412 0
-359 -414 0
-359 -415 0
-360 -361 0
-360 -363 0
-360 -365 0
-360 -416 0
-360 -419 0
-360 -421 0
-360 -423 0
-362 -365 0
-362 -367 0
-362 -368 0
-362 -369 0
-362 -370 0
-363 -365 0
-363 -412 0
-363 -416 0
-363 -418 0
-363 -419 0
-364 -365 0
-364 -367 0
-364 -369 0
-364 -420 0
-364 -423 0
-364 -425 0
-366 -369 0
-366 -370 0
-367 -369 0
-367 -416 0
-367 -420 0
-367 -422 0
-367 -423 0
-368 -369 0
-368 -370 0
-368 -424 0
-372 -375 0
-372 -377 0
-372 -378 0
-372 -379 0
-372 -381 0
-372 -383 0
-373 -375 0
-374 -375 0
-374 -377 0
-374 -379 0
-376 -379 0
-376 -381 0
-376 -382 0
-376 -383 0
-376 -385 0
-376 -387 0
-377 -379 0
-378 -379 0
-378 -381 0
-378 -383 0
-380 -383 0
-380 -385 0
-380 -386 0
-380 -387 0
-380 -389 0
-380 -391 0
-381 -383 0
-382 -383 0
-382 -385 0
-382 -387 0
-384 -387 0
-384 -389 0
-384 -390 0
-384 -391 0
-384 -393 0
-384 -395 0
-385 -387 0
-386 -387 0
-386 -389 0
-386 -391 0
-388 -391 0
-388 -393 0
-388 -394 0
-388 -395 0
-388 -397 0
-388 -399 0
-389 -391 0
-390 -391 0
-390 -393 0
-390 -395 0
-392 -395 0
-392 -397 0
-392 -398 0
-392 -399 0
-392 -401 0
-392 -403 0
-393 -395 0
-394 -395 0
-394 -397 0
-394 -399 0
-396 -399 0
-396 -401 0
-396 -402 0
-396 -403 0
-396 -405 0
-396 -407 0
-397 -399 0
-398 -399 0
-398 -401 0
-398 -403 0
-400 -403 0
-400 -405 0
-400 -406 0
-400 -407 0
-400 -409 0
-400 -411 0
-401 -403 0
-402 -403 0
-402 -405 0
-402 -407 0
-404 -407 0
-404 -409 0
-404 -410 0
-404 -411 0
-404 -413 0
-404 -415 0
-405 -407 0
-406 -407 0
-406 -409 0
-406 -411 0
-408 -411 0
-408 -413 0
-408 -414 0
-408 -415 0
-408 -417 0
-408 -419 0
-409 -411 0
-410 -411 0
-410 -413 0
-410 -415 0
-412 -415 0
-412 -417 0
-412 -418 0
-412 -419 0
-412 -421 0
-412 -423 0
-413 -415 0
-414 -415 0
-414 -417 0
-414 -419 0
-416 -419 0
-416 -421 0
-416 -422 0
-416 -423 0
-416 -425 0
-417 -419 0
-418 -419 0
-418 -421 0
-418 -423 0
-420 -423 0
-420 -425 0
-420 -426 0
-421 -423 0
-422 -423 0
-422 -425 0
87 93 96 98 -153 -156 0
87 93 96 -98 153 -156 0
87 93 96 -98 -153 156 0
87 93 -96 98 153 156 0
87 93 -96 -98 -153 -156 0
87 -93 96 98 153 156 0
87 -93 96 -98 -153 -156 0
87 -93 -96 98 153 -156 0
87 -93 -96 98 -153 156 0
87 -93 -96 -98 153 156 0
-87 93 96 98 153 -156 0
-87 93 96 98 -153 156 0
-87 93 96 -98 153 156 0
-87 93 -96 98 -153 -156 0
-87 93 -96 -98 153 -156 0
-87 93 -96 -98 -153 156 0
-87 -93 96 98 -153 -156 0
-87 -93 96 -98 153 -156 0
-87 -93 96 -98 -153 156 0
-87 -93 -96 98 153 156 0
-87 -93 -96 -98 -153 -156 0
