p cnf 3932 8204
1 425 0
-425 426 0
3 -425 427 0
-427 428 0
19 -427 429 0
-429 430 0
27 -429 431 0
-431 432 0
58 -431 433 0
-433 434 0
59 -433 435 0
-435 436 0
60 -435 0
3 426 0
19 -426 428 0
27 -428 430 0
58 -430 432 0
59 -432 434 0
60 -434 436 0
61 -436 0
-1 437 0
-437 438 0
-3 -437 439 0
-439 440 0
-19 -439 0
-3 438 0
-438 441 0
-19 -438 440 0
-440 442 0
-27 -440 0
-19 441 0
-441 443 0
-27 -441 442 0
-442 444 0
-58 -442 0
-27 443 0
-443 445 0
-58 -443 444 0
-444 446 0
-59 -444 0
-58 445 0
-445 447 0
-59 -445 446 0
-446 448 0
-60 -446 0
-59 447 0
-60 -447 448 0
-61 -448 0
2 449 0
-449 450 0
5 -449 451 0
-451 452 0
20 -451 453 0
-453 454 0
31 -453 455 0
-455 456 0
62 -455 457 0
-457 458 0
63 -457 459 0
-459 460 0
64 -459 0
5 450 0
20 -450 452 0
31 -452 454 0
62 -454 456 0
63 -456 458 0
64 -458 460 0
65 -460 0
-2 461 0
-461 462 0
-5 -461 463 0
-463 464 0
-20 -463 0
-5 462 0
-462 465 0
-20 -462 464 0
-464 466 0
-31 -464 0
-20 465 0
-465 467 0
-31 -465 466 0
-466 468 0
-62 -466 0
-31 467 0
-467 469 0
-62 -467 468 0
-468 470 0
-63 -468 0
-62 469 0
-469 471 0
-63 -469 470 0
-470 472 0
-64 -470 0
-63 471 0
-64 -471 472 0
-65 -472 0
4 473 0
-473 474 0
7 -473 475 0
-475 476 0
22 -475 477 0
-477 478 0
35 -477 479 0
-479 480 0
66 -479 481 0
-481 482 0
67 -481 483 0
-483 484 0
68 -483 0
7 474 0
22 -474 476 0
35 -476 478 0
66 -478 480 0
67 -480 482 0
68 -482 484 0
69 -484 0
-4 485 0
-485 486 0
-7 -485 487 0
-487 488 0
-22 -487 0
-7 486 0
-486 489 0
-22 -486 488 0
-488 490 0
-35 -488 0
-22 489 0
-489 491 0
-35 -489 490 0
-490 492 0
-66 -490 0
-35 491 0
-491 493 0
-66 -491 492 0
-492 494 0
-67 -492 0
-66 493 0
-493 495 0
-67 -493 494 0
-494 496 0
-68 -494 0
-67 495 0
-68 -495 496 0
-69 -496 0
6 497 0
-497 498 0
9 -497 499 0
-499 500 0
24 -499 501 0
-501 502 0
39 -501 503 0
-503 504 0
70 -503 505 0
-505 506 0
71 -505 507 0
-507 508 0
72 -507 0
9 498 0
24 -498 500 0
39 -500 502 0
70 -502 504 0
71 -504 506 0
72 -506 508 0
73 -508 0
-6 509 0
-509 510 0
-9 -509 511 0
-511 512 0
-24 -511 0
-9 510 0
-510 513 0
-24 -510 512 0
-512 514 0
-39 -512 0
-24 513 0
-513 515 0
-39 -513 514 0
-514 516 0
-70 -514 0
-39 515 0
-515 517 0
-70 -515 516 0
-516 518 0
-71 -516 0
-70 517 0
-517 519 0
-71 -517 518 0
-518 520 0
-72 -518 0
-71 519 0
-72 -519 520 0
-73 -520 0
8 521 0
-521 522 0
11 -521 523 0
-523 524 0
28 -523 525 0
-525 526 0
43 -525 527 0
-527 528 0
74 -527 529 0
-529 530 0
75 -529 531 0
-531 532 0
76 -531 0
11 522 0
28 -522 524 0
43 -524 526 0
74 -526 528 0
75 -528 530 0
76 -530 532 0
77 -532 0
-8 533 0
-533 534 0
-11 -533 535 0
-535 536 0
-28 -535 0
-11 534 0
-534 537 0
-28 -534 536 0
-536 538 0
-43 -536 0
-28 537 0
-537 539 0
-43 -537 538 0
-538 540 0
-74 -538 0
-43 539 0
-539 541 0
-74 -539 540 0
-540 542 0
-75 -540 0
-74 541 0
-541 543 0
-75 -541 542 0
-542 544 0
-76 -542 0
-75 543 0
-76 -543 544 0
-77 -544 0
10 545 0
-545 546 0
13 -545 547 0
-547 548 0
32 -547 549 0
-549 550 0
47 -549 551 0
-551 552 0
78 -551 553 0
-553 554 0
79 -553 555 0
-555 556 0
80 -555 0
13 546 0
32 -546 548 0
47 -548 550 0
78 -550 552 0
79 -552 554 0
80 -554 556 0
81 -556 0
-10 557 0
-557 558 0
-13 -557 559 0
-559 560 0
-32 -559 0
-13 558 0
-558 561 0
-32 -558 560 0
-560 562 0
-47 -560 0
-32 561 0
-561 563 0
-47 -561 562 0
-562 564 0
-78 -562 0
-47 563 0
-563 565 0
-78 -563 564 0
-564 566 0
-79 -564 0
-78 565 0
-565 567 0
-79 -565 566 0
-566 568 0
-80 -566 0
-79 567 0
-80 -567 568 0
-81 -568 0
12 569 0
-569 570 0
15 -569 571 0
-571 572 0
36 -571 573 0
-573 574 0
50 -573 575 0
-575 576 0
82 -575 577 0
-577 578 0
83 -577 579 0
-579 580 0
84 -579 0
15 570 0
36 -570 572 0
50 -572 574 0
82 -574 576 0
83 -576 578 0
84 -578 580 0
85 -580 0
-12 581 0
-581 582 0
-15 -581 583 0
-583 584 0
-36 -583 0
-15 582 0
-582 585 0
-36 -582 584 0
-584 586 0
-50 -584 0
-36 585 0
-585 587 0
-50 -585 586 0
-586 588 0
-82 -586 0
-50 587 0
-587 589 0
-82 -587 588 0
-588 590 0
-83 -588 0
-82 589 0
-589 591 0
-83 -589 590 0
-590 592 0
-84 -590 0
-83 591 0
-84 -591 592 0
-85 -592 0
14 593 0
-593 594 0
17 -593 595 0
-595 596 0
40 -595 597 0
-597 598 0
52 -597 599 0
-599 600 0
86 -599 601 0
-601 602 0
87 -601 603 0
-603 604 0
88 -603 0
17 594 0
40 -594 596 0
52 -596 598 0
86 -598 600 0
87 -600 602 0
88 -602 604 0
89 -604 0
-14 605 0
-605 606 0
-17 -605 607 0
-607 608 0
-40 -607 0
-17 606 0
-606 609 0
-40 -606 608 0
-608 610 0
-52 -608 0
-40 609 0
-609 611 0
-52 -609 610 0
-610 612 0
-86 -610 0
-52 611 0
-611 613 0
-86 -611 612 0
-612 614 0
-87 -612 0
-86 613 0
-613 615 0
-87 -613 614 0
-614 616 0
-88 -614 0
-87 615 0
-88 -615 616 0
-89 -616 0
16 617 0
-617 618 0
18 -617 619 0
-619 620 0
44 -619 621 0
-621 622 0
54 -621 623 0
-623 624 0
90 -623 625 0
-625 626 0
91 -625 627 0
-627 628 0
92 -627 0
18 618 0
44 -618 620 0
54 -620 622 0
90 -622 624 0
91 -624 626 0
92 -626 628 0
93 -628 0
-16 629 0
-629 630 0
-18 -629 631 0
-631 632 0
-44 -631 0
-18 630 0
-630 633 0
-44 -630 632 0
-632 634 0
-54 -632 0
-44 633 0
-633 635 0
-54 -633 634 0
-634 636 0
-90 -634 0
-54 635 0
-635 637 0
-90 -635 636 0
-636 638 0
-91 -636 0
-90 637 0
-637 639 0
-91 -637 638 0
-638 640 0
-92 -638 0
-91 639 0
-92 -639 640 0
-93 -640 0
21 641 0
-641 642 0
25 -641 643 0
-643 644 0
55 -643 645 0
-645 646 0
66 -645 647 0
-647 648 0
100 -647 649 0
-649 650 0
101 -649 651 0
-651 652 0
102 -651 0
25 642 0
55 -642 644 0
66 -644 646 0
100 -646 648 0
101 -648 650 0
102 -650 652 0
103 -652 0
-21 653 0
-653 654 0
-25 -653 655 0
-655 656 0
-55 -655 0
-25 654 0
-654 657 0
-55 -654 656 0
-656 658 0
-66 -656 0
-55 657 0
-657 659 0
-66 -657 658 0
-658 660 0
-100 -658 0
-66 659 0
-659 661 0
-100 -659 660 0
-660 662 0
-101 -660 0
-100 661 0
-661 663 0
-101 -661 662 0
-662 664 0
-102 -662 0
-101 663 0
-102 -663 664 0
-103 -664 0
23 665 0
-665 666 0
29 -665 667 0
-667 668 0
56 -667 669 0
-669 670 0
70 -669 671 0
-671 672 0
104 -671 673 0
-673 674 0
105 -673 675 0
-675 676 0
106 -675 0
29 666 0
56 -666 668 0
70 -668 670 0
104 -670 672 0
105 -672 674 0
106 -674 676 0
107 -676 0
-23 677 0
-677 678 0
-29 -677 679 0
-679 680 0
-56 -679 0
-29 678 0
-678 681 0
-56 -678 680 0
-680 682 0
-70 -680 0
-56 681 0
-681 683 0
-70 -681 682 0
-682 684 0
-104 -682 0
-70 683 0
-683 685 0
-104 -683 684 0
-684 686 0
-105 -684 0
-104 685 0
-685 687 0
-105 -685 686 0
-686 688 0
-106 -686 0
-105 687 0
-106 -687 688 0
-107 -688 0
-24 -25 -26 0
26 689 0
-689 690 0
33 -689 691 0
-691 692 0
59 -691 693 0
-693 694 0
74 -693 695 0
-695 696 0
108 -695 697 0
-697 698 0
109 -697 699 0
-699 700 0
110 -699 0
33 690 0
59 -690 692 0
74 -692 694 0
108 -694 696 0
109 -696 698 0
110 -698 700 0
111 -700 0
-26 701 0
-701 702 0
-33 -701 703 0
-703 704 0
-59 -703 0
-33 702 0
-702 705 0
-59 -702 704 0
-704 706 0
-74 -704 0
-59 705 0
-705 707 0
-74 -705 706 0
-706 708 0
-108 -706 0
-74 707 0
-707 709 0
-108 -707 708 0
-708 710 0
-109 -708 0
-108 709 0
-709 711 0
-109 -709 710 0
-710 712 0
-110 -710 0
-109 711 0
-110 -711 712 0
-111 -712 0
-27 713 0
-713 714 0
-28 -713 715 0
-715 716 0
-29 -715 0
-28 714 0
-29 -714 716 0
-30 -716 0
30 717 0
-717 718 0
37 -717 719 0
-719 720 0
63 -719 721 0
-721 722 0
78 -721 723 0
-723 724 0
112 -723 725 0
-725 726 0
113 -725 727 0
-727 728 0
114 -727 0
37 718 0
63 -718 720 0
78 -720 722 0
112 -722 724 0
113 -724 726 0
114 -726 728 0
115 -728 0
-30 729 0
-729 730 0
-37 -729 731 0
-731 732 0
-63 -731 0
-37 730 0
-730 733 0
-63 -730 732 0
-732 734 0
-78 -732 0
-63 733 0
-733 735 0
-78 -733 734 0
-734 736 0
-112 -734 0
-78 735 0
-735 737 0
-112 -735 736 0
-736 738 0
-113 -736 0
-112 737 0
-737 739 0
-113 -737 738 0
-738 740 0
-114 -738 0
-113 739 0
-114 -739 740 0
-115 -740 0
-31 741 0
-741 742 0
-32 -741 743 0
-743 744 0
-33 -743 0
-32 742 0
-33 -742 744 0
-34 -744 0
34 745 0
-745 746 0
41 -745 747 0
-747 748 0
67 -747 749 0
-749 750 0
82 -749 751 0
-751 752 0
116 -751 753 0
-753 754 0
117 -753 755 0
-755 756 0
118 -755 0
41 746 0
67 -746 748 0
82 -748 750 0
116 -750 752 0
117 -752 754 0
118 -754 756 0
119 -756 0
-34 757 0
-757 758 0
-41 -757 759 0
-759 760 0
-67 -759 0
-41 758 0
-758 761 0
-67 -758 760 0
-760 762 0
-82 -760 0
-67 761 0
-761 763 0
-82 -761 762 0
-762 764 0
-116 -762 0
-82 763 0
-763 765 0
-116 -763 764 0
-764 766 0
-117 -764 0
-116 765 0
-765 767 0
-117 -765 766 0
-766 768 0
-118 -766 0
-117 767 0
-118 -767 768 0
-119 -768 0
-35 769 0
-769 770 0
-36 -769 771 0
-771 772 0
-37 -771 0
-36 770 0
-37 -770 772 0
-38 -772 0
38 773 0
-773 774 0
45 -773 775 0
-775 776 0
71 -775 777 0
-777 778 0
86 -777 779 0
-779 780 0
120 -779 781 0
-781 782 0
121 -781 783 0
-783 784 0
122 -783 0
45 774 0
71 -774 776 0
86 -776 778 0
120 -778 780 0
121 -780 782 0
122 -782 784 0
123 -784 0
-38 785 0
-785 786 0
-45 -785 787 0
-787 788 0
-71 -787 0
-45 786 0
-786 789 0
-71 -786 788 0
-788 790 0
-86 -788 0
-71 789 0
-789 791 0
-86 -789 790 0
-790 792 0
-120 -790 0
-86 791 0
-791 793 0
-120 -791 792 0
-792 794 0
-121 -792 0
-120 793 0
-793 795 0
-121 -793 794 0
-794 796 0
-122 -794 0
-121 795 0
-122 -795 796 0
-123 -796 0
-39 797 0
-797 798 0
-40 -797 799 0
-799 800 0
-41 -799 0
-40 798 0
-41 -798 800 0
-42 -800 0
42 801 0
-801 802 0
48 -801 803 0
-803 804 0
75 -803 805 0
-805 806 0
90 -805 807 0
-807 808 0
124 -807 809 0
-809 810 0
125 -809 811 0
-811 812 0
126 -811 0
48 802 0
75 -802 804 0
90 -804 806 0
124 -806 808 0
125 -808 810 0
126 -810 812 0
127 -812 0
-42 813 0
-813 814 0
-48 -813 815 0
-815 816 0
-75 -815 0
-48 814 0
-814 817 0
-75 -814 816 0
-816 818 0
-90 -816 0
-75 817 0
-817 819 0
-90 -817 818 0
-818 820 0
-124 -818 0
-90 819 0
-819 821 0
-124 -819 820 0
-820 822 0
-125 -820 0
-124 821 0
-821 823 0
-125 -821 822 0
-822 824 0
-126 -822 0
-125 823 0
-126 -823 824 0
-127 -824 0
-43 825 0
-825 826 0
-44 -825 827 0
-827 828 0
-45 -827 0
-44 826 0
-45 -826 828 0
-46 -828 0
46 829 0
-829 830 0
51 -829 831 0
-831 832 0
79 -831 833 0
-833 834 0
94 -833 835 0
-835 836 0
128 -835 837 0
-837 838 0
129 -837 839 0
-839 840 0
130 -839 0
51 830 0
79 -830 832 0
94 -832 834 0
128 -834 836 0
129 -836 838 0
130 -838 840 0
131 -840 0
-46 841 0
-841 842 0
-51 -841 843 0
-843 844 0
-79 -843 0
-51 842 0
-842 845 0
-79 -842 844 0
-844 846 0
-94 -844 0
-79 845 0
-845 847 0
-94 -845 846 0
-846 848 0
-128 -846 0
-94 847 0
-847 849 0
-128 -847 848 0
-848 850 0
-129 -848 0
-128 849 0
-849 851 0
-129 -849 850 0
-850 852 0
-130 -850 0
-129 851 0
-130 -851 852 0
-131 -852 0
-47 -48 -49 0
49 853 0
-853 854 0
53 -853 855 0
-855 856 0
83 -855 857 0
-857 858 0
96 -857 859 0
-859 860 0
132 -859 861 0
-861 862 0
133 -861 863 0
-863 864 0
134 -863 0
53 854 0
83 -854 856 0
96 -856 858 0
132 -858 860 0
133 -860 862 0
134 -862 864 0
135 -864 0
-49 865 0
-865 866 0
-53 -865 867 0
-867 868 0
-83 -867 0
-53 866 0
-866 869 0
-83 -866 868 0
-868 870 0
-96 -868 0
-83 869 0
-869 871 0
-96 -869 870 0
-870 872 0
-132 -870 0
-96 871 0
-871 873 0
-132 -871 872 0
-872 874 0
-133 -872 0
-132 873 0
-873 875 0
-133 -873 874 0
-874 876 0
-134 -874 0
-133 875 0
-134 -875 876 0
-135 -876 0
57 877 0
-877 878 0
64 -877 879 0
-879 880 0
97 -879 881 0
-881 882 0
108 -881 883 0
-883 884 0
142 -883 885 0
-885 886 0
143 -885 887 0
-887 888 0
144 -887 0
64 878 0
97 -878 880 0
108 -880 882 0
142 -882 884 0
143 -884 886 0
144 -886 888 0
145 -888 0
-57 889 0
-889 890 0
-64 -889 891 0
-891 892 0
-97 -891 0
-64 890 0
-890 893 0
-97 -890 892 0
-892 894 0
-108 -892 0
-97 893 0
-893 895 0
-108 -893 894 0
-894 896 0
-142 -894 0
-108 895 0
-895 897 0
-142 -895 896 0
-896 898 0
-143 -896 0
-142 897 0
-897 899 0
-143 -897 898 0
-898 900 0
-144 -898 0
-143 899 0
-144 -899 900 0
-145 -900 0
-60 901 0
-901 902 0
-104 -901 903 0
-903 904 0
-140 -903 0
-104 902 0
-140 -902 904 0
-141 -904 0
61 905 0
-905 906 0
68 -905 907 0
-907 908 0
98 -907 909 0
-909 910 0
112 -909 911 0
-911 912 0
146 -911 913 0
-913 914 0
147 -913 915 0
-915 916 0
148 -915 0
68 906 0
98 -906 908 0
112 -908 910 0
146 -910 912 0
147 -912 914 0
148 -914 916 0
149 -916 0
-61 917 0
-917 918 0
-68 -917 919 0
-919 920 0
-98 -919 0
-68 918 0
-918 921 0
-98 -918 920 0
-920 922 0
-112 -920 0
-98 921 0
-921 923 0
-112 -921 922 0
-922 924 0
-146 -922 0
-112 923 0
-923 925 0
-146 -923 924 0
-924 926 0
-147 -924 0
-146 925 0
-925 927 0
-147 -925 926 0
-926 928 0
-148 -926 0
-147 927 0
-148 -927 928 0
-149 -928 0
-62 -98 -99 0
65 929 0
-929 930 0
72 -929 931 0
-931 932 0
101 -931 933 0
-933 934 0
116 -933 935 0
-935 936 0
150 -935 937 0
-937 938 0
151 -937 939 0
-939 940 0
152 -939 0
72 930 0
101 -930 932 0
116 -932 934 0
150 -934 936 0
151 -936 938 0
152 -938 940 0
153 -940 0
-65 941 0
-941 942 0
-72 -941 943 0
-943 944 0
-101 -943 0
-72 942 0
-942 945 0
-101 -942 944 0
-944 946 0
-116 -944 0
-101 945 0
-945 947 0
-116 -945 946 0
-946 948 0
-150 -946 0
-116 947 0
-947 949 0
-150 -947 948 0
-948 950 0
-151 -948 0
-150 949 0
-949 951 0
-151 -949 950 0
-950 952 0
-152 -950 0
-151 951 0
-152 -951 952 0
-153 -952 0
69 953 0
-953 954 0
76 -953 955 0
-955 956 0
105 -955 957 0
-957 958 0
120 -957 959 0
-959 960 0
154 -959 961 0
-961 962 0
155 -961 963 0
-963 964 0
156 -963 0
76 954 0
105 -954 956 0
120 -956 958 0
154 -958 960 0
155 -960 962 0
156 -962 964 0
157 -964 0
-69 965 0
-965 966 0
-76 -965 967 0
-967 968 0
-105 -967 0
-76 966 0
-966 969 0
-105 -966 968 0
-968 970 0
-120 -968 0
-105 969 0
-969 971 0
-120 -969 970 0
-970 972 0
-154 -970 0
-120 971 0
-971 973 0
-154 -971 972 0
-972 974 0
-155 -972 0
-154 973 0
-973 975 0
-155 -973 974 0
-974 976 0
-156 -974 0
-155 975 0
-156 -975 976 0
-157 -976 0
73 977 0
-977 978 0
80 -977 979 0
-979 980 0
109 -979 981 0
-981 982 0
124 -981 983 0
-983 984 0
158 -983 985 0
-985 986 0
159 -985 987 0
-987 988 0
160 -987 0
80 978 0
109 -978 980 0
124 -980 982 0
158 -982 984 0
159 -984 986 0
160 -986 988 0
161 -988 0
-73 989 0
-989 990 0
-80 -989 991 0
-991 992 0
-109 -991 0
-80 990 0
-990 993 0
-109 -990 992 0
-992 994 0
-124 -992 0
-109 993 0
-993 995 0
-124 -993 994 0
-994 996 0
-158 -994 0
-124 995 0
-995 997 0
-158 -995 996 0
-996 998 0
-159 -996 0
-158 997 0
-997 999 0
-159 -997 998 0
-998 1000 0
-160 -998 0
-159 999 0
-160 -999 1000 0
-161 -1000 0
77 1001 0
-1001 1002 0
84 -1001 1003 0
-1003 1004 0
113 -1003 1005 0
-1005 1006 0
128 -1005 1007 0
-1007 1008 0
162 -1007 1009 0
-1009 1010 0
163 -1009 1011 0
-1011 1012 0
164 -1011 0
84 1002 0
113 -1002 1004 0
128 -1004 1006 0
162 -1006 1008 0
163 -1008 1010 0
164 -1010 1012 0
165 -1012 0
-77 1013 0
-1013 1014 0
-84 -1013 1015 0
-1015 1016 0
-113 -1015 0
-84 1014 0
-1014 1017 0
-113 -1014 1016 0
-1016 1018 0
-128 -1016 0
-113 1017 0
-1017 1019 0
-128 -1017 1018 0
-1018 1020 0
-162 -1018 0
-128 1019 0
-1019 1021 0
-162 -1019 1020 0
-1020 1022 0
-163 -1020 0
-162 1021 0
-1021 1023 0
-163 -1021 1022 0
-1022 1024 0
-164 -1022 0
-163 1023 0
-164 -1023 1024 0
-165 -1024 0
81 1025 0
-1025 1026 0
88 -1025 1027 0
-1027 1028 0
117 -1027 1029 0
-1029 1030 0
132 -1029 1031 0
-1031 1032 0
166 -1031 1033 0
-1033 1034 0
167 -1033 1035 0
-1035 1036 0
168 -1035 0
88 1026 0
117 -1026 1028 0
132 -1028 1030 0
166 -1030 1032 0
167 -1032 1034 0
168 -1034 1036 0
169 -1036 0
-81 1037 0
-1037 1038 0
-88 -1037 1039 0
-1039 1040 0
-117 -1039 0
-88 1038 0
-1038 1041 0
-117 -1038 1040 0
-1040 1042 0
-132 -1040 0
-117 1041 0
-1041 1043 0
-132 -1041 1042 0
-1042 1044 0
-166 -1042 0
-132 1043 0
-1043 1045 0
-166 -1043 1044 0
-1044 1046 0
-167 -1044 0
-166 1045 0
-1045 1047 0
-167 -1045 1046 0
-1046 1048 0
-168 -1046 0
-167 1047 0
-168 -1047 1048 0
-169 -1048 0
85 1049 0
-1049 1050 0
92 -1049 1051 0
-1051 1052 0
121 -1051 1053 0
-1053 1054 0
136 -1053 1055 0
-1055 1056 0
170 -1055 1057 0
-1057 1058 0
171 -1057 1059 0
-1059 1060 0
172 -1059 0
92 1050 0
121 -1050 1052 0
136 -1052 1054 0
170 -1054 1056 0
171 -1056 1058 0
172 -1058 1060 0
173 -1060 0
-85 1061 0
-1061 1062 0
-92 -1061 1063 0
-1063 1064 0
-121 -1063 0
-92 1062 0
-1062 1065 0
-121 -1062 1064 0
-1064 1066 0
-136 -1064 0
-121 1065 0
-1065 1067 0
-136 -1065 1066 0
-1066 1068 0
-170 -1066 0
-136 1067 0
-1067 1069 0
-170 -1067 1068 0
-1068 1070 0
-171 -1068 0
-170 1069 0
-1069 1071 0
-171 -1069 1070 0
-1070 1072 0
-172 -1070 0
-171 1071 0
-172 -1071 1072 0
-173 -1072 0
-87 -136 -137 0
89 1073 0
-1073 1074 0
95 -1073 1075 0
-1075 1076 0
125 -1075 1077 0
-1077 1078 0
138 -1077 1079 0
-1079 1080 0
174 -1079 1081 0
-1081 1082 0
175 -1081 1083 0
-1083 1084 0
176 -1083 0
95 1074 0
125 -1074 1076 0
138 -1076 1078 0
174 -1078 1080 0
175 -1080 1082 0
176 -1082 1084 0
177 -1084 0
-89 1085 0
-1085 1086 0
-95 -1085 1087 0
-1087 1088 0
-125 -1087 0
-95 1086 0
-1086 1089 0
-125 -1086 1088 0
-1088 1090 0
-138 -1088 0
-125 1089 0
-1089 1091 0
-138 -1089 1090 0
-1090 1092 0
-174 -1090 0
-138 1091 0
-1091 1093 0
-174 -1091 1092 0
-1092 1094 0
-175 -1092 0
-174 1093 0
-1093 1095 0
-175 -1093 1094 0
-1094 1096 0
-176 -1094 0
-175 1095 0
-176 -1095 1096 0
-177 -1096 0
-93 1097 0
-1097 1098 0
-129 -1097 1099 0
-1099 1100 0
-178 -1099 0
-129 1098 0
-178 -1098 1100 0
-179 -1100 0
99 1101 0
-1101 1102 0
106 -1101 1103 0
-1103 1104 0
139 -1103 1105 0
-1105 1106 0
150 -1105 1107 0
-1107 1108 0
184 -1107 1109 0
-1109 1110 0
185 -1109 1111 0
-1111 1112 0
186 -1111 0
106 1102 0
139 -1102 1104 0
150 -1104 1106 0
184 -1106 1108 0
185 -1108 1110 0
186 -1110 1112 0
187 -1112 0
-99 1113 0
-1113 1114 0
-106 -1113 1115 0
-1115 1116 0
-139 -1115 0
-106 1114 0
-1114 1117 0
-139 -1114 1116 0
-1116 1118 0
-150 -1116 0
-139 1117 0
-1117 1119 0
-150 -1117 1118 0
-1118 1120 0
-184 -1118 0
-150 1119 0
-1119 1121 0
-184 -1119 1120 0
-1120 1122 0
-185 -1120 0
-184 1121 0
-1121 1123 0
-185 -1121 1122 0
-1122 1124 0
-186 -1122 0
-185 1123 0
-186 -1123 1124 0
-187 -1124 0
-102 1125 0
-1125 1126 0
-146 -1125 1127 0
-1127 1128 0
-182 -1127 0
-146 1126 0
-182 -1126 1128 0
-183 -1128 0
103 1129 0
-1129 1130 0
110 -1129 1131 0
-1131 1132 0
140 -1131 1133 0
-1133 1134 0
154 -1133 1135 0
-1135 1136 0
188 -1135 1137 0
-1137 1138 0
189 -1137 1139 0
-1139 1140 0
190 -1139 0
110 1130 0
140 -1130 1132 0
154 -1132 1134 0
188 -1134 1136 0
189 -1136 1138 0
190 -1138 1140 0
191 -1140 0
-103 1141 0
-1141 1142 0
-110 -1141 1143 0
-1143 1144 0
-140 -1143 0
-110 1142 0
-1142 1145 0
-140 -1142 1144 0
-1144 1146 0
-154 -1144 0
-140 1145 0
-1145 1147 0
-154 -1145 1146 0
-1146 1148 0
-188 -1146 0
-154 1147 0
-1147 1149 0
-188 -1147 1148 0
-1148 1150 0
-189 -1148 0
-188 1149 0
-1149 1151 0
-189 -1149 1150 0
-1150 1152 0
-190 -1150 0
-189 1151 0
-190 -1151 1152 0
-191 -1152 0
107 1153 0
-1153 1154 0
114 -1153 1155 0
-1155 1156 0
143 -1155 1157 0
-1157 1158 0
158 -1157 1159 0
-1159 1160 0
192 -1159 1161 0
-1161 1162 0
193 -1161 1163 0
-1163 1164 0
194 -1163 0
114 1154 0
143 -1154 1156 0
158 -1156 1158 0
192 -1158 1160 0
193 -1160 1162 0
194 -1162 1164 0
195 -1164 0
-107 1165 0
-1165 1166 0
-114 -1165 1167 0
-1167 1168 0
-143 -1167 0
-114 1166 0
-1166 1169 0
-143 -1166 1168 0
-1168 1170 0
-158 -1168 0
-143 1169 0
-1169 1171 0
-158 -1169 1170 0
-1170 1172 0
-192 -1170 0
-158 1171 0
-1171 1173 0
-192 -1171 1172 0
-1172 1174 0
-193 -1172 0
-192 1173 0
-1173 1175 0
-193 -1173 1174 0
-1174 1176 0
-194 -1174 0
-193 1175 0
-194 -1175 1176 0
-195 -1176 0
111 1177 0
-1177 1178 0
118 -1177 1179 0
-1179 1180 0
147 -1179 1181 0
-1181 1182 0
162 -1181 1183 0
-1183 1184 0
196 -1183 1185 0
-1185 1186 0
197 -1185 1187 0
-1187 1188 0
198 -1187 0
118 1178 0
147 -1178 1180 0
162 -1180 1182 0
196 -1182 1184 0
197 -1184 1186 0
198 -1186 1188 0
199 -1188 0
-111 1189 0
-1189 1190 0
-118 -1189 1191 0
-1191 1192 0
-147 -1191 0
-118 1190 0
-1190 1193 0
-147 -1190 1192 0
-1192 1194 0
-162 -1192 0
-147 1193 0
-1193 1195 0
-162 -1193 1194 0
-1194 1196 0
-196 -1194 0
-162 1195 0
-1195 1197 0
-196 -1195 1196 0
-1196 1198 0
-197 -1196 0
-196 1197 0
-1197 1199 0
-197 -1197 1198 0
-1198 1200 0
-198 -1198 0
-197 1199 0
-198 -1199 1200 0
-199 -1200 0
115 1201 0
-1201 1202 0
122 -1201 1203 0
-1203 1204 0
151 -1203 1205 0
-1205 1206 0
166 -1205 1207 0
-1207 1208 0
200 -1207 1209 0
-1209 1210 0
201 -1209 1211 0
-1211 1212 0
202 -1211 0
122 1202 0
151 -1202 1204 0
166 -1204 1206 0
200 -1206 1208 0
201 -1208 1210 0
202 -1210 1212 0
203 -1212 0
-115 1213 0
-1213 1214 0
-122 -1213 1215 0
-1215 1216 0
-151 -1215 0
-122 1214 0
-1214 1217 0
-151 -1214 1216 0
-1216 1218 0
-166 -1216 0
-151 1217 0
-1217 1219 0
-166 -1217 1218 0
-1218 1220 0
-200 -1218 0
-166 1219 0
-1219 1221 0
-200 -1219 1220 0
-1220 1222 0
-201 -1220 0
-200 1221 0
-1221 1223 0
-201 -1221 1222 0
-1222 1224 0
-202 -1222 0
-201 1223 0
-202 -1223 1224 0
-203 -1224 0
119 1225 0
-1225 1226 0
126 -1225 1227 0
-1227 1228 0
155 -1227 1229 0
-1229 1230 0
170 -1229 1231 0
-1231 1232 0
204 -1231 1233 0
-1233 1234 0
205 -1233 1235 0
-1235 1236 0
206 -1235 0
126 1226 0
155 -1226 1228 0
170 -1228 1230 0
204 -1230 1232 0
205 -1232 1234 0
206 -1234 1236 0
207 -1236 0
-119 1237 0
-1237 1238 0
-126 -1237 1239 0
-1239 1240 0
-155 -1239 0
-126 1238 0
-1238 1241 0
-155 -1238 1240 0
-1240 1242 0
-170 -1240 0
-155 1241 0
-1241 1243 0
-170 -1241 1242 0
-1242 1244 0
-204 -1242 0
-170 1243 0
-1243 1245 0
-204 -1243 1244 0
-1244 1246 0
-205 -1244 0
-204 1245 0
-1245 1247 0
-205 -1245 1246 0
-1246 1248 0
-206 -1246 0
-205 1247 0
-206 -1247 1248 0
-207 -1248 0
123 1249 0
-1249 1250 0
130 -1249 1251 0
-1251 1252 0
159 -1251 1253 0
-1253 1254 0
174 -1253 1255 0
-1255 1256 0
208 -1255 1257 0
-1257 1258 0
209 -1257 1259 0
-1259 1260 0
210 -1259 0
130 1250 0
159 -1250 1252 0
174 -1252 1254 0
208 -1254 1256 0
209 -1256 1258 0
210 -1258 1260 0
211 -1260 0
-123 1261 0
-1261 1262 0
-130 -1261 1263 0
-1263 1264 0
-159 -1263 0
-130 1262 0
-1262 1265 0
-159 -1262 1264 0
-1264 1266 0
-174 -1264 0
-159 1265 0
-1265 1267 0
-174 -1265 1266 0
-1266 1268 0
-208 -1266 0
-174 1267 0
-1267 1269 0
-208 -1267 1268 0
-1268 1270 0
-209 -1268 0
-208 1269 0
-1269 1271 0
-209 -1269 1270 0
-1270 1272 0
-210 -1270 0
-209 1271 0
-210 -1271 1272 0
-211 -1272 0
127 1273 0
-1273 1274 0
134 -1273 1275 0
-1275 1276 0
163 -1275 1277 0
-1277 1278 0
178 -1277 1279 0
-1279 1280 0
212 -1279 1281 0
-1281 1282 0
213 -1281 1283 0
-1283 1284 0
214 -1283 0
134 1274 0
163 -1274 1276 0
178 -1276 1278 0
212 -1278 1280 0
213 -1280 1282 0
214 -1282 1284 0
215 -1284 0
-127 1285 0
-1285 1286 0
-134 -1285 1287 0
-1287 1288 0
-163 -1287 0
-134 1286 0
-1286 1289 0
-163 -1286 1288 0
-1288 1290 0
-178 -1288 0
-163 1289 0
-1289 1291 0
-178 -1289 1290 0
-1290 1292 0
-212 -1290 0
-178 1291 0
-1291 1293 0
-212 -1291 1292 0
-1292 1294 0
-213 -1292 0
-212 1293 0
-1293 1295 0
-213 -1293 1294 0
-1294 1296 0
-214 -1294 0
-213 1295 0
-214 -1295 1296 0
-215 -1296 0
131 1297 0
-1297 1298 0
137 -1297 1299 0
-1299 1300 0
167 -1299 1301 0
-1301 1302 0
180 -1301 1303 0
-1303 1304 0
216 -1303 1305 0
-1305 1306 0
217 -1305 1307 0
-1307 1308 0
218 -1307 0
137 1298 0
167 -1298 1300 0
180 -1300 1302 0
216 -1302 1304 0
217 -1304 1306 0
218 -1306 1308 0
219 -1308 0
-131 1309 0
-1309 1310 0
-137 -1309 1311 0
-1311 1312 0
-167 -1311 0
-137 1310 0
-1310 1313 0
-167 -1310 1312 0
-1312 1314 0
-180 -1312 0
-167 1313 0
-1313 1315 0
-180 -1313 1314 0
-1314 1316 0
-216 -1314 0
-180 1315 0
-1315 1317 0
-216 -1315 1316 0
-1316 1318 0
-217 -1316 0
-216 1317 0
-1317 1319 0
-217 -1317 1318 0
-1318 1320 0
-218 -1318 0
-217 1319 0
-218 -1319 1320 0
-219 -1320 0
-135 1321 0
-1321 1322 0
-171 -1321 1323 0
-1323 1324 0
-220 -1323 0
-171 1322 0
-220 -1322 1324 0
-221 -1324 0
141 1325 0
-1325 1326 0
148 -1325 1327 0
-1327 1328 0
181 -1327 1329 0
-1329 1330 0
192 -1329 1331 0
-1331 1332 0
226 -1331 1333 0
-1333 1334 0
227 -1333 1335 0
-1335 1336 0
228 -1335 0
148 1326 0
181 -1326 1328 0
192 -1328 1330 0
226 -1330 1332 0
227 -1332 1334 0
228 -1334 1336 0
229 -1336 0
-141 1337 0
-1337 1338 0
-148 -1337 1339 0
-1339 1340 0
-181 -1339 0
-148 1338 0
-1338 1341 0
-181 -1338 1340 0
-1340 1342 0
-192 -1340 0
-181 1341 0
-1341 1343 0
-192 -1341 1342 0
-1342 1344 0
-226 -1342 0
-192 1343 0
-1343 1345 0
-226 -1343 1344 0
-1344 1346 0
-227 -1344 0
-226 1345 0
-1345 1347 0
-227 -1345 1346 0
-1346 1348 0
-228 -1346 0
-227 1347 0
-228 -1347 1348 0
-229 -1348 0
-144 1349 0
-1349 1350 0
-188 -1349 1351 0
-1351 1352 0
-224 -1351 0
-188 1350 0
-224 -1350 1352 0
-225 -1352 0
145 1353 0
-1353 1354 0
152 -1353 1355 0
-1355 1356 0
182 -1355 1357 0
-1357 1358 0
196 -1357 1359 0
-1359 1360 0
230 -1359 1361 0
-1361 1362 0
231 -1361 1363 0
-1363 1364 0
232 -1363 0
152 1354 0
182 -1354 1356 0
196 -1356 1358 0
230 -1358 1360 0
231 -1360 1362 0
232 -1362 1364 0
233 -1364 0
-145 1365 0
-1365 1366 0
-152 -1365 1367 0
-1367 1368 0
-182 -1367 0
-152 1366 0
-1366 1369 0
-182 -1366 1368 0
-1368 1370 0
-196 -1368 0
-182 1369 0
-1369 1371 0
-196 -1369 1370 0
-1370 1372 0
-230 -1370 0
-196 1371 0
-1371 1373 0
-230 -1371 1372 0
-1372 1374 0
-231 -1372 0
-230 1373 0
-1373 1375 0
-231 -1373 1374 0
-1374 1376 0
-232 -1374 0
-231 1375 0
-232 -1375 1376 0
-233 -1376 0
149 1377 0
-1377 1378 0
156 -1377 1379 0
-1379 1380 0
185 -1379 1381 0
-1381 1382 0
200 -1381 1383 0
-1383 1384 0
234 -1383 1385 0
-1385 1386 0
235 -1385 1387 0
-1387 1388 0
236 -1387 0
156 1378 0
185 -1378 1380 0
200 -1380 1382 0
234 -1382 1384 0
235 -1384 1386 0
236 -1386 1388 0
237 -1388 0
-149 1389 0
-1389 1390 0
-156 -1389 1391 0
-1391 1392 0
-185 -1391 0
-156 1390 0
-1390 1393 0
-185 -1390 1392 0
-1392 1394 0
-200 -1392 0
-185 1393 0
-1393 1395 0
-200 -1393 1394 0
-1394 1396 0
-234 -1394 0
-200 1395 0
-1395 1397 0
-234 -1395 1396 0
-1396 1398 0
-235 -1396 0
-234 1397 0
-1397 1399 0
-235 -1397 1398 0
-1398 1400 0
-236 -1398 0
-235 1399 0
-236 -1399 1400 0
-237 -1400 0
153 1401 0
-1401 1402 0
160 -1401 1403 0
-1403 1404 0
189 -1403 1405 0
-1405 1406 0
204 -1405 1407 0
-1407 1408 0
238 -1407 1409 0
-1409 1410 0
239 -1409 1411 0
-1411 1412 0
240 -1411 0
160 1402 0
189 -1402 1404 0
204 -1404 1406 0
238 -1406 1408 0
239 -1408 1410 0
240 -1410 1412 0
241 -1412 0
-153 1413 0
-1413 1414 0
-160 -1413 1415 0
-1415 1416 0
-189 -1415 0
-160 1414 0
-1414 1417 0
-189 -1414 1416 0
-1416 1418 0
-204 -1416 0
-189 1417 0
-1417 1419 0
-204 -1417 1418 0
-1418 1420 0
-238 -1418 0
-204 1419 0
-1419 1421 0
-238 -1419 1420 0
-1420 1422 0
-239 -1420 0
-238 1421 0
-1421 1423 0
-239 -1421 1422 0
-1422 1424 0
-240 -1422 0
-239 1423 0
-240 -1423 1424 0
-241 -1424 0
157 1425 0
-1425 1426 0
164 -1425 1427 0
-1427 1428 0
193 -1427 1429 0
-1429 1430 0
208 -1429 1431 0
-1431 1432 0
242 -1431 1433 0
-1433 1434 0
243 -1433 1435 0
-1435 1436 0
244 -1435 0
164 1426 0
193 -1426 1428 0
208 -1428 1430 0
242 -1430 1432 0
243 -1432 1434 0
244 -1434 1436 0
245 -1436 0
-157 1437 0
-1437 1438 0
-164 -1437 1439 0
-1439 1440 0
-193 -1439 0
-164 1438 0
-1438 1441 0
-193 -1438 1440 0
-1440 1442 0
-208 -1440 0
-193 1441 0
-1441 1443 0
-208 -1441 1442 0
-1442 1444 0
-242 -1442 0
-208 1443 0
-1443 1445 0
-242 -1443 1444 0
-1444 1446 0
-243 -1444 0
-242 1445 0
-1445 1447 0
-243 -1445 1446 0
-1446 1448 0
-244 -1446 0
-243 1447 0
-244 -1447 1448 0
-245 -1448 0
161 1449 0
-1449 1450 0
168 -1449 1451 0
-1451 1452 0
197 -1451 1453 0
-1453 1454 0
212 -1453 1455 0
-1455 1456 0
246 -1455 1457 0
-1457 1458 0
247 -1457 1459 0
-1459 1460 0
248 -1459 0
168 1450 0
197 -1450 1452 0
212 -1452 1454 0
246 -1454 1456 0
247 -1456 1458 0
248 -1458 1460 0
249 -1460 0
-161 1461 0
-1461 1462 0
-168 -1461 1463 0
-1463 1464 0
-197 -1463 0
-168 1462 0
-1462 1465 0
-197 -1462 1464 0
-1464 1466 0
-212 -1464 0
-197 1465 0
-1465 1467 0
-212 -1465 1466 0
-1466 1468 0
-246 -1466 0
-212 1467 0
-1467 1469 0
-246 -1467 1468 0
-1468 1470 0
-247 -1468 0
-246 1469 0
-1469 1471 0
-247 -1469 1470 0
-1470 1472 0
-248 -1470 0
-247 1471 0
-248 -1471 1472 0
-249 -1472 0
165 1473 0
-1473 1474 0
172 -1473 1475 0
-1475 1476 0
201 -1475 1477 0
-1477 1478 0
216 -1477 1479 0
-1479 1480 0
250 -1479 1481 0
-1481 1482 0
251 -1481 1483 0
-1483 1484 0
252 -1483 0
172 1474 0
201 -1474 1476 0
216 -1476 1478 0
250 -1478 1480 0
251 -1480 1482 0
252 -1482 1484 0
253 -1484 0
-165 1485 0
-1485 1486 0
-172 -1485 1487 0
-1487 1488 0
-201 -1487 0
-172 1486 0
-1486 1489 0
-201 -1486 1488 0
-1488 1490 0
-216 -1488 0
-201 1489 0
-1489 1491 0
-216 -1489 1490 0
-1490 1492 0
-250 -1490 0
-216 1491 0
-1491 1493 0
-250 -1491 1492 0
-1492 1494 0
-251 -1492 0
-250 1493 0
-1493 1495 0
-251 -1493 1494 0
-1494 1496 0
-252 -1494 0
-251 1495 0
-252 -1495 1496 0
-253 -1496 0
169 1497 0
-1497 1498 0
176 -1497 1499 0
-1499 1500 0
205 -1499 1501 0
-1501 1502 0
220 -1501 1503 0
-1503 1504 0
254 -1503 1505 0
-1505 1506 0
255 -1505 1507 0
-1507 1508 0
256 -1507 0
176 1498 0
205 -1498 1500 0
220 -1500 1502 0
254 -1502 1504 0
255 -1504 1506 0
256 -1506 1508 0
257 -1508 0
-169 1509 0
-1509 1510 0
-176 -1509 1511 0
-1511 1512 0
-205 -1511 0
-176 1510 0
-1510 1513 0
-205 -1510 1512 0
-1512 1514 0
-220 -1512 0
-205 1513 0
-1513 1515 0
-220 -1513 1514 0
-1514 1516 0
-254 -1514 0
-220 1515 0
-1515 1517 0
-254 -1515 1516 0
-1516 1518 0
-255 -1516 0
-254 1517 0
-1517 1519 0
-255 -1517 1518 0
-1518 1520 0
-256 -1518 0
-255 1519 0
-256 -1519 1520 0
-257 -1520 0
173 1521 0
-1521 1522 0
179 -1521 1523 0
-1523 1524 0
209 -1523 1525 0
-1525 1526 0
222 -1525 1527 0
-1527 1528 0
258 -1527 1529 0
-1529 1530 0
259 -1529 1531 0
-1531 1532 0
260 -1531 0
179 1522 0
209 -1522 1524 0
222 -1524 1526 0
258 -1526 1528 0
259 -1528 1530 0
260 -1530 1532 0
261 -1532 0
-173 1533 0
-1533 1534 0
-179 -1533 1535 0
-1535 1536 0
-209 -1535 0
-179 1534 0
-1534 1537 0
-209 -1534 1536 0
-1536 1538 0
-222 -1536 0
-209 1537 0
-1537 1539 0
-222 -1537 1538 0
-1538 1540 0
-258 -1538 0
-222 1539 0
-1539 1541 0
-258 -1539 1540 0
-1540 1542 0
-259 -1540 0
-258 1541 0
-1541 1543 0
-259 -1541 1542 0
-1542 1544 0
-260 -1542 0
-259 1543 0
-260 -1543 1544 0
-261 -1544 0
-177 1545 0
-1545 1546 0
-213 -1545 1547 0
-1547 1548 0
-262 -1547 0
-213 1546 0
-262 -1546 1548 0
-263 -1548 0
183 1549 0
-1549 1550 0
190 -1549 1551 0
-1551 1552 0
223 -1551 1553 0
-1553 1554 0
234 -1553 1555 0
-1555 1556 0
268 -1555 1557 0
-1557 1558 0
269 -1557 1559 0
-1559 1560 0
270 -1559 0
190 1550 0
223 -1550 1552 0
234 -1552 1554 0
268 -1554 1556 0
269 -1556 1558 0
270 -1558 1560 0
271 -1560 0
-183 1561 0
-1561 1562 0
-190 -1561 1563 0
-1563 1564 0
-223 -1563 0
-190 1562 0
-1562 1565 0
-223 -1562 1564 0
-1564 1566 0
-234 -1564 0
-223 1565 0
-1565 1567 0
-234 -1565 1566 0
-1566 1568 0
-268 -1566 0
-234 1567 0
-1567 1569 0
-268 -1567 1568 0
-1568 1570 0
-269 -1568 0
-268 1569 0
-1569 1571 0
-269 -1569 1570 0
-1570 1572 0
-270 -1570 0
-269 1571 0
-270 -1571 1572 0
-271 -1572 0
-186 1573 0
-1573 1574 0
-230 -1573 1575 0
-1575 1576 0
-266 -1575 0
-230 1574 0
-266 -1574 1576 0
-267 -1576 0
187 1577 0
-1577 1578 0
194 -1577 1579 0
-1579 1580 0
224 -1579 1581 0
-1581 1582 0
238 -1581 1583 0
-1583 1584 0
272 -1583 1585 0
-1585 1586 0
273 -1585 1587 0
-1587 1588 0
274 -1587 0
194 1578 0
224 -1578 1580 0
238 -1580 1582 0
272 -1582 1584 0
273 -1584 1586 0
274 -1586 1588 0
275 -1588 0
-187 1589 0
-1589 1590 0
-194 -1589 1591 0
-1591 1592 0
-224 -1591 0
-194 1590 0
-1590 1593 0
-224 -1590 1592 0
-1592 1594 0
-238 -1592 0
-224 1593 0
-1593 1595 0
-238 -1593 1594 0
-1594 1596 0
-272 -1594 0
-238 1595 0
-1595 1597 0
-272 -1595 1596 0
-1596 1598 0
-273 -1596 0
-272 1597 0
-1597 1599 0
-273 -1597 1598 0
-1598 1600 0
-274 -1598 0
-273 1599 0
-274 -1599 1600 0
-275 -1600 0
191 1601 0
-1601 1602 0
198 -1601 1603 0
-1603 1604 0
227 -1603 1605 0
-1605 1606 0
242 -1605 1607 0
-1607 1608 0
276 -1607 1609 0
-1609 1610 0
277 -1609 1611 0
-1611 1612 0
278 -1611 0
198 1602 0
227 -1602 1604 0
242 -1604 1606 0
276 -1606 1608 0
277 -1608 1610 0
278 -1610 1612 0
279 -1612 0
-191 1613 0
-1613 1614 0
-198 -1613 1615 0
-1615 1616 0
-227 -1615 0
-198 1614 0
-1614 1617 0
-227 -1614 1616 0
-1616 1618 0
-242 -1616 0
-227 1617 0
-1617 1619 0
-242 -1617 1618 0
-1618 1620 0
-276 -1618 0
-242 1619 0
-1619 1621 0
-276 -1619 1620 0
-1620 1622 0
-277 -1620 0
-276 1621 0
-1621 1623 0
-277 -1621 1622 0
-1622 1624 0
-278 -1622 0
-277 1623 0
-278 -1623 1624 0
-279 -1624 0
195 1625 0
-1625 1626 0
202 -1625 1627 0
-1627 1628 0
231 -1627 1629 0
-1629 1630 0
246 -1629 1631 0
-1631 1632 0
280 -1631 1633 0
-1633 1634 0
281 -1633 1635 0
-1635 1636 0
282 -1635 0
202 1626 0
231 -1626 1628 0
246 -1628 1630 0
280 -1630 1632 0
281 -1632 1634 0
282 -1634 1636 0
283 -1636 0
-195 1637 0
-1637 1638 0
-202 -1637 1639 0
-1639 1640 0
-231 -1639 0
-202 1638 0
-1638 1641 0
-231 -1638 1640 0
-1640 1642 0
-246 -1640 0
-231 1641 0
-1641 1643 0
-246 -1641 1642 0
-1642 1644 0
-280 -1642 0
-246 1643 0
-1643 1645 0
-280 -1643 1644 0
-1644 1646 0
-281 -1644 0
-280 1645 0
-1645 1647 0
-281 -1645 1646 0
-1646 1648 0
-282 -1646 0
-281 1647 0
-282 -1647 1648 0
-283 -1648 0
199 1649 0
-1649 1650 0
206 -1649 1651 0
-1651 1652 0
235 -1651 1653 0
-1653 1654 0
250 -1653 1655 0
-1655 1656 0
284 -1655 1657 0
-1657 1658 0
285 -1657 1659 0
-1659 1660 0
286 -1659 0
206 1650 0
235 -1650 1652 0
250 -1652 1654 0
284 -1654 1656 0
285 -1656 1658 0
286 -1658 1660 0
287 -1660 0
-199 1661 0
-1661 1662 0
-206 -1661 1663 0
-1663 1664 0
-235 -1663 0
-206 1662 0
-1662 1665 0
-235 -1662 1664 0
-1664 1666 0
-250 -1664 0
-235 1665 0
-1665 1667 0
-250 -1665 1666 0
-1666 1668 0
-284 -1666 0
-250 1667 0
-1667 1669 0
-284 -1667 1668 0
-1668 1670 0
-285 -1668 0
-284 1669 0
-1669 1671 0
-285 -1669 1670 0
-1670 1672 0
-286 -1670 0
-285 1671 0
-286 -1671 1672 0
-287 -1672 0
203 1673 0
-1673 1674 0
210 -1673 1675 0
-1675 1676 0
239 -1675 1677 0
-1677 1678 0
254 -1677 1679 0
-1679 1680 0
288 -1679 1681 0
-1681 1682 0
289 -1681 1683 0
-1683 1684 0
290 -1683 0
210 1674 0
239 -1674 1676 0
254 -1676 1678 0
288 -1678 1680 0
289 -1680 1682 0
290 -1682 1684 0
291 -1684 0
-203 1685 0
-1685 1686 0
-210 -1685 1687 0
-1687 1688 0
-239 -1687 0
-210 1686 0
-1686 1689 0
-239 -1686 1688 0
-1688 1690 0
-254 -1688 0
-239 1689 0
-1689 1691 0
-254 -1689 1690 0
-1690 1692 0
-288 -1690 0
-254 1691 0
-1691 1693 0
-288 -1691 1692 0
-1692 1694 0
-289 -1692 0
-288 1693 0
-1693 1695 0
-289 -1693 1694 0
-1694 1696 0
-290 -1694 0
-289 1695 0
-290 -1695 1696 0
-291 -1696 0
207 1697 0
-1697 1698 0
214 -1697 1699 0
-1699 1700 0
243 -1699 1701 0
-1701 1702 0
258 -1701 1703 0
-1703 1704 0
292 -1703 1705 0
-1705 1706 0
293 -1705 1707 0
-1707 1708 0
294 -1707 0
214 1698 0
243 -1698 1700 0
258 -1700 1702 0
292 -1702 1704 0
293 -1704 1706 0
294 -1706 1708 0
295 -1708 0
-207 1709 0
-1709 1710 0
-214 -1709 1711 0
-1711 1712 0
-243 -1711 0
-214 1710 0
-1710 1713 0
-243 -1710 1712 0
-1712 1714 0
-258 -1712 0
-243 1713 0
-1713 1715 0
-258 -1713 1714 0
-1714 1716 0
-292 -1714 0
-258 1715 0
-1715 1717 0
-292 -1715 1716 0
-1716 1718 0
-293 -1716 0
-292 1717 0
-1717 1719 0
-293 -1717 1718 0
-1718 1720 0
-294 -1718 0
-293 1719 0
-294 -1719 1720 0
-295 -1720 0
211 1721 0
-1721 1722 0
218 -1721 1723 0
-1723 1724 0
247 -1723 1725 0
-1725 1726 0
262 -1725 1727 0
-1727 1728 0
296 -1727 1729 0
-1729 1730 0
297 -1729 1731 0
-1731 1732 0
298 -1731 0
218 1722 0
247 -1722 1724 0
262 -1724 1726 0
296 -1726 1728 0
297 -1728 1730 0
298 -1730 1732 0
299 -1732 0
-211 1733 0
-1733 1734 0
-218 -1733 1735 0
-1735 1736 0
-247 -1735 0
-218 1734 0
-1734 1737 0
-247 -1734 1736 0
-1736 1738 0
-262 -1736 0
-247 1737 0
-1737 1739 0
-262 -1737 1738 0
-1738 1740 0
-296 -1738 0
-262 1739 0
-1739 1741 0
-296 -1739 1740 0
-1740 1742 0
-297 -1740 0
-296 1741 0
-1741 1743 0
-297 -1741 1742 0
-1742 1744 0
-298 -1742 0
-297 1743 0
-298 -1743 1744 0
-299 -1744 0
215 1745 0
-1745 1746 0
221 -1745 1747 0
-1747 1748 0
251 -1747 1749 0
-1749 1750 0
264 -1749 1751 0
-1751 1752 0
300 -1751 1753 0
-1753 1754 0
301 -1753 1755 0
-1755 1756 0
302 -1755 0
221 1746 0
251 -1746 1748 0
264 -1748 1750 0
300 -1750 1752 0
301 -1752 1754 0
302 -1754 1756 0
303 -1756 0
-215 1757 0
-1757 1758 0
-221 -1757 1759 0
-1759 1760 0
-251 -1759 0
-221 1758 0
-1758 1761 0
-251 -1758 1760 0
-1760 1762 0
-264 -1760 0
-251 1761 0
-1761 1763 0
-264 -1761 1762 0
-1762 1764 0
-300 -1762 0
-264 1763 0
-1763 1765 0
-300 -1763 1764 0
-1764 1766 0
-301 -1764 0
-300 1765 0
-1765 1767 0
-301 -1765 1766 0
-1766 1768 0
-302 -1766 0
-301 1767 0
-302 -1767 1768 0
-303 -1768 0
-219 1769 0
-1769 1770 0
-255 -1769 1771 0
-1771 1772 0
-304 -1771 0
-255 1770 0
-304 -1770 1772 0
-305 -1772 0
225 1773 0
-1773 1774 0
232 -1773 1775 0
-1775 1776 0
265 -1775 1777 0
-1777 1778 0
276 -1777 1779 0
-1779 1780 0
310 -1779 1781 0
-1781 1782 0
311 -1781 1783 0
-1783 1784 0
312 -1783 0
232 1774 0
265 -1774 1776 0
276 -1776 1778 0
310 -1778 1780 0
311 -1780 1782 0
312 -1782 1784 0
313 -1784 0
-225 1785 0
-1785 1786 0
-232 -1785 1787 0
-1787 1788 0
-265 -1787 0
-232 1786 0
-1786 1789 0
-265 -1786 1788 0
-1788 1790 0
-276 -1788 0
-265 1789 0
-1789 1791 0
-276 -1789 1790 0
-1790 1792 0
-310 -1790 0
-276 1791 0
-1791 1793 0
-310 -1791 1792 0
-1792 1794 0
-311 -1792 0
-310 1793 0
-1793 1795 0
-311 -1793 1794 0
-1794 1796 0
-312 -1794 0
-311 1795 0
-312 -1795 1796 0
-313 -1796 0
-228 1797 0
-1797 1798 0
-272 -1797 1799 0
-1799 1800 0
-308 -1799 0
-272 1798 0
-308 -1798 1800 0
-309 -1800 0
229 1801 0
-1801 1802 0
236 -1801 1803 0
-1803 1804 0
266 -1803 1805 0
-1805 1806 0
280 -1805 1807 0
-1807 1808 0
314 -1807 1809 0
-1809 1810 0
315 -1809 1811 0
-1811 1812 0
316 -1811 0
236 1802 0
266 -1802 1804 0
280 -1804 1806 0
314 -1806 1808 0
315 -1808 1810 0
316 -1810 1812 0
317 -1812 0
-229 1813 0
-1813 1814 0
-236 -1813 1815 0
-1815 1816 0
-266 -1815 0
-236 1814 0
-1814 1817 0
-266 -1814 1816 0
-1816 1818 0
-280 -1816 0
-266 1817 0
-1817 1819 0
-280 -1817 1818 0
-1818 1820 0
-314 -1818 0
-280 1819 0
-1819 1821 0
-314 -1819 1820 0
-1820 1822 0
-315 -1820 0
-314 1821 0
-1821 1823 0
-315 -1821 1822 0
-1822 1824 0
-316 -1822 0
-315 1823 0
-316 -1823 1824 0
-317 -1824 0
233 1825 0
-1825 1826 0
240 -1825 1827 0
-1827 1828 0
269 -1827 1829 0
-1829 1830 0
284 -1829 1831 0
-1831 1832 0
318 -1831 1833 0
-1833 1834 0
319 -1833 1835 0
-1835 1836 0
320 -1835 0
240 1826 0
269 -1826 1828 0
284 -1828 1830 0
318 -1830 1832 0
319 -1832 1834 0
320 -1834 1836 0
321 -1836 0
-233 1837 0
-1837 1838 0
-240 -1837 1839 0
-1839 1840 0
-269 -1839 0
-240 1838 0
-1838 1841 0
-269 -1838 1840 0
-1840 1842 0
-284 -1840 0
-269 1841 0
-1841 1843 0
-284 -1841 1842 0
-1842 1844 0
-318 -1842 0
-284 1843 0
-1843 1845 0
-318 -1843 1844 0
-1844 1846 0
-319 -1844 0
-318 1845 0
-1845 1847 0
-319 -1845 1846 0
-1846 1848 0
-320 -1846 0
-319 1847 0
-320 -1847 1848 0
-321 -1848 0
237 1849 0
-1849 1850 0
244 -1849 1851 0
-1851 1852 0
273 -1851 1853 0
-1853 1854 0
288 -1853 1855 0
-1855 1856 0
322 -1855 1857 0
-1857 1858 0
323 -1857 1859 0
-1859 1860 0
324 -1859 0
244 1850 0
273 -1850 1852 0
288 -1852 1854 0
322 -1854 1856 0
323 -1856 1858 0
324 -1858 1860 0
325 -1860 0
-237 1861 0
-1861 1862 0
-244 -1861 1863 0
-1863 1864 0
-273 -1863 0
-244 1862 0
-1862 1865 0
-273 -1862 1864 0
-1864 1866 0
-288 -1864 0
-273 1865 0
-1865 1867 0
-288 -1865 1866 0
-1866 1868 0
-322 -1866 0
-288 1867 0
-1867 1869 0
-322 -1867 1868 0
-1868 1870 0
-323 -1868 0
-322 1869 0
-1869 1871 0
-323 -1869 1870 0
-1870 1872 0
-324 -1870 0
-323 1871 0
-324 -1871 1872 0
-325 -1872 0
241 1873 0
-1873 1874 0
248 -1873 1875 0
-1875 1876 0
277 -1875 1877 0
-1877 1878 0
292 -1877 1879 0
-1879 1880 0
326 -1879 1881 0
-1881 1882 0
327 -1881 1883 0
-1883 1884 0
328 -1883 0
248 1874 0
277 -1874 1876 0
292 -1876 1878 0
326 -1878 1880 0
327 -1880 1882 0
328 -1882 1884 0
329 -1884 0
-241 1885 0
-1885 1886 0
-248 -1885 1887 0
-1887 1888 0
-277 -1887 0
-248 1886 0
-1886 1889 0
-277 -1886 1888 0
-1888 1890 0
-292 -1888 0
-277 1889 0
-1889 1891 0
-292 -1889 1890 0
-1890 1892 0
-326 -1890 0
-292 1891 0
-1891 1893 0
-326 -1891 1892 0
-1892 1894 0
-327 -1892 0
-326 1893 0
-1893 1895 0
-327 -1893 1894 0
-1894 1896 0
-328 -1894 0
-327 1895 0
-328 -1895 1896 0
-329 -1896 0
245 1897 0
-1897 1898 0
252 -1897 1899 0
-1899 1900 0
281 -1899 1901 0
-1901 1902 0
296 -1901 1903 0
-1903 1904 0
330 -1903 1905 0
-1905 1906 0
331 -1905 1907 0
-1907 1908 0
332 -1907 0
252 1898 0
281 -1898 1900 0
296 -1900 1902 0
330 -1902 1904 0
331 -1904 1906 0
332 -1906 1908 0
333 -1908 0
-245 1909 0
-1909 1910 0
-252 -1909 1911 0
-1911 1912 0
-281 -1911 0
-252 1910 0
-1910 1913 0
-281 -1910 1912 0
-1912 1914 0
-296 -1912 0
-281 1913 0
-1913 1915 0
-296 -1913 1914 0
-1914 1916 0
-330 -1914 0
-296 1915 0
-1915 1917 0
-330 -1915 1916 0
-1916 1918 0
-331 -1916 0
-330 1917 0
-1917 1919 0
-331 -1917 1918 0
-1918 1920 0
-332 -1918 0
-331 1919 0
-332 -1919 1920 0
-333 -1920 0
249 1921 0
-1921 1922 0
256 -1921 1923 0
-1923 1924 0
285 -1923 1925 0
-1925 1926 0
300 -1925 1927 0
-1927 1928 0
334 -1927 1929 0
-1929 1930 0
335 -1929 1931 0
-1931 1932 0
336 -1931 0
256 1922 0
285 -1922 1924 0
300 -1924 1926 0
334 -1926 1928 0
335 -1928 1930 0
336 -1930 1932 0
337 -1932 0
-249 1933 0
-1933 1934 0
-256 -1933 1935 0
-1935 1936 0
-285 -1935 0
-256 1934 0
-1934 1937 0
-285 -1934 1936 0
-1936 1938 0
-300 -1936 0
-285 1937 0
-1937 1939 0
-300 -1937 1938 0
-1938 1940 0
-334 -1938 0
-300 1939 0
-1939 1941 0
-334 -1939 1940 0
-1940 1942 0
-335 -1940 0
-334 1941 0
-1941 1943 0
-335 -1941 1942 0
-1942 1944 0
-336 -1942 0
-335 1943 0
-336 -1943 1944 0
-337 -1944 0
253 1945 0
-1945 1946 0
260 -1945 1947 0
-1947 1948 0
289 -1947 1949 0
-1949 1950 0
304 -1949 1951 0
-1951 1952 0
338 -1951 1953 0
-1953 1954 0
339 -1953 1955 0
-1955 1956 0
340 -1955 0
260 1946 0
289 -1946 1948 0
304 -1948 1950 0
338 -1950 1952 0
339 -1952 1954 0
340 -1954 1956 0
341 -1956 0
-253 1957 0
-1957 1958 0
-260 -1957 1959 0
-1959 1960 0
-289 -1959 0
-260 1958 0
-1958 1961 0
-289 -1958 1960 0
-1960 1962 0
-304 -1960 0
-289 1961 0
-1961 1963 0
-304 -1961 1962 0
-1962 1964 0
-338 -1962 0
-304 1963 0
-1963 1965 0
-338 -1963 1964 0
-1964 1966 0
-339 -1964 0
-338 1965 0
-1965 1967 0
-339 -1965 1966 0
-1966 1968 0
-340 -1966 0
-339 1967 0
-340 -1967 1968 0
-341 -1968 0
257 1969 0
-1969 1970 0
263 -1969 1971 0
-1971 1972 0
293 -1971 1973 0
-1973 1974 0
306 -1973 1975 0
-1975 1976 0
342 -1975 1977 0
-1977 1978 0
343 -1977 1979 0
-1979 1980 0
344 -1979 0
263 1970 0
293 -1970 1972 0
306 -1972 1974 0
342 -1974 1976 0
343 -1976 1978 0
344 -1978 1980 0
345 -1980 0
-257 1981 0
-1981 1982 0
-263 -1981 1983 0
-1983 1984 0
-293 -1983 0
-263 1982 0
-1982 1985 0
-293 -1982 1984 0
-1984 1986 0
-306 -1984 0
-293 1985 0
-1985 1987 0
-306 -1985 1986 0
-1986 1988 0
-342 -1986 0
-306 1987 0
-1987 1989 0
-342 -1987 1988 0
-1988 1990 0
-343 -1988 0
-342 1989 0
-1989 1991 0
-343 -1989 1990 0
-1990 1992 0
-344 -1990 0
-343 1991 0
-344 -1991 1992 0
-345 -1992 0
-261 1993 0
-1993 1994 0
-297 -1993 1995 0
-1995 1996 0
-346 -1995 0
-297 1994 0
-346 -1994 1996 0
-347 -1996 0
267 1997 0
-1997 1998 0
274 -1997 1999 0
-1999 2000 0
307 -1999 2001 0
-2001 2002 0
318 -2001 2003 0
-2003 2004 0
351 -2003 2005 0
-2005 2006 0
352 -2005 2007 0
-2007 2008 0
353 -2007 0
274 1998 0
307 -1998 2000 0
318 -2000 2002 0
351 -2002 2004 0
352 -2004 2006 0
353 -2006 2008 0
354 -2008 0
-267 2009 0
-2009 2010 0
-274 -2009 2011 0
-2011 2012 0
-307 -2011 0
-274 2010 0
-2010 2013 0
-307 -2010 2012 0
-2012 2014 0
-318 -2012 0
-307 2013 0
-2013 2015 0
-318 -2013 2014 0
-2014 2016 0
-351 -2014 0
-318 2015 0
-2015 2017 0
-351 -2015 2016 0
-2016 2018 0
-352 -2016 0
-351 2017 0
-2017 2019 0
-352 -2017 2018 0
-2018 2020 0
-353 -2018 0
-352 2019 0
-353 -2019 2020 0
-354 -2020 0
-270 -314 -350 0
271 2021 0
-2021 2022 0
278 -2021 2023 0
-2023 2024 0
308 -2023 2025 0
-2025 2026 0
322 -2025 2027 0
-2027 2028 0
355 -2027 2029 0
-2029 2030 0
356 -2029 2031 0
-2031 2032 0
357 -2031 0
278 2022 0
308 -2022 2024 0
322 -2024 2026 0
355 -2026 2028 0
356 -2028 2030 0
357 -2030 2032 0
358 -2032 0
-271 2033 0
-2033 2034 0
-278 -2033 2035 0
-2035 2036 0
-308 -2035 0
-278 2034 0
-2034 2037 0
-308 -2034 2036 0
-2036 2038 0
-322 -2036 0
-308 2037 0
-2037 2039 0
-322 -2037 2038 0
-2038 2040 0
-355 -2038 0
-322 2039 0
-2039 2041 0
-355 -2039 2040 0
-2040 2042 0
-356 -2040 0
-355 2041 0
-2041 2043 0
-356 -2041 2042 0
-2042 2044 0
-357 -2042 0
-356 2043 0
-357 -2043 2044 0
-358 -2044 0
275 2045 0
-2045 2046 0
282 -2045 2047 0
-2047 2048 0
311 -2047 2049 0
-2049 2050 0
326 -2049 2051 0
-2051 2052 0
359 -2051 2053 0
-2053 2054 0
360 -2053 2055 0
-2055 2056 0
361 -2055 0
282 2046 0
311 -2046 2048 0
326 -2048 2050 0
359 -2050 2052 0
360 -2052 2054 0
361 -2054 2056 0
362 -2056 0
-275 2057 0
-2057 2058 0
-282 -2057 2059 0
-2059 2060 0
-311 -2059 0
-282 2058 0
-2058 2061 0
-311 -2058 2060 0
-2060 2062 0
-326 -2060 0
-311 2061 0
-2061 2063 0
-326 -2061 2062 0
-2062 2064 0
-359 -2062 0
-326 2063 0
-2063 2065 0
-359 -2063 2064 0
-2064 2066 0
-360 -2064 0
-359 2065 0
-2065 2067 0
-360 -2065 2066 0
-2066 2068 0
-361 -2066 0
-360 2067 0
-361 -2067 2068 0
-362 -2068 0
279 2069 0
-2069 2070 0
286 -2069 2071 0
-2071 2072 0
315 -2071 2073 0
-2073 2074 0
330 -2073 2075 0
-2075 2076 0
363 -2075 2077 0
-2077 2078 0
364 -2077 2079 0
-2079 2080 0
365 -2079 0
286 2070 0
315 -2070 2072 0
330 -2072 2074 0
363 -2074 2076 0
364 -2076 2078 0
365 -2078 2080 0
366 -2080 0
-279 2081 0
-2081 2082 0
-286 -2081 2083 0
-2083 2084 0
-315 -2083 0
-286 2082 0
-2082 2085 0
-315 -2082 2084 0
-2084 2086 0
-330 -2084 0
-315 2085 0
-2085 2087 0
-330 -2085 2086 0
-2086 2088 0
-363 -2086 0
-330 2087 0
-2087 2089 0
-363 -2087 2088 0
-2088 2090 0
-364 -2088 0
-363 2089 0
-2089 2091 0
-364 -2089 2090 0
-2090 2092 0
-365 -2090 0
-364 2091 0
-365 -2091 2092 0
-366 -2092 0
283 2093 0
-2093 2094 0
290 -2093 2095 0
-2095 2096 0
319 -2095 2097 0
-2097 2098 0
334 -2097 2099 0
-2099 2100 0
367 -2099 2101 0
-2101 2102 0
368 -2101 2103 0
-2103 2104 0
369 -2103 0
290 2094 0
319 -2094 2096 0
334 -2096 2098 0
367 -2098 2100 0
368 -2100 2102 0
369 -2102 2104 0
370 -2104 0
-283 2105 0
-2105 2106 0
-290 -2105 2107 0
-2107 2108 0
-319 -2107 0
-290 2106 0
-2106 2109 0
-319 -2106 2108 0
-2108 2110 0
-334 -2108 0
-319 2109 0
-2109 2111 0
-334 -2109 2110 0
-2110 2112 0
-367 -2110 0
-334 2111 0
-2111 2113 0
-367 -2111 2112 0
-2112 2114 0
-368 -2112 0
-367 2113 0
-2113 2115 0
-368 -2113 2114 0
-2114 2116 0
-369 -2114 0
-368 2115 0
-369 -2115 2116 0
-370 -2116 0
287 2117 0
-2117 2118 0
294 -2117 2119 0
-2119 2120 0
323 -2119 2121 0
-2121 2122 0
338 -2121 2123 0
-2123 2124 0
371 -2123 2125 0
-2125 2126 0
372 -2125 2127 0
-2127 2128 0
373 -2127 0
294 2118 0
323 -2118 2120 0
338 -2120 2122 0
371 -2122 2124 0
372 -2124 2126 0
373 -2126 2128 0
374 -2128 0
-287 2129 0
-2129 2130 0
-294 -2129 2131 0
-2131 2132 0
-323 -2131 0
-294 2130 0
-2130 2133 0
-323 -2130 2132 0
-2132 2134 0
-338 -2132 0
-323 2133 0
-2133 2135 0
-338 -2133 2134 0
-2134 2136 0
-371 -2134 0
-338 2135 0
-2135 2137 0
-371 -2135 2136 0
-2136 2138 0
-372 -2136 0
-371 2137 0
-2137 2139 0
-372 -2137 2138 0
-2138 2140 0
-373 -2138 0
-372 2139 0
-373 -2139 2140 0
-374 -2140 0
291 2141 0
-2141 2142 0
298 -2141 2143 0
-2143 2144 0
327 -2143 2145 0
-2145 2146 0
342 -2145 2147 0
-2147 2148 0
375 -2147 2149 0
-2149 2150 0
376 -2149 2151 0
-2151 2152 0
377 -2151 0
298 2142 0
327 -2142 2144 0
342 -2144 2146 0
375 -2146 2148 0
376 -2148 2150 0
377 -2150 2152 0
378 -2152 0
-291 2153 0
-2153 2154 0
-298 -2153 2155 0
-2155 2156 0
-327 -2155 0
-298 2154 0
-2154 2157 0
-327 -2154 2156 0
-2156 2158 0
-342 -2156 0
-327 2157 0
-2157 2159 0
-342 -2157 2158 0
-2158 2160 0
-375 -2158 0
-342 2159 0
-2159 2161 0
-375 -2159 2160 0
-2160 2162 0
-376 -2160 0
-375 2161 0
-2161 2163 0
-376 -2161 2162 0
-2162 2164 0
-377 -2162 0
-376 2163 0
-377 -2163 2164 0
-378 -2164 0
295 2165 0
-2165 2166 0
302 -2165 2167 0
-2167 2168 0
331 -2167 2169 0
-2169 2170 0
346 -2169 2171 0
-2171 2172 0
379 -2171 2173 0
-2173 2174 0
380 -2173 2175 0
-2175 2176 0
381 -2175 0
302 2166 0
331 -2166 2168 0
346 -2168 2170 0
379 -2170 2172 0
380 -2172 2174 0
381 -2174 2176 0
382 -2176 0
-295 2177 0
-2177 2178 0
-302 -2177 2179 0
-2179 2180 0
-331 -2179 0
-302 2178 0
-2178 2181 0
-331 -2178 2180 0
-2180 2182 0
-346 -2180 0
-331 2181 0
-2181 2183 0
-346 -2181 2182 0
-2182 2184 0
-379 -2182 0
-346 2183 0
-2183 2185 0
-379 -2183 2184 0
-2184 2186 0
-380 -2184 0
-379 2185 0
-2185 2187 0
-380 -2185 2186 0
-2186 2188 0
-381 -2186 0
-380 2187 0
-381 -2187 2188 0
-382 -2188 0
299 2189 0
-2189 2190 0
305 -2189 2191 0
-2191 2192 0
335 -2191 2193 0
-2193 2194 0
348 -2193 2195 0
-2195 2196 0
383 -2195 2197 0
-2197 2198 0
384 -2197 2199 0
-2199 2200 0
385 -2199 0
305 2190 0
335 -2190 2192 0
348 -2192 2194 0
383 -2194 2196 0
384 -2196 2198 0
385 -2198 2200 0
386 -2200 0
-299 2201 0
-2201 2202 0
-305 -2201 2203 0
-2203 2204 0
-335 -2203 0
-305 2202 0
-2202 2205 0
-335 -2202 2204 0
-2204 2206 0
-348 -2204 0
-335 2205 0
-2205 2207 0
-348 -2205 2206 0
-2206 2208 0
-383 -2206 0
-348 2207 0
-2207 2209 0
-383 -2207 2208 0
-2208 2210 0
-384 -2208 0
-383 2209 0
-2209 2211 0
-384 -2209 2210 0
-2210 2212 0
-385 -2210 0
-384 2211 0
-385 -2211 2212 0
-386 -2212 0
-303 -339 -387 0
309 2213 0
-2213 2214 0
316 -2213 2215 0
-2215 2216 0
349 -2215 2217 0
-2217 2218 0
359 -2217 2219 0
-2219 2220 0
389 -2219 2221 0
-2221 2222 0
390 -2221 2223 0
-2223 2224 0
391 -2223 0
316 2214 0
349 -2214 2216 0
359 -2216 2218 0
389 -2218 2220 0
390 -2220 2222 0
391 -2222 2224 0
392 -2224 0
-309 2225 0
-2225 2226 0
-316 -2225 2227 0
-2227 2228 0
-349 -2227 0
-316 2226 0
-2226 2229 0
-349 -2226 2228 0
-2228 2230 0
-359 -2228 0
-349 2229 0
-2229 2231 0
-359 -2229 2230 0
-2230 2232 0
-389 -2230 0
-359 2231 0
-2231 2233 0
-389 -2231 2232 0
-2232 2234 0
-390 -2232 0
-389 2233 0
-2233 2235 0
-390 -2233 2234 0
-2234 2236 0
-391 -2234 0
-390 2235 0
-391 -2235 2236 0
-392 -2236 0
313 2237 0
-2237 2238 0
320 -2237 2239 0
-2239 2240 0
350 -2239 2241 0
-2241 2242 0
363 -2241 2243 0
-2243 2244 0
393 -2243 2245 0
-2245 2246 0
394 -2245 2247 0
-2247 2248 0
395 -2247 0
320 2238 0
350 -2238 2240 0
363 -2240 2242 0
393 -2242 2244 0
394 -2244 2246 0
395 -2246 2248 0
396 -2248 0
-313 2249 0
-2249 2250 0
-320 -2249 2251 0
-2251 2252 0
-350 -2251 0
-320 2250 0
-2250 2253 0
-350 -2250 2252 0
-2252 2254 0
-363 -2252 0
-350 2253 0
-2253 2255 0
-363 -2253 2254 0
-2254 2256 0
-393 -2254 0
-363 2255 0
-2255 2257 0
-393 -2255 2256 0
-2256 2258 0
-394 -2256 0
-393 2257 0
-2257 2259 0
-394 -2257 2258 0
-2258 2260 0
-395 -2258 0
-394 2259 0
-395 -2259 2260 0
-396 -2260 0
317 2261 0
-2261 2262 0
324 -2261 2263 0
-2263 2264 0
352 -2263 2265 0
-2265 2266 0
367 -2265 2267 0
-2267 2268 0
397 -2267 2269 0
-2269 2270 0
398 -2269 2271 0
-2271 2272 0
399 -2271 0
324 2262 0
352 -2262 2264 0
367 -2264 2266 0
397 -2266 2268 0
398 -2268 2270 0
399 -2270 2272 0
400 -2272 0
-317 2273 0
-2273 2274 0
-324 -2273 2275 0
-2275 2276 0
-352 -2275 0
-324 2274 0
-2274 2277 0
-352 -2274 2276 0
-2276 2278 0
-367 -2276 0
-352 2277 0
-2277 2279 0
-367 -2277 2278 0
-2278 2280 0
-397 -2278 0
-367 2279 0
-2279 2281 0
-397 -2279 2280 0
-2280 2282 0
-398 -2280 0
-397 2281 0
-2281 2283 0
-398 -2281 2282 0
-2282 2284 0
-399 -2282 0
-398 2283 0
-399 -2283 2284 0
-400 -2284 0
321 2285 0
-2285 2286 0
328 -2285 2287 0
-2287 2288 0
356 -2287 2289 0
-2289 2290 0
371 -2289 2291 0
-2291 2292 0
401 -2291 2293 0
-2293 2294 0
402 -2293 2295 0
-2295 2296 0
403 -2295 0
328 2286 0
356 -2286 2288 0
371 -2288 2290 0
401 -2290 2292 0
402 -2292 2294 0
403 -2294 2296 0
404 -2296 0
-321 2297 0
-2297 2298 0
-328 -2297 2299 0
-2299 2300 0
-356 -2299 0
-328 2298 0
-2298 2301 0
-356 -2298 2300 0
-2300 2302 0
-371 -2300 0
-356 2301 0
-2301 2303 0
-371 -2301 2302 0
-2302 2304 0
-401 -2302 0
-371 2303 0
-2303 2305 0
-401 -2303 2304 0
-2304 2306 0
-402 -2304 0
-401 2305 0
-2305 2307 0
-402 -2305 2306 0
-2306 2308 0
-403 -2306 0
-402 2307 0
-403 -2307 2308 0
-404 -2308 0
325 2309 0
-2309 2310 0
332 -2309 2311 0
-2311 2312 0
360 -2311 2313 0
-2313 2314 0
375 -2313 2315 0
-2315 2316 0
405 -2315 2317 0
-2317 2318 0
406 -2317 2319 0
-2319 2320 0
407 -2319 0
332 2310 0
360 -2310 2312 0
375 -2312 2314 0
405 -2314 2316 0
406 -2316 2318 0
407 -2318 2320 0
408 -2320 0
-325 2321 0
-2321 2322 0
-332 -2321 2323 0
-2323 2324 0
-360 -2323 0
-332 2322 0
-2322 2325 0
-360 -2322 2324 0
-2324 2326 0
-375 -2324 0
-360 2325 0
-2325 2327 0
-375 -2325 2326 0
-2326 2328 0
-405 -2326 0
-375 2327 0
-2327 2329 0
-405 -2327 2328 0
-2328 2330 0
-406 -2328 0
-405 2329 0
-2329 2331 0
-406 -2329 2330 0
-2330 2332 0
-407 -2330 0
-406 2331 0
-407 -2331 2332 0
-408 -2332 0
329 2333 0
-2333 2334 0
336 -2333 2335 0
-2335 2336 0
364 -2335 2337 0
-2337 2338 0
379 -2337 2339 0
-2339 2340 0
409 -2339 2341 0
-2341 2342 0
410 -2341 2343 0
-2343 2344 0
411 -2343 0
336 2334 0
364 -2334 2336 0
379 -2336 2338 0
409 -2338 2340 0
410 -2340 2342 0
411 -2342 2344 0
412 -2344 0
-329 2345 0
-2345 2346 0
-336 -2345 2347 0
-2347 2348 0
-364 -2347 0
-336 2346 0
-2346 2349 0
-364 -2346 2348 0
-2348 2350 0
-379 -2348 0
-364 2349 0
-2349 2351 0
-379 -2349 2350 0
-2350 2352 0
-409 -2350 0
-379 2351 0
-2351 2353 0
-409 -2351 2352 0
-2352 2354 0
-410 -2352 0
-409 2353 0
-2353 2355 0
-410 -2353 2354 0
-2354 2356 0
-411 -2354 0
-410 2355 0
-411 -2355 2356 0
-412 -2356 0
333 2357 0
-2357 2358 0
340 -2357 2359 0
-2359 2360 0
368 -2359 2361 0
-2361 2362 0
383 -2361 2363 0
-2363 2364 0
413 -2363 2365 0
-2365 2366 0
414 -2365 2367 0
-2367 2368 0
415 -2367 0
340 2358 0
368 -2358 2360 0
383 -2360 2362 0
413 -2362 2364 0
414 -2364 2366 0
415 -2366 2368 0
416 -2368 0
-333 2369 0
-2369 2370 0
-340 -2369 2371 0
-2371 2372 0
-368 -2371 0
-340 2370 0
-2370 2373 0
-368 -2370 2372 0
-2372 2374 0
-383 -2372 0
-368 2373 0
-2373 2375 0
-383 -2373 2374 0
-2374 2376 0
-413 -2374 0
-383 2375 0
-2375 2377 0
-413 -2375 2376 0
-2376 2378 0
-414 -2376 0
-413 2377 0
-2377 2379 0
-414 -2377 2378 0
-2378 2380 0
-415 -2378 0
-414 2379 0
-415 -2379 2380 0
-416 -2380 0
337 2381 0
-2381 2382 0
344 -2381 2383 0
-2383 2384 0
372 -2383 2385 0
-2385 2386 0
387 -2385 2387 0
-2387 2388 0
417 -2387 2389 0
-2389 2390 0
418 -2389 2391 0
-2391 2392 0
419 -2391 0
344 2382 0
372 -2382 2384 0
387 -2384 2386 0
417 -2386 2388 0
418 -2388 2390 0
419 -2390 2392 0
420 -2392 0
-337 2393 0
-2393 2394 0
-344 -2393 2395 0
-2395 2396 0
-372 -2395 0
-344 2394 0
-2394 2397 0
-372 -2394 2396 0
-2396 2398 0
-387 -2396 0
-372 2397 0
-2397 2399 0
-387 -2397 2398 0
-2398 2400 0
-417 -2398 0
-387 2399 0
-2399 2401 0
-417 -2399 2400 0
-2400 2402 0
-418 -2400 0
-417 2401 0
-2401 2403 0
-418 -2401 2402 0
-2402 2404 0
-419 -2402 0
-418 2403 0
-419 -2403 2404 0
-420 -2404 0
341 2405 0
-2405 2406 0
347 -2405 2407 0
-2407 2408 0
376 -2407 2409 0
-2409 2410 0
388 -2409 2411 0
-2411 2412 0
421 -2411 2413 0
-2413 2414 0
422 -2413 2415 0
-2415 2416 0
423 -2415 0
347 2406 0
376 -2406 2408 0
388 -2408 2410 0
421 -2410 2412 0
422 -2412 2414 0
423 -2414 2416 0
424 -2416 0
-341 2417 0
-2417 2418 0
-347 -2417 2419 0
-2419 2420 0
-376 -2419 0
-347 2418 0
-2418 2421 0
-376 -2418 2420 0
-2420 2422 0
-388 -2420 0
-376 2421 0
-2421 2423 0
-388 -2421 2422 0
-2422 2424 0
-421 -2422 0
-388 2423 0
-2423 2425 0
-421 -2423 2424 0
-2424 2426 0
-422 -2424 0
-421 2425 0
-2425 2427 0
-422 -2425 2426 0
-2426 2428 0
-423 -2426 0
-422 2427 0
-423 -2427 2428 0
-424 -2428 0
-354 -361 -401 0
-358 2429 0
-2429 2430 0
-365 -2429 2431 0
-2431 2432 0
-390 -2431 0
-365 2430 0
-390 -2430 2432 0
-405 -2432 0
-362 2433 0
-2433 2434 0
-369 -2433 2435 0
-2435 2436 0
-394 -2435 0
-369 2434 0
-394 -2434 2436 0
-409 -2436 0
-366 2437 0
-2437 2438 0
-373 -2437 2439 0
-2439 2440 0
-398 -2439 0
-373 2438 0
-398 -2438 2440 0
-413 -2440 0
-370 2441 0
-2441 2442 0
-377 -2441 2443 0
-2443 2444 0
-402 -2443 0
-377 2442 0
-402 -2442 2444 0
-417 -2444 0
-374 2445 0
-2445 2446 0
-381 -2445 2447 0
-2447 2448 0
-406 -2447 0
-381 2446 0
-406 -2446 2448 0
-421 -2448 0
-378 -385 -410 0
-2 -25 0
-2 -27 0
-22 -25 0
-3 -22 0
-3 -20 0
-3 -23 0
-4 -27 0
-5 -24 0
-24 -27 0
-4 -29 0
-4 -31 0
-24 -29 0
-5 -22 0
-5 -26 0
-26 -27 0
-6 -33 0
-6 -35 0
-28 -33 0
-6 -31 0
-7 -28 0
-28 -31 0
-7 -24 0
-7 -30 0
-30 -31 0
-8 -37 0
-8 -39 0
-32 -37 0
-8 -35 0
-9 -32 0
-32 -35 0
-9 -28 0
-9 -34 0
-34 -35 0
-10 -41 0
-10 -43 0
-36 -41 0
-10 -39 0
-11 -36 0
-36 -39 0
-11 -32 0
-11 -38 0
-38 -39 0
-12 -43 0
-13 -40 0
-40 -43 0
-12 -45 0
-12 -47 0
-40 -45 0
-13 -36 0
-13 -42 0
-42 -43 0
-14 -47 0
-15 -44 0
-44 -47 0
-14 -48 0
-14 -50 0
-44 -48 0
-15 -40 0
-15 -46 0
-46 -47 0
-16 -51 0
-16 -52 0
-16 -50 0
-17 -44 0
-17 -49 0
-49 -50 0
-20 -25 0
-20 -27 0
-23 -27 0
-21 -60 0
-21 -62 0
-56 -60 0
-21 -58 0
-56 -58 0
-22 -29 0
-22 -31 0
-26 -31 0
-23 -64 0
-23 -66 0
-59 -64 0
-23 -62 0
-25 -59 0
-59 -62 0
-24 -33 0
-24 -35 0
-30 -35 0
-25 -56 0
-25 -61 0
-61 -62 0
-26 -68 0
-26 -70 0
-63 -68 0
-26 -66 0
-29 -63 0
-63 -66 0
-28 -37 0
-28 -39 0
-34 -39 0
-29 -59 0
-29 -65 0
-65 -66 0
-30 -72 0
-30 -74 0
-67 -72 0
-30 -70 0
-33 -67 0
-67 -70 0
-32 -41 0
-32 -43 0
-38 -43 0
-33 -63 0
-33 -69 0
-69 -70 0
-34 -76 0
-34 -78 0
-71 -76 0
-34 -74 0
-37 -71 0
-71 -74 0
-36 -45 0
-36 -47 0
-42 -47 0
-37 -67 0
-37 -73 0
-73 -74 0
-38 -80 0
-38 -82 0
-75 -80 0
-38 -78 0
-41 -75 0
-75 -78 0
-40 -48 0
-40 -50 0
-46 -50 0
-41 -71 0
-41 -77 0
-77 -78 0
-42 -84 0
-42 -86 0
-79 -84 0
-42 -82 0
-45 -79 0
-79 -82 0
-44 -51 0
-44 -52 0
-49 -52 0
-45 -75 0
-45 -81 0
-81 -82 0
-46 -88 0
-46 -90 0
-83 -88 0
-46 -86 0
-48 -83 0
-83 -86 0
-48 -79 0
-48 -85 0
-85 -86 0
-49 -92 0
-49 -94 0
-87 -92 0
-49 -90 0
-51 -87 0
-87 -90 0
-51 -83 0
-51 -89 0
-89 -90 0
-53 -87 0
-53 -93 0
-93 -94 0
-53 -91 0
-91 -94 0
-55 -60 0
-55 -62 0
-57 -62 0
-57 -58 0
-56 -64 0
-56 -66 0
-61 -66 0
-57 -102 0
-57 -104 0
-98 -102 0
-57 -100 0
-60 -98 0
-98 -100 0
-59 -68 0
-59 -70 0
-65 -70 0
-60 -97 0
-60 -99 0
-99 -100 0
-61 -106 0
-61 -108 0
-101 -106 0
-61 -104 0
-64 -101 0
-101 -104 0
-63 -72 0
-63 -74 0
-69 -74 0
-64 -98 0
-64 -103 0
-103 -104 0
-65 -110 0
-65 -112 0
-105 -110 0
-65 -108 0
-68 -105 0
-105 -108 0
-67 -76 0
-67 -78 0
-73 -78 0
-68 -101 0
-68 -107 0
-107 -108 0
-69 -114 0
-69 -116 0
-109 -114 0
-69 -112 0
-72 -109 0
-109 -112 0
-71 -80 0
-71 -82 0
-77 -82 0
-72 -105 0
-72 -111 0
-111 -112 0
-73 -118 0
-73 -120 0
-113 -118 0
-73 -116 0
-76 -113 0
-113 -116 0
-75 -84 0
-75 -86 0
-81 -86 0
-76 -109 0
-76 -115 0
-115 -116 0
-77 -122 0
-77 -124 0
-117 -122 0
-77 -120 0
-80 -117 0
-117 -120 0
-79 -88 0
-79 -90 0
-85 -90 0
-80 -113 0
-80 -119 0
-119 -120 0
-81 -126 0
-81 -128 0
-121 -126 0
-81 -124 0
-84 -121 0
-121 -124 0
-83 -92 0
-83 -94 0
-89 -94 0
-84 -117 0
-84 -123 0
-123 -124 0
-85 -130 0
-85 -132 0
-125 -130 0
-85 -128 0
-88 -125 0
-125 -128 0
-87 -95 0
-87 -96 0
-93 -96 0
-88 -121 0
-88 -127 0
-127 -128 0
-89 -134 0
-89 -136 0
-129 -134 0
-89 -132 0
-92 -129 0
-129 -132 0
-91 -95 0
-92 -125 0
-92 -131 0
-131 -132 0
-93 -137 0
-93 -138 0
-133 -137 0
-93 -136 0
-95 -133 0
-133 -136 0
-95 -129 0
-95 -135 0
-135 -136 0
-97 -102 0
-97 -104 0
-99 -104 0
-98 -106 0
-98 -108 0
-103 -108 0
-99 -142 0
-102 -140 0
-140 -142 0
-99 -144 0
-99 -146 0
-140 -144 0
-101 -110 0
-101 -112 0
-107 -112 0
-102 -139 0
-102 -141 0
-141 -142 0
-103 -148 0
-103 -150 0
-143 -148 0
-103 -146 0
-106 -143 0
-143 -146 0
-105 -114 0
-105 -116 0
-111 -116 0
-106 -140 0
-106 -145 0
-145 -146 0
-107 -152 0
-107 -154 0
-147 -152 0
-107 -150 0
-110 -147 0
-147 -150 0
-109 -118 0
-109 -120 0
-115 -120 0
-110 -143 0
-110 -149 0
-149 -150 0
-111 -154 0
-114 -151 0
-151 -154 0
-111 -156 0
-111 -158 0
-151 -156 0
-113 -122 0
-113 -124 0
-119 -124 0
-114 -147 0
-114 -153 0
-153 -154 0
-115 -158 0
-118 -155 0
-155 -158 0
-115 -160 0
-115 -162 0
-155 -160 0
-117 -126 0
-117 -128 0
-123 -128 0
-118 -151 0
-118 -157 0
-157 -158 0
-119 -162 0
-122 -159 0
-159 -162 0
-119 -164 0
-119 -166 0
-159 -164 0
-121 -130 0
-121 -132 0
-127 -132 0
-122 -155 0
-122 -161 0
-161 -162 0
-123 -168 0
-123 -170 0
-163 -168 0
-123 -166 0
-126 -163 0
-163 -166 0
-125 -134 0
-125 -136 0
-131 -136 0
-126 -159 0
-126 -165 0
-165 -166 0
-127 -172 0
-127 -174 0
-167 -172 0
-127 -170 0
-130 -167 0
-167 -170 0
-129 -137 0
-129 -138 0
-135 -138 0
-130 -163 0
-130 -169 0
-169 -170 0
-131 -176 0
-131 -178 0
-171 -176 0
-131 -174 0
-134 -171 0
-171 -174 0
-134 -167 0
-134 -173 0
-173 -174 0
-135 -178 0
-137 -175 0
-175 -178 0
-135 -179 0
-135 -180 0
-175 -179 0
-137 -171 0
-137 -177 0
-177 -178 0
-139 -144 0
-139 -146 0
-141 -146 0
-140 -148 0
-140 -150 0
-145 -150 0
-141 -184 0
-144 -182 0
-182 -184 0
-141 -186 0
-141 -188 0
-182 -186 0
-143 -152 0
-143 -154 0
-149 -154 0
-144 -181 0
-144 -183 0
-183 -184 0
-145 -190 0
-145 -192 0
-185 -190 0
-145 -188 0
-148 -185 0
-185 -188 0
-147 -156 0
-147 -158 0
-153 -158 0
-148 -182 0
-148 -187 0
-187 -188 0
-149 -194 0
-149 -196 0
-189 -194 0
-149 -192 0
-152 -189 0
-189 -192 0
-151 -160 0
-151 -162 0
-157 -162 0
-152 -185 0
-152 -191 0
-191 -192 0
-153 -196 0
-156 -193 0
-193 -196 0
-153 -198 0
-153 -200 0
-193 -198 0
-155 -164 0
-155 -166 0
-161 -166 0
-156 -189 0
-156 -195 0
-195 -196 0
-157 -200 0
-160 -197 0
-197 -200 0
-157 -202 0
-157 -204 0
-197 -202 0
-159 -168 0
-159 -170 0
-165 -170 0
-160 -193 0
-160 -199 0
-199 -200 0
-161 -206 0
-161 -208 0
-201 -206 0
-161 -204 0
-164 -201 0
-201 -204 0
-163 -172 0
-163 -174 0
-169 -174 0
-164 -197 0
-164 -203 0
-203 -204 0
-165 -210 0
-165 -212 0
-205 -210 0
-165 -208 0
-168 -205 0
-205 -208 0
-167 -176 0
-167 -178 0
-173 -178 0
-168 -201 0
-168 -207 0
-207 -208 0
-169 -214 0
-169 -216 0
-209 -214 0
-169 -212 0
-172 -209 0
-209 -212 0
-171 -179 0
-171 -180 0
-177 -180 0
-172 -205 0
-172 -211 0
-211 -212 0
-173 -218 0
-173 -220 0
-213 -218 0
-173 -216 0
-176 -213 0
-213 -216 0
-176 -209 0
-176 -215 0
-215 -216 0
-177 -221 0
-177 -222 0
-217 -221 0
-177 -220 0
-179 -217 0
-217 -220 0
-179 -213 0
-179 -219 0
-219 -220 0
-181 -186 0
-181 -188 0
-183 -188 0
-182 -190 0
-182 -192 0
-187 -192 0
-183 -226 0
-186 -224 0
-224 -226 0
-183 -228 0
-183 -230 0
-224 -228 0
-185 -194 0
-185 -196 0
-191 -196 0
-186 -223 0
-186 -225 0
-225 -226 0
-187 -232 0
-187 -234 0
-227 -232 0
-187 -230 0
-190 -227 0
-227 -230 0
-189 -198 0
-189 -200 0
-195 -200 0
-190 -224 0
-190 -229 0
-229 -230 0
-191 -236 0
-191 -238 0
-231 -236 0
-191 -234 0
-194 -231 0
-231 -234 0
-193 -202 0
-193 -204 0
-199 -204 0
-194 -227 0
-194 -233 0
-233 -234 0
-195 -238 0
-198 -235 0
-235 -238 0
-195 -240 0
-195 -242 0
-235 -240 0
-197 -206 0
-197 -208 0
-203 -208 0
-198 -231 0
-198 -237 0
-237 -238 0
-199 -242 0
-202 -239 0
-239 -242 0
-199 -244 0
-199 -246 0
-239 -244 0
-201 -210 0
-201 -212 0
-207 -212 0
-202 -235 0
-202 -241 0
-241 -242 0
-203 -248 0
-203 -250 0
-243 -248 0
-203 -246 0
-206 -243 0
-243 -246 0
-205 -214 0
-205 -216 0
-211 -216 0
-206 -239 0
-206 -245 0
-245 -246 0
-207 -252 0
-207 -254 0
-247 -252 0
-207 -250 0
-210 -247 0
-247 -250 0
-209 -218 0
-209 -220 0
-215 -220 0
-210 -243 0
-210 -249 0
-249 -250 0
-211 -256 0
-211 -258 0
-251 -256 0
-211 -254 0
-214 -251 0
-251 -254 0
-213 -221 0
-213 -222 0
-219 -222 0
-214 -247 0
-214 -253 0
-253 -254 0
-215 -260 0
-215 -262 0
-255 -260 0
-215 -258 0
-218 -255 0
-255 -258 0
-218 -251 0
-218 -257 0
-257 -258 0
-219 -263 0
-219 -264 0
-259 -263 0
-219 -262 0
-221 -259 0
-259 -262 0
-221 -255 0
-221 -261 0
-261 -262 0
-223 -228 0
-223 -230 0
-225 -230 0
-224 -232 0
-224 -234 0
-229 -234 0
-225 -268 0
-228 -266 0
-266 -268 0
-225 -270 0
-225 -272 0
-266 -270 0
-227 -236 0
-227 -238 0
-233 -238 0
-228 -265 0
-228 -267 0
-267 -268 0
-229 -274 0
-229 -276 0
-269 -274 0
-229 -272 0
-232 -269 0
-269 -272 0
-231 -240 0
-231 -242 0
-237 -242 0
-232 -266 0
-232 -271 0
-271 -272 0
-233 -278 0
-233 -280 0
-273 -278 0
-233 -276 0
-236 -273 0
-273 -276 0
-235 -244 0
-235 -246 0
-241 -246 0
-236 -269 0
-236 -275 0
-275 -276 0
-237 -282 0
-237 -284 0
-277 -282 0
-237 -280 0
-240 -277 0
-277 -280 0
-239 -248 0
-239 -250 0
-245 -250 0
-240 -273 0
-240 -279 0
-279 -280 0
-241 -286 0
-241 -288 0
-281 -286 0
-241 -284 0
-244 -281 0
-281 -284 0
-243 -252 0
-243 -254 0
-249 -254 0
-244 -277 0
-244 -283 0
-283 -284 0
-245 -290 0
-245 -292 0
-285 -290 0
-245 -288 0
-248 -285 0
-285 -288 0
-247 -256 0
-247 -258 0
-253 -258 0
-248 -281 0
-248 -287 0
-287 -288 0
-249 -292 0
-252 -289 0
-289 -292 0
-249 -294 0
-249 -296 0
-289 -294 0
-251 -260 0
-251 -262 0
-257 -262 0
-252 -285 0
-252 -291 0
-291 -292 0
-253 -298 0
-253 -300 0
-293 -298 0
-253 -296 0
-256 -293 0
-293 -296 0
-255 -263 0
-255 -264 0
-261 -264 0
-256 -289 0
-256 -295 0
-295 -296 0
-257 -302 0
-257 -304 0
-297 -302 0
-257 -300 0
-260 -297 0
-297 -300 0
-260 -293 0
-260 -299 0
-299 -300 0
-261 -304 0
-263 -301 0
-301 -304 0
-261 -305 0
-261 -306 0
-301 -305 0
-263 -297 0
-263 -303 0
-303 -304 0
-265 -270 0
-265 -272 0
-267 -272 0
-266 -274 0
-266 -276 0
-271 -276 0
-267 -312 0
-267 -314 0
-308 -312 0
-267 -310 0
-270 -308 0
-308 -310 0
-269 -278 0
-269 -280 0
-275 -280 0
-270 -307 0
-270 -309 0
-309 -310 0
-271 -316 0
-271 -318 0
-311 -316 0
-271 -314 0
-274 -311 0
-311 -314 0
-273 -282 0
-273 -284 0
-279 -284 0
-274 -308 0
-274 -313 0
-313 -314 0
-275 -318 0
-278 -315 0
-315 -318 0
-275 -320 0
-275 -322 0
-315 -320 0
-277 -286 0
-277 -288 0
-283 -288 0
-278 -311 0
-278 -317 0
-317 -318 0
-279 -322 0
-282 -319 0
-319 -322 0
-279 -324 0
-279 -326 0
-319 -324 0
-281 -290 0
-281 -292 0
-287 -292 0
-282 -315 0
-282 -321 0
-321 -322 0
-283 -326 0
-286 -323 0
-323 -326 0
-283 -328 0
-283 -330 0
-323 -328 0
-285 -294 0
-285 -296 0
-291 -296 0
-286 -319 0
-286 -325 0
-325 -326 0
-287 -332 0
-287 -334 0
-327 -332 0
-287 -330 0
-290 -327 0
-327 -330 0
-289 -298 0
-289 -300 0
-295 -300 0
-290 -323 0
-290 -329 0
-329 -330 0
-291 -336 0
-291 -338 0
-331 -336 0
-291 -334 0
-294 -331 0
-331 -334 0
-293 -302 0
-293 -304 0
-299 -304 0
-294 -327 0
-294 -333 0
-333 -334 0
-295 -340 0
-295 -342 0
-335 -340 0
-295 -338 0
-298 -335 0
-335 -338 0
-297 -305 0
-297 -306 0
-303 -306 0
-298 -331 0
-298 -337 0
-337 -338 0
-299 -344 0
-299 -346 0
-339 -344 0
-299 -342 0
-302 -339 0
-339 -342 0
-302 -335 0
-302 -341 0
-341 -342 0
-303 -347 0
-303 -348 0
-343 -347 0
-303 -346 0
-305 -343 0
-343 -346 0
-305 -339 0
-305 -345 0
-345 -346 0
-307 -312 0
-307 -314 0
-309 -314 0
-308 -316 0
-308 -318 0
-313 -318 0
-309 -353 0
-309 -355 0
-350 -353 0
-309 -351 0
-312 -350 0
-350 -351 0
-311 -320 0
-311 -322 0
-317 -322 0
-312 -349 0
-313 -355 0
-316 -352 0
-352 -355 0
-313 -357 0
-313 -359 0
-352 -357 0
-315 -324 0
-315 -326 0
-321 -326 0
-316 -350 0
-316 -354 0
-354 -355 0
-317 -361 0
-317 -363 0
-356 -361 0
-317 -359 0
-320 -356 0
-356 -359 0
-319 -328 0
-319 -330 0
-325 -330 0
-320 -352 0
-320 -358 0
-358 -359 0
-321 -365 0
-321 -367 0
-360 -365 0
-321 -363 0
-324 -360 0
-360 -363 0
-323 -332 0
-323 -334 0
-329 -334 0
-324 -356 0
-324 -362 0
-362 -363 0
-325 -369 0
-325 -371 0
-364 -369 0
-325 -367 0
-328 -364 0
-364 -367 0
-327 -336 0
-327 -338 0
-333 -338 0
-328 -360 0
-328 -366 0
-366 -367 0
-329 -373 0
-329 -375 0
-368 -373 0
-329 -371 0
-332 -368 0
-368 -371 0
-331 -340 0
-331 -342 0
-337 -342 0
-332 -364 0
-332 -370 0
-370 -371 0
-333 -375 0
-336 -372 0
-372 -375 0
-333 -377 0
-333 -379 0
-372 -377 0
-335 -344 0
-335 -346 0
-341 -346 0
-336 -368 0
-336 -374 0
-374 -375 0
-337 -381 0
-337 -383 0
-376 -381 0
-337 -379 0
-340 -376 0
-376 -379 0
-339 -347 0
-339 -348 0
-345 -348 0
-340 -372 0
-340 -378 0
-378 -379 0
-341 -385 0
-341 -387 0
-380 -385 0
-341 -383 0
-344 -380 0
-380 -383 0
-344 -376 0
-344 -382 0
-382 -383 0
-345 -387 0
-347 -384 0
-384 -387 0
-345 -388 0
-347 -380 0
-347 -386 0
-386 -387 0
-349 -353 0
-349 -355 0
-350 -357 0
-350 -359 0
-354 -359 0
-352 -361 0
-352 -363 0
-358 -363 0
-354 -395 0
-354 -397 0
-390 -395 0
-354 -393 0
-357 -390 0
-390 -393 0
-356 -365 0
-356 -367 0
-362 -367 0
-357 -392 0
-392 -393 0
-358 -399 0
-358 -401 0
-394 -399 0
-358 -397 0
-361 -394 0
-394 -397 0
-360 -369 0
-360 -371 0
-366 -371 0
-361 -390 0
-361 -396 0
-396 -397 0
-362 -401 0
-365 -398 0
-398 -401 0
-362 -403 0
-362 -405 0
-398 -403 0
-364 -373 0
-364 -375 0
-370 -375 0
-365 -394 0
-365 -400 0
-400 -401 0
-366 -405 0
-369 -402 0
-402 -405 0
-366 -407 0
-366 -409 0
-402 -407 0
-368 -377 0
-368 -379 0
-374 -379 0
-369 -398 0
-369 -404 0
-404 -405 0
-370 -411 0
-370 -413 0
-406 -411 0
-370 -409 0
-373 -406 0
-406 -409 0
-372 -381 0
-372 -383 0
-378 -383 0
-373 -402 0
-373 -408 0
-408 -409 0
-374 -415 0
-374 -417 0
-410 -415 0
-374 -413 0
-377 -410 0
-410 -413 0
-376 -385 0
-376 -387 0
-382 -387 0
-377 -406 0
-377 -412 0
-412 -413 0
-378 -417 0
-381 -414 0
-414 -417 0
-378 -419 0
-378 -421 0
-414 -419 0
-380 -388 0
-386 -388 0
-381 -410 0
-381 -416 0
-416 -417 0
-382 -421 0
-385 -418 0
-418 -421 0
-382 -423 0
-418 -423 0
-385 -414 0
-385 -420 0
-420 -421 0
-390 -399 0
-390 -401 0
-396 -401 0
-392 -397 0
-394 -403 0
-394 -405 0
-400 -405 0
-398 -407 0
-398 -409 0
-404 -409 0
-402 -411 0
-402 -413 0
-408 -413 0
-406 -415 0
-406 -417 0
-412 -417 0
-410 -419 0
-410 -421 0
-416 -421 0
-414 -423 0
-2 2449 0
-2449 2450 0
-22 -2449 2451 0
-2451 2452 0
-25 -2451 0
-22 2450 0
-25 -2450 2452 0
-27 -2452 0
-2 -3 -22 0
-3 -20 -23 0
-4 2453 0
-2453 2454 0
-5 -2453 2455 0
-2455 2456 0
-24 -2455 0
-5 2454 0
-24 -2454 2456 0
-27 -2456 0
-4 2457 0
-2457 2458 0
-24 -2457 2459 0
-2459 2460 0
-29 -2459 0
-24 2458 0
-29 -2458 2460 0
-31 -2460 0
-5 2461 0
-2461 2462 0
-22 -2461 2463 0
-2463 2464 0
-26 -2463 0
-22 2462 0
-26 -2462 2464 0
-27 -2464 0
-6 2465 0
-2465 2466 0
-28 -2465 2467 0
-2467 2468 0
-33 -2467 0
-28 2466 0
-33 -2466 2468 0
-35 -2468 0
-6 2469 0
-2469 2470 0
-7 -2469 2471 0
-2471 2472 0
-28 -2471 0
-7 2470 0
-28 -2470 2472 0
-31 -2472 0
-7 2473 0
-2473 2474 0
-24 -2473 2475 0
-2475 2476 0
-30 -2475 0
-24 2474 0
-30 -2474 2476 0
-31 -2476 0
-8 2477 0
-2477 2478 0
-32 -2477 2479 0
-2479 2480 0
-37 -2479 0
-32 2478 0
-37 -2478 2480 0
-39 -2480 0
-8 2481 0
-2481 2482 0
-9 -2481 2483 0
-2483 2484 0
-32 -2483 0
-9 2482 0
-32 -2482 2484 0
-35 -2484 0
-9 2485 0
-2485 2486 0
-28 -2485 2487 0
-2487 2488 0
-34 -2487 0
-28 2486 0
-34 -2486 2488 0
-35 -2488 0
-10 2489 0
-2489 2490 0
-36 -2489 2491 0
-2491 2492 0
-41 -2491 0
-36 2490 0
-41 -2490 2492 0
-43 -2492 0
-10 2493 0
-2493 2494 0
-11 -2493 2495 0
-2495 2496 0
-36 -2495 0
-11 2494 0
-36 -2494 2496 0
-39 -2496 0
-11 2497 0
-2497 2498 0
-32 -2497 2499 0
-2499 2500 0
-38 -2499 0
-32 2498 0
-38 -2498 2500 0
-39 -2500 0
-12 2501 0
-2501 2502 0
-13 -2501 2503 0
-2503 2504 0
-40 -2503 0
-13 2502 0
-40 -2502 2504 0
-43 -2504 0
-12 2505 0
-2505 2506 0
-40 -2505 2507 0
-2507 2508 0
-45 -2507 0
-40 2506 0
-45 -2506 2508 0
-47 -2508 0
-13 2509 0
-2509 2510 0
-36 -2509 2511 0
-2511 2512 0
-42 -2511 0
-36 2510 0
-42 -2510 2512 0
-43 -2512 0
-14 2513 0
-2513 2514 0
-15 -2513 2515 0
-2515 2516 0
-44 -2515 0
-15 2514 0
-44 -2514 2516 0
-47 -2516 0
-14 2517 0
-2517 2518 0
-44 -2517 2519 0
-2519 2520 0
-48 -2519 0
-44 2518 0
-48 -2518 2520 0
-50 -2520 0
-15 2521 0
-2521 2522 0
-40 -2521 2523 0
-2523 2524 0
-46 -2523 0
-40 2522 0
-46 -2522 2524 0
-47 -2524 0
-16 -51 -52 0
-16 -17 -50 0
-17 2525 0
-2525 2526 0
-44 -2525 2527 0
-2527 2528 0
-49 -2527 0
-44 2526 0
-49 -2526 2528 0
-50 -2528 0
-20 2529 0
-2529 2530 0
-23 -2529 2531 0
-2531 2532 0
-25 -2531 0
-23 2530 0
-25 -2530 2532 0
-27 -2532 0
-21 2533 0
-2533 2534 0
-56 -2533 2535 0
-2535 2536 0
-60 -2535 0
-56 2534 0
-60 -2534 2536 0
-62 -2536 0
-21 -56 -58 0
-22 2537 0
-2537 2538 0
-26 -2537 2539 0
-2539 2540 0
-29 -2539 0
-26 2538 0
-29 -2538 2540 0
-31 -2540 0
-23 2541 0
-2541 2542 0
-59 -2541 2543 0
-2543 2544 0
-64 -2543 0
-59 2542 0
-64 -2542 2544 0
-66 -2544 0
-23 2545 0
-2545 2546 0
-25 -2545 2547 0
-2547 2548 0
-59 -2547 0
-25 2546 0
-59 -2546 2548 0
-62 -2548 0
-24 2549 0
-2549 2550 0
-30 -2549 2551 0
-2551 2552 0
-33 -2551 0
-30 2550 0
-33 -2550 2552 0
-35 -2552 0
-25 2553 0
-2553 2554 0
-56 -2553 2555 0
-2555 2556 0
-61 -2555 0
-56 2554 0
-61 -2554 2556 0
-62 -2556 0
-26 2557 0
-2557 2558 0
-63 -2557 2559 0
-2559 2560 0
-68 -2559 0
-63 2558 0
-68 -2558 2560 0
-70 -2560 0
-26 2561 0
-2561 2562 0
-29 -2561 2563 0
-2563 2564 0
-63 -2563 0
-29 2562 0
-63 -2562 2564 0
-66 -2564 0
-28 2565 0
-2565 2566 0
-34 -2565 2567 0
-2567 2568 0
-37 -2567 0
-34 2566 0
-37 -2566 2568 0
-39 -2568 0
-29 2569 0
-2569 2570 0
-59 -2569 2571 0
-2571 2572 0
-65 -2571 0
-59 2570 0
-65 -2570 2572 0
-66 -2572 0
-30 2573 0
-2573 2574 0
-67 -2573 2575 0
-2575 2576 0
-72 -2575 0
-67 2574 0
-72 -2574 2576 0
-74 -2576 0
-30 2577 0
-2577 2578 0
-33 -2577 2579 0
-2579 2580 0
-67 -2579 0
-33 2578 0
-67 -2578 2580 0
-70 -2580 0
-32 2581 0
-2581 2582 0
-38 -2581 2583 0
-2583 2584 0
-41 -2583 0
-38 2582 0
-41 -2582 2584 0
-43 -2584 0
-33 2585 0
-2585 2586 0
-63 -2585 2587 0
-2587 2588 0
-69 -2587 0
-63 2586 0
-69 -2586 2588 0
-70 -2588 0
-34 2589 0
-2589 2590 0
-71 -2589 2591 0
-2591 2592 0
-76 -2591 0
-71 2590 0
-76 -2590 2592 0
-78 -2592 0
-34 2593 0
-2593 2594 0
-37 -2593 2595 0
-2595 2596 0
-71 -2595 0
-37 2594 0
-71 -2594 2596 0
-74 -2596 0
-36 2597 0
-2597 2598 0
-42 -2597 2599 0
-2599 2600 0
-45 -2599 0
-42 2598 0
-45 -2598 2600 0
-47 -2600 0
-37 2601 0
-2601 2602 0
-67 -2601 2603 0
-2603 2604 0
-73 -2603 0
-67 2602 0
-73 -2602 2604 0
-74 -2604 0
-38 2605 0
-2605 2606 0
-75 -2605 2607 0
-2607 2608 0
-80 -2607 0
-75 2606 0
-80 -2606 2608 0
-82 -2608 0
-38 2609 0
-2609 2610 0
-41 -2609 2611 0
-2611 2612 0
-75 -2611 0
-41 2610 0
-75 -2610 2612 0
-78 -2612 0
-40 2613 0
-2613 2614 0
-46 -2613 2615 0
-2615 2616 0
-48 -2615 0
-46 2614 0
-48 -2614 2616 0
-50 -2616 0
-41 2617 0
-2617 2618 0
-71 -2617 2619 0
-2619 2620 0
-77 -2619 0
-71 2618 0
-77 -2618 2620 0
-78 -2620 0
-42 2621 0
-2621 2622 0
-79 -2621 2623 0
-2623 2624 0
-84 -2623 0
-79 2622 0
-84 -2622 2624 0
-86 -2624 0
-42 2625 0
-2625 2626 0
-45 -2625 2627 0
-2627 2628 0
-79 -2627 0
-45 2626 0
-79 -2626 2628 0
-82 -2628 0
-44 2629 0
-2629 2630 0
-49 -2629 2631 0
-2631 2632 0
-51 -2631 0
-49 2630 0
-51 -2630 2632 0
-52 -2632 0
-45 2633 0
-2633 2634 0
-75 -2633 2635 0
-2635 2636 0
-81 -2635 0
-75 2634 0
-81 -2634 2636 0
-82 -2636 0
-46 2637 0
-2637 2638 0
-83 -2637 2639 0
-2639 2640 0
-88 -2639 0
-83 2638 0
-88 -2638 2640 0
-90 -2640 0
-46 2641 0
-2641 2642 0
-48 -2641 2643 0
-2643 2644 0
-83 -2643 0
-48 2642 0
-83 -2642 2644 0
-86 -2644 0
-48 2645 0
-2645 2646 0
-79 -2645 2647 0
-2647 2648 0
-85 -2647 0
-79 2646 0
-85 -2646 2648 0
-86 -2648 0
-49 2649 0
-2649 2650 0
-87 -2649 2651 0
-2651 2652 0
-92 -2651 0
-87 2650 0
-92 -2650 2652 0
-94 -2652 0
-49 2653 0
-2653 2654 0
-51 -2653 2655 0
-2655 2656 0
-87 -2655 0
-51 2654 0
-87 -2654 2656 0
-90 -2656 0
-51 2657 0
-2657 2658 0
-83 -2657 2659 0
-2659 2660 0
-89 -2659 0
-83 2658 0
-89 -2658 2660 0
-90 -2660 0
-53 2661 0
-2661 2662 0
-87 -2661 2663 0
-2663 2664 0
-93 -2663 0
-87 2662 0
-93 -2662 2664 0
-94 -2664 0
-53 -91 -94 0
-55 2665 0
-2665 2666 0
-57 -2665 2667 0
-2667 2668 0
-60 -2667 0
-57 2666 0
-60 -2666 2668 0
-62 -2668 0
-55 -57 -58 0
-56 2669 0
-2669 2670 0
-61 -2669 2671 0
-2671 2672 0
-64 -2671 0
-61 2670 0
-64 -2670 2672 0
-66 -2672 0
-57 2673 0
-2673 2674 0
-98 -2673 2675 0
-2675 2676 0
-102 -2675 0
-98 2674 0
-102 -2674 2676 0
-104 -2676 0
-57 2677 0
-2677 2678 0
-60 -2677 2679 0
-2679 2680 0
-98 -2679 0
-60 2678 0
-98 -2678 2680 0
-100 -2680 0
-59 2681 0
-2681 2682 0
-65 -2681 2683 0
-2683 2684 0
-68 -2683 0
-65 2682 0
-68 -2682 2684 0
-70 -2684 0
-60 2685 0
-2685 2686 0
-97 -2685 2687 0
-2687 2688 0
-99 -2687 0
-97 2686 0
-99 -2686 2688 0
-100 -2688 0
-61 2689 0
-2689 2690 0
-101 -2689 2691 0
-2691 2692 0
-106 -2691 0
-101 2690 0
-106 -2690 2692 0
-108 -2692 0
-61 2693 0
-2693 2694 0
-64 -2693 2695 0
-2695 2696 0
-101 -2695 0
-64 2694 0
-101 -2694 2696 0
-104 -2696 0
-63 2697 0
-2697 2698 0
-69 -2697 2699 0
-2699 2700 0
-72 -2699 0
-69 2698 0
-72 -2698 2700 0
-74 -2700 0
-64 2701 0
-2701 2702 0
-98 -2701 2703 0
-2703 2704 0
-103 -2703 0
-98 2702 0
-103 -2702 2704 0
-104 -2704 0
-65 2705 0
-2705 2706 0
-105 -2705 2707 0
-2707 2708 0
-110 -2707 0
-105 2706 0
-110 -2706 2708 0
-112 -2708 0
-65 2709 0
-2709 2710 0
-68 -2709 2711 0
-2711 2712 0
-105 -2711 0
-68 2710 0
-105 -2710 2712 0
-108 -2712 0
-67 2713 0
-2713 2714 0
-73 -2713 2715 0
-2715 2716 0
-76 -2715 0
-73 2714 0
-76 -2714 2716 0
-78 -2716 0
-68 2717 0
-2717 2718 0
-101 -2717 2719 0
-2719 2720 0
-107 -2719 0
-101 2718 0
-107 -2718 2720 0
-108 -2720 0
-69 2721 0
-2721 2722 0
-109 -2721 2723 0
-2723 2724 0
-114 -2723 0
-109 2722 0
-114 -2722 2724 0
-116 -2724 0
-69 2725 0
-2725 2726 0
-72 -2725 2727 0
-2727 2728 0
-109 -2727 0
-72 2726 0
-109 -2726 2728 0
-112 -2728 0
-71 2729 0
-2729 2730 0
-77 -2729 2731 0
-2731 2732 0
-80 -2731 0
-77 2730 0
-80 -2730 2732 0
-82 -2732 0
-72 2733 0
-2733 2734 0
-105 -2733 2735 0
-2735 2736 0
-111 -2735 0
-105 2734 0
-111 -2734 2736 0
-112 -2736 0
-73 2737 0
-2737 2738 0
-113 -2737 2739 0
-2739 2740 0
-118 -2739 0
-113 2738 0
-118 -2738 2740 0
-120 -2740 0
-73 2741 0
-2741 2742 0
-76 -2741 2743 0
-2743 2744 0
-113 -2743 0
-76 2742 0
-113 -2742 2744 0
-116 -2744 0
-75 2745 0
-2745 2746 0
-81 -2745 2747 0
-2747 2748 0
-84 -2747 0
-81 2746 0
-84 -2746 2748 0
-86 -2748 0
-76 2749 0
-2749 2750 0
-109 -2749 2751 0
-2751 2752 0
-115 -2751 0
-109 2750 0
-115 -2750 2752 0
-116 -2752 0
-77 2753 0
-2753 2754 0
-117 -2753 2755 0
-2755 2756 0
-122 -2755 0
-117 2754 0
-122 -2754 2756 0
-124 -2756 0
-77 2757 0
-2757 2758 0
-80 -2757 2759 0
-2759 2760 0
-117 -2759 0
-80 2758 0
-117 -2758 2760 0
-120 -2760 0
-79 2761 0
-2761 2762 0
-85 -2761 2763 0
-2763 2764 0
-88 -2763 0
-85 2762 0
-88 -2762 2764 0
-90 -2764 0
-80 2765 0
-2765 2766 0
-113 -2765 2767 0
-2767 2768 0
-119 -2767 0
-113 2766 0
-119 -2766 2768 0
-120 -2768 0
-81 2769 0
-2769 2770 0
-121 -2769 2771 0
-2771 2772 0
-126 -2771 0
-121 2770 0
-126 -2770 2772 0
-128 -2772 0
-81 2773 0
-2773 2774 0
-84 -2773 2775 0
-2775 2776 0
-121 -2775 0
-84 2774 0
-121 -2774 2776 0
-124 -2776 0
-83 2777 0
-2777 2778 0
-89 -2777 2779 0
-2779 2780 0
-92 -2779 0
-89 2778 0
-92 -2778 2780 0
-94 -2780 0
-84 2781 0
-2781 2782 0
-117 -2781 2783 0
-2783 2784 0
-123 -2783 0
-117 2782 0
-123 -2782 2784 0
-124 -2784 0
-85 2785 0
-2785 2786 0
-125 -2785 2787 0
-2787 2788 0
-130 -2787 0
-125 2786 0
-130 -2786 2788 0
-132 -2788 0
-85 2789 0
-2789 2790 0
-88 -2789 2791 0
-2791 2792 0
-125 -2791 0
-88 2790 0
-125 -2790 2792 0
-128 -2792 0
-87 2793 0
-2793 2794 0
-93 -2793 2795 0
-2795 2796 0
-95 -2795 0
-93 2794 0
-95 -2794 2796 0
-96 -2796 0
-88 2797 0
-2797 2798 0
-121 -2797 2799 0
-2799 2800 0
-127 -2799 0
-121 2798 0
-127 -2798 2800 0
-128 -2800 0
-89 2801 0
-2801 2802 0
-129 -2801 2803 0
-2803 2804 0
-134 -2803 0
-129 2802 0
-134 -2802 2804 0
-136 -2804 0
-89 2805 0
-2805 2806 0
-92 -2805 2807 0
-2807 2808 0
-129 -2807 0
-92 2806 0
-129 -2806 2808 0
-132 -2808 0
-91 -95 -96 0
-92 2809 0
-2809 2810 0
-125 -2809 2811 0
-2811 2812 0
-131 -2811 0
-125 2810 0
-131 -2810 2812 0
-132 -2812 0
-93 2813 0
-2813 2814 0
-133 -2813 2815 0
-2815 2816 0
-137 -2815 0
-133 2814 0
-137 -2814 2816 0
-138 -2816 0
-93 2817 0
-2817 2818 0
-95 -2817 2819 0
-2819 2820 0
-133 -2819 0
-95 2818 0
-133 -2818 2820 0
-136 -2820 0
-95 2821 0
-2821 2822 0
-129 -2821 2823 0
-2823 2824 0
-135 -2823 0
-129 2822 0
-135 -2822 2824 0
-136 -2824 0
-97 2825 0
-2825 2826 0
-99 -2825 2827 0
-2827 2828 0
-102 -2827 0
-99 2826 0
-102 -2826 2828 0
-104 -2828 0
-98 2829 0
-2829 2830 0
-103 -2829 2831 0
-2831 2832 0
-106 -2831 0
-103 2830 0
-106 -2830 2832 0
-108 -2832 0
-99 2833 0
-2833 2834 0
-102 -2833 2835 0
-2835 2836 0
-140 -2835 0
-102 2834 0
-140 -2834 2836 0
-142 -2836 0
-99 2837 0
-2837 2838 0
-140 -2837 2839 0
-2839 2840 0
-144 -2839 0
-140 2838 0
-144 -2838 2840 0
-146 -2840 0
-101 2841 0
-2841 2842 0
-107 -2841 2843 0
-2843 2844 0
-110 -2843 0
-107 2842 0
-110 -2842 2844 0
-112 -2844 0
-102 2845 0
-2845 2846 0
-139 -2845 2847 0
-2847 2848 0
-141 -2847 0
-139 2846 0
-141 -2846 2848 0
-142 -2848 0
-103 2849 0
-2849 2850 0
-143 -2849 2851 0
-2851 2852 0
-148 -2851 0
-143 2850 0
-148 -2850 2852 0
-150 -2852 0
-103 2853 0
-2853 2854 0
-106 -2853 2855 0
-2855 2856 0
-143 -2855 0
-106 2854 0
-143 -2854 2856 0
-146 -2856 0
-105 2857 0
-2857 2858 0
-111 -2857 2859 0
-2859 2860 0
-114 -2859 0
-111 2858 0
-114 -2858 2860 0
-116 -2860 0
-106 2861 0
-2861 2862 0
-140 -2861 2863 0
-2863 2864 0
-145 -2863 0
-140 2862 0
-145 -2862 2864 0
-146 -2864 0
-107 2865 0
-2865 2866 0
-147 -2865 2867 0
-2867 2868 0
-152 -2867 0
-147 2866 0
-152 -2866 2868 0
-154 -2868 0
-107 2869 0
-2869 2870 0
-110 -2869 2871 0
-2871 2872 0
-147 -2871 0
-110 2870 0
-147 -2870 2872 0
-150 -2872 0
-109 2873 0
-2873 2874 0
-115 -2873 2875 0
-2875 2876 0
-118 -2875 0
-115 2874 0
-118 -2874 2876 0
-120 -2876 0
-110 2877 0
-2877 2878 0
-143 -2877 2879 0
-2879 2880 0
-149 -2879 0
-143 2878 0
-149 -2878 2880 0
-150 -2880 0
-111 2881 0
-2881 2882 0
-114 -2881 2883 0
-2883 2884 0
-151 -2883 0
-114 2882 0
-151 -2882 2884 0
-154 -2884 0
-111 2885 0
-2885 2886 0
-151 -2885 2887 0
-2887 2888 0
-156 -2887 0
-151 2886 0
-156 -2886 2888 0
-158 -2888 0
-113 2889 0
-2889 2890 0
-119 -2889 2891 0
-2891 2892 0
-122 -2891 0
-119 2890 0
-122 -2890 2892 0
-124 -2892 0
-114 2893 0
-2893 2894 0
-147 -2893 2895 0
-2895 2896 0
-153 -2895 0
-147 2894 0
-153 -2894 2896 0
-154 -2896 0
-115 2897 0
-2897 2898 0
-118 -2897 2899 0
-2899 2900 0
-155 -2899 0
-118 2898 0
-155 -2898 2900 0
-158 -2900 0
-115 2901 0
-2901 2902 0
-155 -2901 2903 0
-2903 2904 0
-160 -2903 0
-155 2902 0
-160 -2902 2904 0
-162 -2904 0
-117 2905 0
-2905 2906 0
-123 -2905 2907 0
-2907 2908 0
-126 -2907 0
-123 2906 0
-126 -2906 2908 0
-128 -2908 0
-118 2909 0
-2909 2910 0
-151 -2909 2911 0
-2911 2912 0
-157 -2911 0
-151 2910 0
-157 -2910 2912 0
-158 -2912 0
-119 2913 0
-2913 2914 0
-122 -2913 2915 0
-2915 2916 0
-159 -2915 0
-122 2914 0
-159 -2914 2916 0
-162 -2916 0
-119 2917 0
-2917 2918 0
-159 -2917 2919 0
-2919 2920 0
-164 -2919 0
-159 2918 0
-164 -2918 2920 0
-166 -2920 0
-121 2921 0
-2921 2922 0
-127 -2921 2923 0
-2923 2924 0
-130 -2923 0
-127 2922 0
-130 -2922 2924 0
-132 -2924 0
-122 2925 0
-2925 2926 0
-155 -2925 2927 0
-2927 2928 0
-161 -2927 0
-155 2926 0
-161 -2926 2928 0
-162 -2928 0
-123 2929 0
-2929 2930 0
-163 -2929 2931 0
-2931 2932 0
-168 -2931 0
-163 2930 0
-168 -2930 2932 0
-170 -2932 0
-123 2933 0
-2933 2934 0
-126 -2933 2935 0
-2935 2936 0
-163 -2935 0
-126 2934 0
-163 -2934 2936 0
-166 -2936 0
-125 2937 0
-2937 2938 0
-131 -2937 2939 0
-2939 2940 0
-134 -2939 0
-131 2938 0
-134 -2938 2940 0
-136 -2940 0
-126 2941 0
-2941 2942 0
-159 -2941 2943 0
-2943 2944 0
-165 -2943 0
-159 2942 0
-165 -2942 2944 0
-166 -2944 0
-127 2945 0
-2945 2946 0
-167 -2945 2947 0
-2947 2948 0
-172 -2947 0
-167 2946 0
-172 -2946 2948 0
-174 -2948 0
-127 2949 0
-2949 2950 0
-130 -2949 2951 0
-2951 2952 0
-167 -2951 0
-130 2950 0
-167 -2950 2952 0
-170 -2952 0
-129 2953 0
-2953 2954 0
-135 -2953 2955 0
-2955 2956 0
-137 -2955 0
-135 2954 0
-137 -2954 2956 0
-138 -2956 0
-130 2957 0
-2957 2958 0
-163 -2957 2959 0
-2959 2960 0
-169 -2959 0
-163 2958 0
-169 -2958 2960 0
-170 -2960 0
-131 2961 0
-2961 2962 0
-171 -2961 2963 0
-2963 2964 0
-176 -2963 0
-171 2962 0
-176 -2962 2964 0
-178 -2964 0
-131 2965 0
-2965 2966 0
-134 -2965 2967 0
-2967 2968 0
-171 -2967 0
-134 2966 0
-171 -2966 2968 0
-174 -2968 0
-134 2969 0
-2969 2970 0
-167 -2969 2971 0
-2971 2972 0
-173 -2971 0
-167 2970 0
-173 -2970 2972 0
-174 -2972 0
-135 2973 0
-2973 2974 0
-137 -2973 2975 0
-2975 2976 0
-175 -2975 0
-137 2974 0
-175 -2974 2976 0
-178 -2976 0
-135 2977 0
-2977 2978 0
-175 -2977 2979 0
-2979 2980 0
-179 -2979 0
-175 2978 0
-179 -2978 2980 0
-180 -2980 0
-137 2981 0
-2981 2982 0
-171 -2981 2983 0
-2983 2984 0
-177 -2983 0
-171 2982 0
-177 -2982 2984 0
-178 -2984 0
-139 2985 0
-2985 2986 0
-141 -2985 2987 0
-2987 2988 0
-144 -2987 0
-141 2986 0
-144 -2986 2988 0
-146 -2988 0
-140 2989 0
-2989 2990 0
-145 -2989 2991 0
-2991 2992 0
-148 -2991 0
-145 2990 0
-148 -2990 2992 0
-150 -2992 0
-141 2993 0
-2993 2994 0
-144 -2993 2995 0
-2995 2996 0
-182 -2995 0
-144 2994 0
-182 -2994 2996 0
-184 -2996 0
-141 2997 0
-2997 2998 0
-182 -2997 2999 0
-2999 3000 0
-186 -2999 0
-182 2998 0
-186 -2998 3000 0
-188 -3000 0
-143 3001 0
-3001 3002 0
-149 -3001 3003 0
-3003 3004 0
-152 -3003 0
-149 3002 0
-152 -3002 3004 0
-154 -3004 0
-144 3005 0
-3005 3006 0
-181 -3005 3007 0
-3007 3008 0
-183 -3007 0
-181 3006 0
-183 -3006 3008 0
-184 -3008 0
-145 3009 0
-3009 3010 0
-185 -3009 3011 0
-3011 3012 0
-190 -3011 0
-185 3010 0
-190 -3010 3012 0
-192 -3012 0
-145 3013 0
-3013 3014 0
-148 -3013 3015 0
-3015 3016 0
-185 -3015 0
-148 3014 0
-185 -3014 3016 0
-188 -3016 0
-147 3017 0
-3017 3018 0
-153 -3017 3019 0
-3019 3020 0
-156 -3019 0
-153 3018 0
-156 -3018 3020 0
-158 -3020 0
-148 3021 0
-3021 3022 0
-182 -3021 3023 0
-3023 3024 0
-187 -3023 0
-182 3022 0
-187 -3022 3024 0
-188 -3024 0
-149 3025 0
-3025 3026 0
-189 -3025 3027 0
-3027 3028 0
-194 -3027 0
-189 3026 0
-194 -3026 3028 0
-196 -3028 0
-149 3029 0
-3029 3030 0
-152 -3029 3031 0
-3031 3032 0
-189 -3031 0
-152 3030 0
-189 -3030 3032 0
-192 -3032 0
-151 3033 0
-3033 3034 0
-157 -3033 3035 0
-3035 3036 0
-160 -3035 0
-157 3034 0
-160 -3034 3036 0
-162 -3036 0
-152 3037 0
-3037 3038 0
-185 -3037 3039 0
-3039 3040 0
-191 -3039 0
-185 3038 0
-191 -3038 3040 0
-192 -3040 0
-153 3041 0
-3041 3042 0
-156 -3041 3043 0
-3043 3044 0
-193 -3043 0
-156 3042 0
-193 -3042 3044 0
-196 -3044 0
-153 3045 0
-3045 3046 0
-193 -3045 3047 0
-3047 3048 0
-198 -3047 0
-193 3046 0
-198 -3046 3048 0
-200 -3048 0
-155 3049 0
-3049 3050 0
-161 -3049 3051 0
-3051 3052 0
-164 -3051 0
-161 3050 0
-164 -3050 3052 0
-166 -3052 0
-156 3053 0
-3053 3054 0
-189 -3053 3055 0
-3055 3056 0
-195 -3055 0
-189 3054 0
-195 -3054 3056 0
-196 -3056 0
-157 3057 0
-3057 3058 0
-160 -3057 3059 0
-3059 3060 0
-197 -3059 0
-160 3058 0
-197 -3058 3060 0
-200 -3060 0
-157 3061 0
-3061 3062 0
-197 -3061 3063 0
-3063 3064 0
-202 -3063 0
-197 3062 0
-202 -3062 3064 0
-204 -3064 0
-159 3065 0
-3065 3066 0
-165 -3065 3067 0
-3067 3068 0
-168 -3067 0
-165 3066 0
-168 -3066 3068 0
-170 -3068 0
-160 3069 0
-3069 3070 0
-193 -3069 3071 0
-3071 3072 0
-199 -3071 0
-193 3070 0
-199 -3070 3072 0
-200 -3072 0
-161 3073 0
-3073 3074 0
-201 -3073 3075 0
-3075 3076 0
-206 -3075 0
-201 3074 0
-206 -3074 3076 0
-208 -3076 0
-161 3077 0
-3077 3078 0
-164 -3077 3079 0
-3079 3080 0
-201 -3079 0
-164 3078 0
-201 -3078 3080 0
-204 -3080 0
-163 3081 0
-3081 3082 0
-169 -3081 3083 0
-3083 3084 0
-172 -3083 0
-169 3082 0
-172 -3082 3084 0
-174 -3084 0
-164 3085 0
-3085 3086 0
-197 -3085 3087 0
-3087 3088 0
-203 -3087 0
-197 3086 0
-203 -3086 3088 0
-204 -3088 0
-165 3089 0
-3089 3090 0
-205 -3089 3091 0
-3091 3092 0
-210 -3091 0
-205 3090 0
-210 -3090 3092 0
-212 -3092 0
-165 3093 0
-3093 3094 0
-168 -3093 3095 0
-3095 3096 0
-205 -3095 0
-168 3094 0
-205 -3094 3096 0
-208 -3096 0
-167 3097 0
-3097 3098 0
-173 -3097 3099 0
-3099 3100 0
-176 -3099 0
-173 3098 0
-176 -3098 3100 0
-178 -3100 0
-168 3101 0
-3101 3102 0
-201 -3101 3103 0
-3103 3104 0
-207 -3103 0
-201 3102 0
-207 -3102 3104 0
-208 -3104 0
-169 3105 0
-3105 3106 0
-209 -3105 3107 0
-3107 3108 0
-214 -3107 0
-209 3106 0
-214 -3106 3108 0
-216 -3108 0
-169 3109 0
-3109 3110 0
-172 -3109 3111 0
-3111 3112 0
-209 -3111 0
-172 3110 0
-209 -3110 3112 0
-212 -3112 0
-171 3113 0
-3113 3114 0
-177 -3113 3115 0
-3115 3116 0
-179 -3115 0
-177 3114 0
-179 -3114 3116 0
-180 -3116 0
-172 3117 0
-3117 3118 0
-205 -3117 3119 0
-3119 3120 0
-211 -3119 0
-205 3118 0
-211 -3118 3120 0
-212 -3120 0
-173 3121 0
-3121 3122 0
-213 -3121 3123 0
-3123 3124 0
-218 -3123 0
-213 3122 0
-218 -3122 3124 0
-220 -3124 0
-173 3125 0
-3125 3126 0
-176 -3125 3127 0
-3127 3128 0
-213 -3127 0
-176 3126 0
-213 -3126 3128 0
-216 -3128 0
-176 3129 0
-3129 3130 0
-209 -3129 3131 0
-3131 3132 0
-215 -3131 0
-209 3130 0
-215 -3130 3132 0
-216 -3132 0
-177 3133 0
-3133 3134 0
-217 -3133 3135 0
-3135 3136 0
-221 -3135 0
-217 3134 0
-221 -3134 3136 0
-222 -3136 0
-177 3137 0
-3137 3138 0
-179 -3137 3139 0
-3139 3140 0
-217 -3139 0
-179 3138 0
-217 -3138 3140 0
-220 -3140 0
-179 3141 0
-3141 3142 0
-213 -3141 3143 0
-3143 3144 0
-219 -3143 0
-213 3142 0
-219 -3142 3144 0
-220 -3144 0
-181 3145 0
-3145 3146 0
-183 -3145 3147 0
-3147 3148 0
-186 -3147 0
-183 3146 0
-186 -3146 3148 0
-188 -3148 0
-182 3149 0
-3149 3150 0
-187 -3149 3151 0
-3151 3152 0
-190 -3151 0
-187 3150 0
-190 -3150 3152 0
-192 -3152 0
-183 3153 0
-3153 3154 0
-186 -3153 3155 0
-3155 3156 0
-224 -3155 0
-186 3154 0
-224 -3154 3156 0
-226 -3156 0
-183 3157 0
-3157 3158 0
-224 -3157 3159 0
-3159 3160 0
-228 -3159 0
-224 3158 0
-228 -3158 3160 0
-230 -3160 0
-185 3161 0
-3161 3162 0
-191 -3161 3163 0
-3163 3164 0
-194 -3163 0
-191 3162 0
-194 -3162 3164 0
-196 -3164 0
-186 3165 0
-3165 3166 0
-223 -3165 3167 0
-3167 3168 0
-225 -3167 0
-223 3166 0
-225 -3166 3168 0
-226 -3168 0
-187 3169 0
-3169 3170 0
-227 -3169 3171 0
-3171 3172 0
-232 -3171 0
-227 3170 0
-232 -3170 3172 0
-234 -3172 0
-187 3173 0
-3173 3174 0
-190 -3173 3175 0
-3175 3176 0
-227 -3175 0
-190 3174 0
-227 -3174 3176 0
-230 -3176 0
-189 3177 0
-3177 3178 0
-195 -3177 3179 0
-3179 3180 0
-198 -3179 0
-195 3178 0
-198 -3178 3180 0
-200 -3180 0
-190 3181 0
-3181 3182 0
-224 -3181 3183 0
-3183 3184 0
-229 -3183 0
-224 3182 0
-229 -3182 3184 0
-230 -3184 0
-191 3185 0
-3185 3186 0
-231 -3185 3187 0
-3187 3188 0
-236 -3187 0
-231 3186 0
-236 -3186 3188 0
-238 -3188 0
-191 3189 0
-3189 3190 0
-194 -3189 3191 0
-3191 3192 0
-231 -3191 0
-194 3190 0
-231 -3190 3192 0
-234 -3192 0
-193 3193 0
-3193 3194 0
-199 -3193 3195 0
-3195 3196 0
-202 -3195 0
-199 3194 0
-202 -3194 3196 0
-204 -3196 0
-194 3197 0
-3197 3198 0
-227 -3197 3199 0
-3199 3200 0
-233 -3199 0
-227 3198 0
-233 -3198 3200 0
-234 -3200 0
-195 3201 0
-3201 3202 0
-198 -3201 3203 0
-3203 3204 0
-235 -3203 0
-198 3202 0
-235 -3202 3204 0
-238 -3204 0
-195 3205 0
-3205 3206 0
-235 -3205 3207 0
-3207 3208 0
-240 -3207 0
-235 3206 0
-240 -3206 3208 0
-242 -3208 0
-197 3209 0
-3209 3210 0
-203 -3209 3211 0
-3211 3212 0
-206 -3211 0
-203 3210 0
-206 -3210 3212 0
-208 -3212 0
-198 3213 0
-3213 3214 0
-231 -3213 3215 0
-3215 3216 0
-237 -3215 0
-231 3214 0
-237 -3214 3216 0
-238 -3216 0
-199 3217 0
-3217 3218 0
-202 -3217 3219 0
-3219 3220 0
-239 -3219 0
-202 3218 0
-239 -3218 3220 0
-242 -3220 0
-199 3221 0
-3221 3222 0
-239 -3221 3223 0
-3223 3224 0
-244 -3223 0
-239 3222 0
-244 -3222 3224 0
-246 -3224 0
-201 3225 0
-3225 3226 0
-207 -3225 3227 0
-3227 3228 0
-210 -3227 0
-207 3226 0
-210 -3226 3228 0
-212 -3228 0
-202 3229 0
-3229 3230 0
-235 -3229 3231 0
-3231 3232 0
-241 -3231 0
-235 3230 0
-241 -3230 3232 0
-242 -3232 0
-203 3233 0
-3233 3234 0
-243 -3233 3235 0
-3235 3236 0
-248 -3235 0
-243 3234 0
-248 -3234 3236 0
-250 -3236 0
-203 3237 0
-3237 3238 0
-206 -3237 3239 0
-3239 3240 0
-243 -3239 0
-206 3238 0
-243 -3238 3240 0
-246 -3240 0
-205 3241 0
-3241 3242 0
-211 -3241 3243 0
-3243 3244 0
-214 -3243 0
-211 3242 0
-214 -3242 3244 0
-216 -3244 0
-206 3245 0
-3245 3246 0
-239 -3245 3247 0
-3247 3248 0
-245 -3247 0
-239 3246 0
-245 -3246 3248 0
-246 -3248 0
-207 3249 0
-3249 3250 0
-247 -3249 3251 0
-3251 3252 0
-252 -3251 0
-247 3250 0
-252 -3250 3252 0
-254 -3252 0
-207 3253 0
-3253 3254 0
-210 -3253 3255 0
-3255 3256 0
-247 -3255 0
-210 3254 0
-247 -3254 3256 0
-250 -3256 0
-209 3257 0
-3257 3258 0
-215 -3257 3259 0
-3259 3260 0
-218 -3259 0
-215 3258 0
-218 -3258 3260 0
-220 -3260 0
-210 3261 0
-3261 3262 0
-243 -3261 3263 0
-3263 3264 0
-249 -3263 0
-243 3262 0
-249 -3262 3264 0
-250 -3264 0
-211 3265 0
-3265 3266 0
-251 -3265 3267 0
-3267 3268 0
-256 -3267 0
-251 3266 0
-256 -3266 3268 0
-258 -3268 0
-211 3269 0
-3269 3270 0
-214 -3269 3271 0
-3271 3272 0
-251 -3271 0
-214 3270 0
-251 -3270 3272 0
-254 -3272 0
-213 3273 0
-3273 3274 0
-219 -3273 3275 0
-3275 3276 0
-221 -3275 0
-219 3274 0
-221 -3274 3276 0
-222 -3276 0
-214 3277 0
-3277 3278 0
-247 -3277 3279 0
-3279 3280 0
-253 -3279 0
-247 3278 0
-253 -3278 3280 0
-254 -3280 0
-215 3281 0
-3281 3282 0
-255 -3281 3283 0
-3283 3284 0
-260 -3283 0
-255 3282 0
-260 -3282 3284 0
-262 -3284 0
-215 3285 0
-3285 3286 0
-218 -3285 3287 0
-3287 3288 0
-255 -3287 0
-218 3286 0
-255 -3286 3288 0
-258 -3288 0
-218 3289 0
-3289 3290 0
-251 -3289 3291 0
-3291 3292 0
-257 -3291 0
-251 3290 0
-257 -3290 3292 0
-258 -3292 0
-219 3293 0
-3293 3294 0
-259 -3293 3295 0
-3295 3296 0
-263 -3295 0
-259 3294 0
-263 -3294 3296 0
-264 -3296 0
-219 3297 0
-3297 3298 0
-221 -3297 3299 0
-3299 3300 0
-259 -3299 0
-221 3298 0
-259 -3298 3300 0
-262 -3300 0
-221 3301 0
-3301 3302 0
-255 -3301 3303 0
-3303 3304 0
-261 -3303 0
-255 3302 0
-261 -3302 3304 0
-262 -3304 0
-223 3305 0
-3305 3306 0
-225 -3305 3307 0
-3307 3308 0
-228 -3307 0
-225 3306 0
-228 -3306 3308 0
-230 -3308 0
-224 3309 0
-3309 3310 0
-229 -3309 3311 0
-3311 3312 0
-232 -3311 0
-229 3310 0
-232 -3310 3312 0
-234 -3312 0
-225 3313 0
-3313 3314 0
-228 -3313 3315 0
-3315 3316 0
-266 -3315 0
-228 3314 0
-266 -3314 3316 0
-268 -3316 0
-225 3317 0
-3317 3318 0
-266 -3317 3319 0
-3319 3320 0
-270 -3319 0
-266 3318 0
-270 -3318 3320 0
-272 -3320 0
-227 3321 0
-3321 3322 0
-233 -3321 3323 0
-3323 3324 0
-236 -3323 0
-233 3322 0
-236 -3322 3324 0
-238 -3324 0
-228 3325 0
-3325 3326 0
-265 -3325 3327 0
-3327 3328 0
-267 -3327 0
-265 3326 0
-267 -3326 3328 0
-268 -3328 0
-229 3329 0
-3329 3330 0
-269 -3329 3331 0
-3331 3332 0
-274 -3331 0
-269 3330 0
-274 -3330 3332 0
-276 -3332 0
-229 3333 0
-3333 3334 0
-232 -3333 3335 0
-3335 3336 0
-269 -3335 0
-232 3334 0
-269 -3334 3336 0
-272 -3336 0
-231 3337 0
-3337 3338 0
-237 -3337 3339 0
-3339 3340 0
-240 -3339 0
-237 3338 0
-240 -3338 3340 0
-242 -3340 0
-232 3341 0
-3341 3342 0
-266 -3341 3343 0
-3343 3344 0
-271 -3343 0
-266 3342 0
-271 -3342 3344 0
-272 -3344 0
-233 3345 0
-3345 3346 0
-273 -3345 3347 0
-3347 3348 0
-278 -3347 0
-273 3346 0
-278 -3346 3348 0
-280 -3348 0
-233 3349 0
-3349 3350 0
-236 -3349 3351 0
-3351 3352 0
-273 -3351 0
-236 3350 0
-273 -3350 3352 0
-276 -3352 0
-235 3353 0
-3353 3354 0
-241 -3353 3355 0
-3355 3356 0
-244 -3355 0
-241 3354 0
-244 -3354 3356 0
-246 -3356 0
-236 3357 0
-3357 3358 0
-269 -3357 3359 0
-3359 3360 0
-275 -3359 0
-269 3358 0
-275 -3358 3360 0
-276 -3360 0
-237 3361 0
-3361 3362 0
-277 -3361 3363 0
-3363 3364 0
-282 -3363 0
-277 3362 0
-282 -3362 3364 0
-284 -3364 0
-237 3365 0
-3365 3366 0
-240 -3365 3367 0
-3367 3368 0
-277 -3367 0
-240 3366 0
-277 -3366 3368 0
-280 -3368 0
-239 3369 0
-3369 3370 0
-245 -3369 3371 0
-3371 3372 0
-248 -3371 0
-245 3370 0
-248 -3370 3372 0
-250 -3372 0
-240 3373 0
-3373 3374 0
-273 -3373 3375 0
-3375 3376 0
-279 -3375 0
-273 3374 0
-279 -3374 3376 0
-280 -3376 0
-241 3377 0
-3377 3378 0
-281 -3377 3379 0
-3379 3380 0
-286 -3379 0
-281 3378 0
-286 -3378 3380 0
-288 -3380 0
-241 3381 0
-3381 3382 0
-244 -3381 3383 0
-3383 3384 0
-281 -3383 0
-244 3382 0
-281 -3382 3384 0
-284 -3384 0
-243 3385 0
-3385 3386 0
-249 -3385 3387 0
-3387 3388 0
-252 -3387 0
-249 3386 0
-252 -3386 3388 0
-254 -3388 0
-244 3389 0
-3389 3390 0
-277 -3389 3391 0
-3391 3392 0
-283 -3391 0
-277 3390 0
-283 -3390 3392 0
-284 -3392 0
-245 3393 0
-3393 3394 0
-285 -3393 3395 0
-3395 3396 0
-290 -3395 0
-285 3394 0
-290 -3394 3396 0
-292 -3396 0
-245 3397 0
-3397 3398 0
-248 -3397 3399 0
-3399 3400 0
-285 -3399 0
-248 3398 0
-285 -3398 3400 0
-288 -3400 0
-247 3401 0
-3401 3402 0
-253 -3401 3403 0
-3403 3404 0
-256 -3403 0
-253 3402 0
-256 -3402 3404 0
-258 -3404 0
-248 3405 0
-3405 3406 0
-281 -3405 3407 0
-3407 3408 0
-287 -3407 0
-281 3406 0
-287 -3406 3408 0
-288 -3408 0
-249 3409 0
-3409 3410 0
-252 -3409 3411 0
-3411 3412 0
-289 -3411 0
-252 3410 0
-289 -3410 3412 0
-292 -3412 0
-249 3413 0
-3413 3414 0
-289 -3413 3415 0
-3415 3416 0
-294 -3415 0
-289 3414 0
-294 -3414 3416 0
-296 -3416 0
-251 3417 0
-3417 3418 0
-257 -3417 3419 0
-3419 3420 0
-260 -3419 0
-257 3418 0
-260 -3418 3420 0
-262 -3420 0
-252 3421 0
-3421 3422 0
-285 -3421 3423 0
-3423 3424 0
-291 -3423 0
-285 3422 0
-291 -3422 3424 0
-292 -3424 0
-253 3425 0
-3425 3426 0
-293 -3425 3427 0
-3427 3428 0
-298 -3427 0
-293 3426 0
-298 -3426 3428 0
-300 -3428 0
-253 3429 0
-3429 3430 0
-256 -3429 3431 0
-3431 3432 0
-293 -3431 0
-256 3430 0
-293 -3430 3432 0
-296 -3432 0
-255 3433 0
-3433 3434 0
-261 -3433 3435 0
-3435 3436 0
-263 -3435 0
-261 3434 0
-263 -3434 3436 0
-264 -3436 0
-256 3437 0
-3437 3438 0
-289 -3437 3439 0
-3439 3440 0
-295 -3439 0
-289 3438 0
-295 -3438 3440 0
-296 -3440 0
-257 3441 0
-3441 3442 0
-297 -3441 3443 0
-3443 3444 0
-302 -3443 0
-297 3442 0
-302 -3442 3444 0
-304 -3444 0
-257 3445 0
-3445 3446 0
-260 -3445 3447 0
-3447 3448 0
-297 -3447 0
-260 3446 0
-297 -3446 3448 0
-300 -3448 0
-260 3449 0
-3449 3450 0
-293 -3449 3451 0
-3451 3452 0
-299 -3451 0
-293 3450 0
-299 -3450 3452 0
-300 -3452 0
-261 3453 0
-3453 3454 0
-263 -3453 3455 0
-3455 3456 0
-301 -3455 0
-263 3454 0
-301 -3454 3456 0
-304 -3456 0
-261 3457 0
-3457 3458 0
-301 -3457 3459 0
-3459 3460 0
-305 -3459 0
-301 3458 0
-305 -3458 3460 0
-306 -3460 0
-263 3461 0
-3461 3462 0
-297 -3461 3463 0
-3463 3464 0
-303 -3463 0
-297 3462 0
-303 -3462 3464 0
-304 -3464 0
-265 3465 0
-3465 3466 0
-267 -3465 3467 0
-3467 3468 0
-270 -3467 0
-267 3466 0
-270 -3466 3468 0
-272 -3468 0
-266 3469 0
-3469 3470 0
-271 -3469 3471 0
-3471 3472 0
-274 -3471 0
-271 3470 0
-274 -3470 3472 0
-276 -3472 0
-267 3473 0
-3473 3474 0
-308 -3473 3475 0
-3475 3476 0
-312 -3475 0
-308 3474 0
-312 -3474 3476 0
-314 -3476 0
-267 3477 0
-3477 3478 0
-270 -3477 3479 0
-3479 3480 0
-308 -3479 0
-270 3478 0
-308 -3478 3480 0
-310 -3480 0
-269 3481 0
-3481 3482 0
-275 -3481 3483 0
-3483 3484 0
-278 -3483 0
-275 3482 0
-278 -3482 3484 0
-280 -3484 0
-270 3485 0
-3485 3486 0
-307 -3485 3487 0
-3487 3488 0
-309 -3487 0
-307 3486 0
-309 -3486 3488 0
-310 -3488 0
-271 3489 0
-3489 3490 0
-311 -3489 3491 0
-3491 3492 0
-316 -3491 0
-311 3490 0
-316 -3490 3492 0
-318 -3492 0
-271 3493 0
-3493 3494 0
-274 -3493 3495 0
-3495 3496 0
-311 -3495 0
-274 3494 0
-311 -3494 3496 0
-314 -3496 0
-273 3497 0
-3497 3498 0
-279 -3497 3499 0
-3499 3500 0
-282 -3499 0
-279 3498 0
-282 -3498 3500 0
-284 -3500 0
-274 3501 0
-3501 3502 0
-308 -3501 3503 0
-3503 3504 0
-313 -3503 0
-308 3502 0
-313 -3502 3504 0
-314 -3504 0
-275 3505 0
-3505 3506 0
-278 -3505 3507 0
-3507 3508 0
-315 -3507 0
-278 3506 0
-315 -3506 3508 0
-318 -3508 0
-275 3509 0
-3509 3510 0
-315 -3509 3511 0
-3511 3512 0
-320 -3511 0
-315 3510 0
-320 -3510 3512 0
-322 -3512 0
-277 3513 0
-3513 3514 0
-283 -3513 3515 0
-3515 3516 0
-286 -3515 0
-283 3514 0
-286 -3514 3516 0
-288 -3516 0
-278 3517 0
-3517 3518 0
-311 -3517 3519 0
-3519 3520 0
-317 -3519 0
-311 3518 0
-317 -3518 3520 0
-318 -3520 0
-279 3521 0
-3521 3522 0
-282 -3521 3523 0
-3523 3524 0
-319 -3523 0
-282 3522 0
-319 -3522 3524 0
-322 -3524 0
-279 3525 0
-3525 3526 0
-319 -3525 3527 0
-3527 3528 0
-324 -3527 0
-319 3526 0
-324 -3526 3528 0
-326 -3528 0
-281 3529 0
-3529 3530 0
-287 -3529 3531 0
-3531 3532 0
-290 -3531 0
-287 3530 0
-290 -3530 3532 0
-292 -3532 0
-282 3533 0
-3533 3534 0
-315 -3533 3535 0
-3535 3536 0
-321 -3535 0
-315 3534 0
-321 -3534 3536 0
-322 -3536 0
-283 3537 0
-3537 3538 0
-286 -3537 3539 0
-3539 3540 0
-323 -3539 0
-286 3538 0
-323 -3538 3540 0
-326 -3540 0
-283 3541 0
-3541 3542 0
-323 -3541 3543 0
-3543 3544 0
-328 -3543 0
-323 3542 0
-328 -3542 3544 0
-330 -3544 0
-285 3545 0
-3545 3546 0
-291 -3545 3547 0
-3547 3548 0
-294 -3547 0
-291 3546 0
-294 -3546 3548 0
-296 -3548 0
-286 3549 0
-3549 3550 0
-319 -3549 3551 0
-3551 3552 0
-325 -3551 0
-319 3550 0
-325 -3550 3552 0
-326 -3552 0
-287 3553 0
-3553 3554 0
-327 -3553 3555 0
-3555 3556 0
-332 -3555 0
-327 3554 0
-332 -3554 3556 0
-334 -3556 0
-287 3557 0
-3557 3558 0
-290 -3557 3559 0
-3559 3560 0
-327 -3559 0
-290 3558 0
-327 -3558 3560 0
-330 -3560 0
-289 3561 0
-3561 3562 0
-295 -3561 3563 0
-3563 3564 0
-298 -3563 0
-295 3562 0
-298 -3562 3564 0
-300 -3564 0
-290 3565 0
-3565 3566 0
-323 -3565 3567 0
-3567 3568 0
-329 -3567 0
-323 3566 0
-329 -3566 3568 0
-330 -3568 0
-291 3569 0
-3569 3570 0
-331 -3569 3571 0
-3571 3572 0
-336 -3571 0
-331 3570 0
-336 -3570 3572 0
-338 -3572 0
-291 3573 0
-3573 3574 0
-294 -3573 3575 0
-3575 3576 0
-331 -3575 0
-294 3574 0
-331 -3574 3576 0
-334 -3576 0
-293 3577 0
-3577 3578 0
-299 -3577 3579 0
-3579 3580 0
-302 -3579 0
-299 3578 0
-302 -3578 3580 0
-304 -3580 0
-294 3581 0
-3581 3582 0
-327 -3581 3583 0
-3583 3584 0
-333 -3583 0
-327 3582 0
-333 -3582 3584 0
-334 -3584 0
-295 3585 0
-3585 3586 0
-335 -3585 3587 0
-3587 3588 0
-340 -3587 0
-335 3586 0
-340 -3586 3588 0
-342 -3588 0
-295 3589 0
-3589 3590 0
-298 -3589 3591 0
-3591 3592 0
-335 -3591 0
-298 3590 0
-335 -3590 3592 0
-338 -3592 0
-297 3593 0
-3593 3594 0
-303 -3593 3595 0
-3595 3596 0
-305 -3595 0
-303 3594 0
-305 -3594 3596 0
-306 -3596 0
-298 3597 0
-3597 3598 0
-331 -3597 3599 0
-3599 3600 0
-337 -3599 0
-331 3598 0
-337 -3598 3600 0
-338 -3600 0
-299 3601 0
-3601 3602 0
-339 -3601 3603 0
-3603 3604 0
-344 -3603 0
-339 3602 0
-344 -3602 3604 0
-346 -3604 0
-299 3605 0
-3605 3606 0
-302 -3605 3607 0
-3607 3608 0
-339 -3607 0
-302 3606 0
-339 -3606 3608 0
-342 -3608 0
-302 3609 0
-3609 3610 0
-335 -3609 3611 0
-3611 3612 0
-341 -3611 0
-335 3610 0
-341 -3610 3612 0
-342 -3612 0
-303 3613 0
-3613 3614 0
-343 -3613 3615 0
-3615 3616 0
-347 -3615 0
-343 3614 0
-347 -3614 3616 0
-348 -3616 0
-303 3617 0
-3617 3618 0
-305 -3617 3619 0
-3619 3620 0
-343 -3619 0
-305 3618 0
-343 -3618 3620 0
-346 -3620 0
-305 3621 0
-3621 3622 0
-339 -3621 3623 0
-3623 3624 0
-345 -3623 0
-339 3622 0
-345 -3622 3624 0
-346 -3624 0
-307 3625 0
-3625 3626 0
-309 -3625 3627 0
-3627 3628 0
-312 -3627 0
-309 3626 0
-312 -3626 3628 0
-314 -3628 0
-308 3629 0
-3629 3630 0
-313 -3629 3631 0
-3631 3632 0
-316 -3631 0
-313 3630 0
-316 -3630 3632 0
-318 -3632 0
-309 3633 0
-3633 3634 0
-350 -3633 3635 0
-3635 3636 0
-353 -3635 0
-350 3634 0
-353 -3634 3636 0
-355 -3636 0
-309 3637 0
-3637 3638 0
-312 -3637 3639 0
-3639 3640 0
-350 -3639 0
-312 3638 0
-350 -3638 3640 0
-351 -3640 0
-311 3641 0
-3641 3642 0
-317 -3641 3643 0
-3643 3644 0
-320 -3643 0
-317 3642 0
-320 -3642 3644 0
-322 -3644 0
-312 -349 -351 0
-313 3645 0
-3645 3646 0
-316 -3645 3647 0
-3647 3648 0
-352 -3647 0
-316 3646 0
-352 -3646 3648 0
-355 -3648 0
-313 3649 0
-3649 3650 0
-352 -3649 3651 0
-3651 3652 0
-357 -3651 0
-352 3650 0
-357 -3650 3652 0
-359 -3652 0
-315 3653 0
-3653 3654 0
-321 -3653 3655 0
-3655 3656 0
-324 -3655 0
-321 3654 0
-324 -3654 3656 0
-326 -3656 0
-316 3657 0
-3657 3658 0
-350 -3657 3659 0
-3659 3660 0
-354 -3659 0
-350 3658 0
-354 -3658 3660 0
-355 -3660 0
-317 3661 0
-3661 3662 0
-356 -3661 3663 0
-3663 3664 0
-361 -3663 0
-356 3662 0
-361 -3662 3664 0
-363 -3664 0
-317 3665 0
-3665 3666 0
-320 -3665 3667 0
-3667 3668 0
-356 -3667 0
-320 3666 0
-356 -3666 3668 0
-359 -3668 0
-319 3669 0
-3669 3670 0
-325 -3669 3671 0
-3671 3672 0
-328 -3671 0
-325 3670 0
-328 -3670 3672 0
-330 -3672 0
-320 3673 0
-3673 3674 0
-352 -3673 3675 0
-3675 3676 0
-358 -3675 0
-352 3674 0
-358 -3674 3676 0
-359 -3676 0
-321 3677 0
-3677 3678 0
-360 -3677 3679 0
-3679 3680 0
-365 -3679 0
-360 3678 0
-365 -3678 3680 0
-367 -3680 0
-321 3681 0
-3681 3682 0
-324 -3681 3683 0
-3683 3684 0
-360 -3683 0
-324 3682 0
-360 -3682 3684 0
-363 -3684 0
-323 3685 0
-3685 3686 0
-329 -3685 3687 0
-3687 3688 0
-332 -3687 0
-329 3686 0
-332 -3686 3688 0
-334 -3688 0
-324 3689 0
-3689 3690 0
-356 -3689 3691 0
-3691 3692 0
-362 -3691 0
-356 3690 0
-362 -3690 3692 0
-363 -3692 0
-325 3693 0
-3693 3694 0
-364 -3693 3695 0
-3695 3696 0
-369 -3695 0
-364 3694 0
-369 -3694 3696 0
-371 -3696 0
-325 3697 0
-3697 3698 0
-328 -3697 3699 0
-3699 3700 0
-364 -3699 0
-328 3698 0
-364 -3698 3700 0
-367 -3700 0
-327 3701 0
-3701 3702 0
-333 -3701 3703 0
-3703 3704 0
-336 -3703 0
-333 3702 0
-336 -3702 3704 0
-338 -3704 0
-328 3705 0
-3705 3706 0
-360 -3705 3707 0
-3707 3708 0
-366 -3707 0
-360 3706 0
-366 -3706 3708 0
-367 -3708 0
-329 3709 0
-3709 3710 0
-368 -3709 3711 0
-3711 3712 0
-373 -3711 0
-368 3710 0
-373 -3710 3712 0
-375 -3712 0
-329 3713 0
-3713 3714 0
-332 -3713 3715 0
-3715 3716 0
-368 -3715 0
-332 3714 0
-368 -3714 3716 0
-371 -3716 0
-331 3717 0
-3717 3718 0
-337 -3717 3719 0
-3719 3720 0
-340 -3719 0
-337 3718 0
-340 -3718 3720 0
-342 -3720 0
-332 3721 0
-3721 3722 0
-364 -3721 3723 0
-3723 3724 0
-370 -3723 0
-364 3722 0
-370 -3722 3724 0
-371 -3724 0
-333 3725 0
-3725 3726 0
-336 -3725 3727 0
-3727 3728 0
-372 -3727 0
-336 3726 0
-372 -3726 3728 0
-375 -3728 0
-333 3729 0
-3729 3730 0
-372 -3729 3731 0
-3731 3732 0
-377 -3731 0
-372 3730 0
-377 -3730 3732 0
-379 -3732 0
-335 3733 0
-3733 3734 0
-341 -3733 3735 0
-3735 3736 0
-344 -3735 0
-341 3734 0
-344 -3734 3736 0
-346 -3736 0
-336 3737 0
-3737 3738 0
-368 -3737 3739 0
-3739 3740 0
-374 -3739 0
-368 3738 0
-374 -3738 3740 0
-375 -3740 0
-337 3741 0
-3741 3742 0
-376 -3741 3743 0
-3743 3744 0
-381 -3743 0
-376 3742 0
-381 -3742 3744 0
-383 -3744 0
-337 3745 0
-3745 3746 0
-340 -3745 3747 0
-3747 3748 0
-376 -3747 0
-340 3746 0
-376 -3746 3748 0
-379 -3748 0
-339 3749 0
-3749 3750 0
-345 -3749 3751 0
-3751 3752 0
-347 -3751 0
-345 3750 0
-347 -3750 3752 0
-348 -3752 0
-340 3753 0
-3753 3754 0
-372 -3753 3755 0
-3755 3756 0
-378 -3755 0
-372 3754 0
-378 -3754 3756 0
-379 -3756 0
-341 3757 0
-3757 3758 0
-380 -3757 3759 0
-3759 3760 0
-385 -3759 0
-380 3758 0
-385 -3758 3760 0
-387 -3760 0
-341 3761 0
-3761 3762 0
-344 -3761 3763 0
-3763 3764 0
-380 -3763 0
-344 3762 0
-380 -3762 3764 0
-383 -3764 0
-344 3765 0
-3765 3766 0
-376 -3765 3767 0
-3767 3768 0
-382 -3767 0
-376 3766 0
-382 -3766 3768 0
-383 -3768 0
-345 3769 0
-3769 3770 0
-347 -3769 3771 0
-3771 3772 0
-384 -3771 0
-347 3770 0
-384 -3770 3772 0
-387 -3772 0
-345 -384 -388 0
-347 3773 0
-3773 3774 0
-380 -3773 3775 0
-3775 3776 0
-386 -3775 0
-380 3774 0
-386 -3774 3776 0
-387 -3776 0
-349 -353 -355 0
-350 3777 0
-3777 3778 0
-354 -3777 3779 0
-3779 3780 0
-357 -3779 0
-354 3778 0
-357 -3778 3780 0
-359 -3780 0
-352 3781 0
-3781 3782 0
-358 -3781 3783 0
-3783 3784 0
-361 -3783 0
-358 3782 0
-361 -3782 3784 0
-363 -3784 0
-354 3785 0
-3785 3786 0
-390 -3785 3787 0
-3787 3788 0
-395 -3787 0
-390 3786 0
-395 -3786 3788 0
-397 -3788 0
-354 3789 0
-3789 3790 0
-357 -3789 3791 0
-3791 3792 0
-390 -3791 0
-357 3790 0
-390 -3790 3792 0
-393 -3792 0
-356 3793 0
-3793 3794 0
-362 -3793 3795 0
-3795 3796 0
-365 -3795 0
-362 3794 0
-365 -3794 3796 0
-367 -3796 0
-357 -392 -393 0
-358 3797 0
-3797 3798 0
-394 -3797 3799 0
-3799 3800 0
-399 -3799 0
-394 3798 0
-399 -3798 3800 0
-401 -3800 0
-358 3801 0
-3801 3802 0
-361 -3801 3803 0
-3803 3804 0
-394 -3803 0
-361 3802 0
-394 -3802 3804 0
-397 -3804 0
-360 3805 0
-3805 3806 0
-366 -3805 3807 0
-3807 3808 0
-369 -3807 0
-366 3806 0
-369 -3806 3808 0
-371 -3808 0
-361 3809 0
-3809 3810 0
-390 -3809 3811 0
-3811 3812 0
-396 -3811 0
-390 3810 0
-396 -3810 3812 0
-397 -3812 0
-362 3813 0
-3813 3814 0
-365 -3813 3815 0
-3815 3816 0
-398 -3815 0
-365 3814 0
-398 -3814 3816 0
-401 -3816 0
-362 3817 0
-3817 3818 0
-398 -3817 3819 0
-3819 3820 0
-403 -3819 0
-398 3818 0
-403 -3818 3820 0
-405 -3820 0
-364 3821 0
-3821 3822 0
-370 -3821 3823 0
-3823 3824 0
-373 -3823 0
-370 3822 0
-373 -3822 3824 0
-375 -3824 0
-365 3825 0
-3825 3826 0
-394 -3825 3827 0
-3827 3828 0
-400 -3827 0
-394 3826 0
-400 -3826 3828 0
-401 -3828 0
-366 3829 0
-3829 3830 0
-369 -3829 3831 0
-3831 3832 0
-402 -3831 0
-369 3830 0
-402 -3830 3832 0
-405 -3832 0
-366 3833 0
-3833 3834 0
-402 -3833 3835 0
-3835 3836 0
-407 -3835 0
-402 3834 0
-407 -3834 3836 0
-409 -3836 0
-368 3837 0
-3837 3838 0
-374 -3837 3839 0
-3839 3840 0
-377 -3839 0
-374 3838 0
-377 -3838 3840 0
-379 -3840 0
-369 3841 0
-3841 3842 0
-398 -3841 3843 0
-3843 3844 0
-404 -3843 0
-398 3842 0
-404 -3842 3844 0
-405 -3844 0
-370 3845 0
-3845 3846 0
-406 -3845 3847 0
-3847 3848 0
-411 -3847 0
-406 3846 0
-411 -3846 3848 0
-413 -3848 0
-370 3849 0
-3849 3850 0
-373 -3849 3851 0
-3851 3852 0
-406 -3851 0
-373 3850 0
-406 -3850 3852 0
-409 -3852 0
-372 3853 0
-3853 3854 0
-378 -3853 3855 0
-3855 3856 0
-381 -3855 0
-378 3854 0
-381 -3854 3856 0
-383 -3856 0
-373 3857 0
-3857 3858 0
-402 -3857 3859 0
-3859 3860 0
-408 -3859 0
-402 3858 0
-408 -3858 3860 0
-409 -3860 0
-374 3861 0
-3861 3862 0
-410 -3861 3863 0
-3863 3864 0
-415 -3863 0
-410 3862 0
-415 -3862 3864 0
-417 -3864 0
-374 3865 0
-3865 3866 0
-377 -3865 3867 0
-3867 3868 0
-410 -3867 0
-377 3866 0
-410 -3866 3868 0
-413 -3868 0
-376 3869 0
-3869 3870 0
-382 -3869 3871 0
-3871 3872 0
-385 -3871 0
-382 3870 0
-385 -3870 3872 0
-387 -3872 0
-377 3873 0
-3873 3874 0
-406 -3873 3875 0
-3875 3876 0
-412 -3875 0
-406 3874 0
-412 -3874 3876 0
-413 -3876 0
-378 3877 0
-3877 3878 0
-381 -3877 3879 0
-3879 3880 0
-414 -3879 0
-381 3878 0
-414 -3878 3880 0
-417 -3880 0
-378 3881 0
-3881 3882 0
-414 -3881 3883 0
-3883 3884 0
-419 -3883 0
-414 3882 0
-419 -3882 3884 0
-421 -3884 0
-380 -386 -388 0
-381 3885 0
-3885 3886 0
-410 -3885 3887 0
-3887 3888 0
-416 -3887 0
-410 3886 0
-416 -3886 3888 0
-417 -3888 0
-382 3889 0
-3889 3890 0
-385 -3889 3891 0
-3891 3892 0
-418 -3891 0
-385 3890 0
-418 -3890 3892 0
-421 -3892 0
-382 -418 -423 0
-385 3893 0
-3893 3894 0
-414 -3893 3895 0
-3895 3896 0
-420 -3895 0
-414 3894 0
-420 -3894 3896 0
-421 -3896 0
-390 3897 0
-3897 3898 0
-396 -3897 3899 0
-3899 3900 0
-399 -3899 0
-396 3898 0
-399 -3898 3900 0
-401 -3900 0
-392 -395 -397 0
-394 3901 0
-3901 3902 0
-400 -3901 3903 0
-3903 3904 0
-403 -3903 0
-400 3902 0
-403 -3902 3904 0
-405 -3904 0
-398 3905 0
-3905 3906 0
-404 -3905 3907 0
-3907 3908 0
-407 -3907 0
-404 3906 0
-407 -3906 3908 0
-409 -3908 0
-402 3909 0
-3909 3910 0
-408 -3909 3911 0
-3911 3912 0
-411 -3911 0
-408 3910 0
-411 -3910 3912 0
-413 -3912 0
-406 3913 0
-3913 3914 0
-412 -3913 3915 0
-3915 3916 0
-415 -3915 0
-412 3914 0
-415 -3914 3916 0
-417 -3916 0
-410 3917 0
-3917 3918 0
-416 -3917 3919 0
-3919 3920 0
-419 -3919 0
-416 3918 0
-419 -3918 3920 0
-421 -3920 0
-414 -420 -423 0
-3921 206 239 245 246 0
-3921 -206 -239 0
-3921 -206 -245 0
-3921 -206 -246 0
-3921 -239 -245 0
-3921 -239 -246 0
-3921 -245 -246 0
3921 -206 239 245 246 0
3921 -239 206 245 246 0
3921 -245 206 239 246 0
3921 -246 206 239 245 0
-3922 239 245 248 250 0
-3922 -239 -245 0
-3922 -239 -248 0
-3922 -239 -250 0
-3922 -245 -248 0
-3922 -245 -250 0
-3922 -248 -250 0
3922 -239 245 248 250 0
3922 -245 239 248 250 0
3922 -248 239 245 250 0
3922 -250 239 245 248 0
-3923 203 243 248 250 0
-3923 -203 -243 0
-3923 -203 -248 0
-3923 -203 -250 0
-3923 -243 -248 0
-3923 -243 -250 0
-3923 -248 -250 0
3923 -203 243 248 250 0
3923 -243 203 248 250 0
3923 -248 203 243 250 0
3923 -250 203 243 248 0
-3924 203 206 243 246 0
-3924 -203 -206 0
-3924 -203 -243 0
-3924 -203 -246 0
-3924 -206 -243 0
-3924 -206 -246 0
-3924 -243 -246 0
3924 -203 206 243 246 0
3924 -206 203 243 246 0
3924 -243 203 206 246 0
3924 -246 203 206 243 0
3921 3925 0
-3925 3926 0
3922 -3925 3927 0
-3927 3928 0
3923 -3927 0
3922 3926 0
3923 -3926 3928 0
3924 -3928 0
-3921 3929 0
-3929 3930 0
-3922 -3929 3931 0
-3931 3932 0
-3923 -3931 0
-3922 3930 0
-3923 -3930 3932 0
-3924 -3932 0
