p cnf 5812 12124
1 609 0
-609 610 0
3 -609 611 0
-611 612 0
23 -611 613 0
-613 614 0
31 -613 615 0
-615 616 0
70 -615 617 0
-617 618 0
71 -617 619 0
-619 620 0
72 -619 0
3 610 0
23 -610 612 0
31 -612 614 0
70 -614 616 0
71 -616 618 0
72 -618 620 0
73 -620 0
-1 621 0
-621 622 0
-3 -621 623 0
-623 624 0
-23 -623 0
-3 622 0
-622 625 0
-23 -622 624 0
-624 626 0
-31 -624 0
-23 625 0
-625 627 0
-31 -625 626 0
-626 628 0
-70 -626 0
-31 627 0
-627 629 0
-70 -627 628 0
-628 630 0
-71 -628 0
-70 629 0
-629 631 0
-71 -629 630 0
-630 632 0
-72 -630 0
-71 631 0
-72 -631 632 0
-73 -632 0
2 633 0
-633 634 0
5 -633 635 0
-635 636 0
24 -635 637 0
-637 638 0
35 -637 639 0
-639 640 0
74 -639 641 0
-641 642 0
75 -641 643 0
-643 644 0
76 -643 0
5 634 0
24 -634 636 0
35 -636 638 0
74 -638 640 0
75 -640 642 0
76 -642 644 0
77 -644 0
-2 645 0
-645 646 0
-5 -645 647 0
-647 648 0
-24 -647 0
-5 646 0
-646 649 0
-24 -646 648 0
-648 650 0
-35 -648 0
-24 649 0
-649 651 0
-35 -649 650 0
-650 652 0
-74 -650 0
-35 651 0
-651 653 0
-74 -651 652 0
-652 654 0
-75 -652 0
-74 653 0
-653 655 0
-75 -653 654 0
-654 656 0
-76 -654 0
-75 655 0
-76 -655 656 0
-77 -656 0
4 657 0
-657 658 0
7 -657 659 0
-659 660 0
26 -659 661 0
-661 662 0
39 -661 663 0
-663 664 0
78 -663 665 0
-665 666 0
79 -665 667 0
-667 668 0
80 -667 0
7 658 0
26 -658 660 0
39 -660 662 0
78 -662 664 0
79 -664 666 0
80 -666 668 0
81 -668 0
-4 669 0
-669 670 0
-7 -669 671 0
-671 672 0
-26 -671 0
-7 670 0
-670 673 0
-26 -670 672 0
-672 674 0
-39 -672 0
-26 673 0
-673 675 0
-39 -673 674 0
-674 676 0
-78 -674 0
-39 675 0
-675 677 0
-78 -675 676 0
-676 678 0
-79 -676 0
-78 677 0
-677 679 0
-79 -677 678 0
-678 680 0
-80 -678 0
-79 679 0
-80 -679 680 0
-81 -680 0
6 681 0
-681 682 0
9 -681 683 0
-683 684 0
28 -683 685 0
-685 686 0
43 -685 687 0
-687 688 0
82 -687 689 0
-689 690 0
83 -689 691 0
-691 692 0
84 -691 0
9 682 0
28 -682 684 0
43 -684 686 0
82 -686 688 0
83 -688 690 0
84 -690 692 0
85 -692 0
-6 693 0
-693 694 0
-9 -693 695 0
-695 696 0
-28 -695 0
-9 694 0
-694 697 0
-28 -694 696 0
-696 698 0
-43 -696 0
-28 697 0
-697 699 0
-43 -697 698 0
-698 700 0
-82 -698 0
-43 699 0
-699 701 0
-82 -699 700 0
-700 702 0
-83 -700 0
-82 701 0
-701 703 0
-83 -701 702 0
-702 704 0
-84 -702 0
-83 703 0
-84 -703 704 0
-85 -704 0
8 705 0
-705 706 0
11 -705 707 0
-707 708 0
32 -707 709 0
-709 710 0
47 -709 711 0
-711 712 0
86 -711 713 0
-713 714 0
87 -713 715 0
-715 716 0
88 -715 0
11 706 0
32 -706 708 0
47 -708 710 0
86 -710 712 0
87 -712 714 0
88 -714 716 0
89 -716 0
-8 717 0
-717 718 0
-11 -717 719 0
-719 720 0
-32 -719 0
-11 718 0
-718 721 0
-32 -718 720 0
-720 722 0
-47 -720 0
-32 721 0
-721 723 0
-47 -721 722 0
-722 724 0
-86 -722 0
-47 723 0
-723 725 0
-86 -723 724 0
-724 726 0
-87 -724 0
-86 725 0
-725 727 0
-87 -725 726 0
-726 728 0
-88 -726 0
-87 727 0
-88 -727 728 0
-89 -728 0
10 729 0
-729 730 0
13 -729 731 0
-731 732 0
36 -731 733 0
-733 734 0
51 -733 735 0
-735 736 0
90 -735 737 0
-737 738 0
91 -737 739 0
-739 740 0
92 -739 0
13 730 0
36 -730 732 0
51 -732 734 0
90 -734 736 0
91 -736 738 0
92 -738 740 0
93 -740 0
-10 741 0
-741 742 0
-13 -741 743 0
-743 744 0
-36 -743 0
-13 742 0
-742 745 0
-36 -742 744 0
-744 746 0
-51 -744 0
-36 745 0
-745 747 0
-51 -745 746 0
-746 748 0
-90 -746 0
-51 747 0
-747 749 0
-90 -747 748 0
-748 750 0
-91 -748 0
-90 749 0
-749 751 0
-91 -749 750 0
-750 752 0
-92 -750 0
-91 751 0
-92 -751 752 0
-93 -752 0
12 753 0
-753 754 0
15 -753 755 0
-755 756 0
40 -755 757 0
-757 758 0
55 -757 759 0
-759 760 0
94 -759 761 0
-761 762 0
95 -761 763 0
-763 764 0
96 -763 0
15 754 0
40 -754 756 0
55 -756 758 0
94 -758 760 0
95 -760 762 0
96 -762 764 0
97 -764 0
-12 765 0
-765 766 0
-15 -765 767 0
-767 768 0
-40 -767 0
-15 766 0
-766 769 0
-40 -766 768 0
-768 770 0
-55 -768 0
-40 769 0
-769 771 0
-55 -769 770 0
-770 772 0
-94 -770 0
-55 771 0
-771 773 0
-94 -771 772 0
-772 774 0
-95 -772 0
-94 773 0
-773 775 0
-95 -773 774 0
-774 776 0
-96 -774 0
-95 775 0
-96 -775 776 0
-97 -776 0
14 777 0
-777 778 0
17 -777 779 0
-779 780 0
44 -779 781 0
-781 782 0
59 -781 783 0
-783 784 0
98 -783 785 0
-785 786 0
99 -785 787 0
-787 788 0
100 -787 0
17 778 0
44 -778 780 0
59 -780 782 0
98 -782 784 0
99 -784 786 0
100 -786 788 0
101 -788 0
-14 789 0
-789 790 0
-17 -789 791 0
-791 792 0
-44 -791 0
-17 790 0
-790 793 0
-44 -790 792 0
-792 794 0
-59 -792 0
-44 793 0
-793 795 0
-59 -793 794 0
-794 796 0
-98 -794 0
-59 795 0
-795 797 0
-98 -795 796 0
-796 798 0
-99 -796 0
-98 797 0
-797 799 0
-99 -797 798 0
-798 800 0
-100 -798 0
-99 799 0
-100 -799 800 0
-101 -800 0
16 801 0
-801 802 0
19 -801 803 0
-803 804 0
48 -803 805 0
-805 806 0
62 -805 807 0
-807 808 0
102 -807 809 0
-809 810 0
103 -809 811 0
-811 812 0
104 -811 0
19 802 0
48 -802 804 0
62 -804 806 0
102 -806 808 0
103 -808 810 0
104 -810 812 0
105 -812 0
-16 813 0
-813 814 0
-19 -813 815 0
-815 816 0
-48 -815 0
-19 814 0
-814 817 0
-48 -814 816 0
-816 818 0
-62 -816 0
-48 817 0
-817 819 0
-62 -817 818 0
-818 820 0
-102 -818 0
-62 819 0
-819 821 0
-102 -819 820 0
-820 822 0
-103 -820 0
-102 821 0
-821 823 0
-103 -821 822 0
-822 824 0
-104 -822 0
-103 823 0
-104 -823 824 0
-105 -824 0
18 825 0
-825 826 0
21 -825 827 0
-827 828 0
52 -827 829 0
-829 830 0
64 -829 831 0
-831 832 0
106 -831 833 0
-833 834 0
107 -833 835 0
-835 836 0
108 -835 0
21 826 0
52 -826 828 0
64 -828 830 0
106 -830 832 0
107 -832 834 0
108 -834 836 0
109 -836 0
-18 837 0
-837 838 0
-21 -837 839 0
-839 840 0
-52 -839 0
-21 838 0
-838 841 0
-52 -838 840 0
-840 842 0
-64 -840 0
-52 841 0
-841 843 0
-64 -841 842 0
-842 844 0
-106 -842 0
-64 843 0
-843 845 0
-106 -843 844 0
-844 846 0
-107 -844 0
-106 845 0
-845 847 0
-107 -845 846 0
-846 848 0
-108 -846 0
-107 847 0
-108 -847 848 0
-109 -848 0
20 849 0
-849 850 0
22 -849 851 0
-851 852 0
56 -851 853 0
-853 854 0
66 -853 855 0
-855 856 0
110 -855 857 0
-857 858 0
111 -857 859 0
-859 860 0
112 -859 0
22 850 0
56 -850 852 0
66 -852 854 0
110 -854 856 0
111 -856 858 0
112 -858 860 0
113 -860 0
-20 861 0
-861 862 0
-22 -861 863 0
-863 864 0
-56 -863 0
-22 862 0
-862 865 0
-56 -862 864 0
-864 866 0
-66 -864 0
-56 865 0
-865 867 0
-66 -865 866 0
-866 868 0
-110 -866 0
-66 867 0
-867 869 0
-110 -867 868 0
-868 870 0
-111 -868 0
-110 869 0
-869 871 0
-111 -869 870 0
-870 872 0
-112 -870 0
-111 871 0
-112 -871 872 0
-113 -872 0
25 873 0
-873 874 0
29 -873 875 0
-875 876 0
67 -875 877 0
-877 878 0
78 -877 879 0
-879 880 0
120 -879 881 0
-881 882 0
121 -881 883 0
-883 884 0
122 -883 0
29 874 0
67 -874 876 0
78 -876 878 0
120 -878 880 0
121 -880 882 0
122 -882 884 0
123 -884 0
-25 885 0
-885 886 0
-29 -885 887 0
-887 888 0
-67 -887 0
-29 886 0
-886 889 0
-67 -886 888 0
-888 890 0
-78 -888 0
-67 889 0
-889 891 0
-78 -889 890 0
-890 892 0
-120 -890 0
-78 891 0
-891 893 0
-120 -891 892 0
-892 894 0
-121 -892 0
-120 893 0
-893 895 0
-121 -893 894 0
-894 896 0
-122 -894 0
-121 895 0
-122 -895 896 0
-123 -896 0
27 897 0
-897 898 0
33 -897 899 0
-899 900 0
68 -899 901 0
-901 902 0
82 -901 903 0
-903 904 0
124 -903 905 0
-905 906 0
125 -905 907 0
-907 908 0
126 -907 0
33 898 0
68 -898 900 0
82 -900 902 0
124 -902 904 0
125 -904 906 0
126 -906 908 0
127 -908 0
-27 909 0
-909 910 0
-33 -909 911 0
-911 912 0
-68 -911 0
-33 910 0
-910 913 0
-68 -910 912 0
-912 914 0
-82 -912 0
-68 913 0
-913 915 0
-82 -913 914 0
-914 916 0
-124 -914 0
-82 915 0
-915 917 0
-124 -915 916 0
-916 918 0
-125 -916 0
-124 917 0
-917 919 0
-125 -917 918 0
-918 920 0
-126 -918 0
-125 919 0
-126 -919 920 0
-127 -920 0
-28 -29 -30 0
30 921 0
-921 922 0
37 -921 923 0
-923 924 0
71 -923 925 0
-925 926 0
86 -925 927 0
-927 928 0
128 -927 929 0
-929 930 0
129 -929 931 0
-931 932 0
130 -931 0
37 922 0
71 -922 924 0
86 -924 926 0
128 -926 928 0
129 -928 930 0
130 -930 932 0
131 -932 0
-30 933 0
-933 934 0
-37 -933 935 0
-935 936 0
-71 -935 0
-37 934 0
-934 937 0
-71 -934 936 0
-936 938 0
-86 -936 0
-71 937 0
-937 939 0
-86 -937 938 0
-938 940 0
-128 -938 0
-86 939 0
-939 941 0
-128 -939 940 0
-940 942 0
-129 -940 0
-128 941 0
-941 943 0
-129 -941 942 0
-942 944 0
-130 -942 0
-129 943 0
-130 -943 944 0
-131 -944 0
-31 945 0
-945 946 0
-32 -945 947 0
-947 948 0
-33 -947 0
-32 946 0
-33 -946 948 0
-34 -948 0
34 949 0
-949 950 0
41 -949 951 0
-951 952 0
75 -951 953 0
-953 954 0
90 -953 955 0
-955 956 0
132 -955 957 0
-957 958 0
133 -957 959 0
-959 960 0
134 -959 0
41 950 0
75 -950 952 0
90 -952 954 0
132 -954 956 0
133 -956 958 0
134 -958 960 0
135 -960 0
-34 961 0
-961 962 0
-41 -961 963 0
-963 964 0
-75 -963 0
-41 962 0
-962 965 0
-75 -962 964 0
-964 966 0
-90 -964 0
-75 965 0
-965 967 0
-90 -965 966 0
-966 968 0
-132 -966 0
-90 967 0
-967 969 0
-132 -967 968 0
-968 970 0
-133 -968 0
-132 969 0
-969 971 0
-133 -969 970 0
-970 972 0
-134 -970 0
-133 971 0
-134 -971 972 0
-135 -972 0
-35 973 0
-973 974 0
-36 -973 975 0
-975 976 0
-37 -975 0
-36 974 0
-37 -974 976 0
-38 -976 0
38 977 0
-977 978 0
45 -977 979 0
-979 980 0
79 -979 981 0
-981 982 0
94 -981 983 0
-983 984 0
136 -983 985 0
-985 986 0
137 -985 987 0
-987 988 0
138 -987 0
45 978 0
79 -978 980 0
94 -980 982 0
136 -982 984 0
137 -984 986 0
138 -986 988 0
139 -988 0
-38 989 0
-989 990 0
-45 -989 991 0
-991 992 0
-79 -991 0
-45 990 0
-990 993 0
-79 -990 992 0
-992 994 0
-94 -992 0
-79 993 0
-993 995 0
-94 -993 994 0
-994 996 0
-136 -994 0
-94 995 0
-995 997 0
-136 -995 996 0
-996 998 0
-137 -996 0
-136 997 0
-997 999 0
-137 -997 998 0
-998 1000 0
-138 -998 0
-137 999 0
-138 -999 1000 0
-139 -1000 0
-39 1001 0
-1001 1002 0
-40 -1001 1003 0
-1003 1004 0
-41 -1003 0
-40 1002 0
-41 -1002 1004 0
-42 -1004 0
42 1005 0
-1005 1006 0
49 -1005 1007 0
-1007 1008 0
83 -1007 1009 0
-1009 1010 0
98 -1009 1011 0
-1011 1012 0
140 -1011 1013 0
-1013 1014 0
141 -1013 1015 0
-1015 1016 0
142 -1015 0
49 1006 0
83 -1006 1008 0
98 -1008 1010 0
140 -1010 1012 0
141 -1012 1014 0
142 -1014 1016 0
143 -1016 0
-42 1017 0
-1017 1018 0
-49 -1017 1019 0
-1019 1020 0
-83 -1019 0
-49 1018 0
-1018 1021 0
-83 -1018 1020 0
-1020 1022 0
-98 -1020 0
-83 1021 0
-1021 1023 0
-98 -1021 1022 0
-1022 1024 0
-140 -1022 0
-98 1023 0
-1023 1025 0
-140 -1023 1024 0
-1024 1026 0
-141 -1024 0
-140 1025 0
-1025 1027 0
-141 -1025 1026 0
-1026 1028 0
-142 -1026 0
-141 1027 0
-142 -1027 1028 0
-143 -1028 0
-43 1029 0
-1029 1030 0
-44 -1029 1031 0
-1031 1032 0
-45 -1031 0
-44 1030 0
-45 -1030 1032 0
-46 -1032 0
46 1033 0
-1033 1034 0
53 -1033 1035 0
-1035 1036 0
87 -1035 1037 0
-1037 1038 0
102 -1037 1039 0
-1039 1040 0
144 -1039 1041 0
-1041 1042 0
145 -1041 1043 0
-1043 1044 0
146 -1043 0
53 1034 0
87 -1034 1036 0
102 -1036 1038 0
144 -1038 1040 0
145 -1040 1042 0
146 -1042 1044 0
147 -1044 0
-46 1045 0
-1045 1046 0
-53 -1045 1047 0
-1047 1048 0
-87 -1047 0
-53 1046 0
-1046 1049 0
-87 -1046 1048 0
-1048 1050 0
-102 -1048 0
-87 1049 0
-1049 1051 0
-102 -1049 1050 0
-1050 1052 0
-144 -1050 0
-102 1051 0
-1051 1053 0
-144 -1051 1052 0
-1052 1054 0
-145 -1052 0
-144 1053 0
-1053 1055 0
-145 -1053 1054 0
-1054 1056 0
-146 -1054 0
-145 1055 0
-146 -1055 1056 0
-147 -1056 0
-47 1057 0
-1057 1058 0
-48 -1057 1059 0
-1059 1060 0
-49 -1059 0
-48 1058 0
-49 -1058 1060 0
-50 -1060 0
50 1061 0
-1061 1062 0
57 -1061 1063 0
-1063 1064 0
91 -1063 1065 0
-1065 1066 0
106 -1065 1067 0
-1067 1068 0
148 -1067 1069 0
-1069 1070 0
149 -1069 1071 0
-1071 1072 0
150 -1071 0
57 1062 0
91 -1062 1064 0
106 -1064 1066 0
148 -1066 1068 0
149 -1068 1070 0
150 -1070 1072 0
151 -1072 0
-50 1073 0
-1073 1074 0
-57 -1073 1075 0
-1075 1076 0
-91 -1075 0
-57 1074 0
-1074 1077 0
-91 -1074 1076 0
-1076 1078 0
-106 -1076 0
-91 1077 0
-1077 1079 0
-106 -1077 1078 0
-1078 1080 0
-148 -1078 0
-106 1079 0
-1079 1081 0
-148 -1079 1080 0
-1080 1082 0
-149 -1080 0
-148 1081 0
-1081 1083 0
-149 -1081 1082 0
-1082 1084 0
-150 -1082 0
-149 1083 0
-150 -1083 1084 0
-151 -1084 0
-51 1085 0
-1085 1086 0
-52 -1085 1087 0
-1087 1088 0
-53 -1087 0
-52 1086 0
-53 -1086 1088 0
-54 -1088 0
54 1089 0
-1089 1090 0
60 -1089 1091 0
-1091 1092 0
95 -1091 1093 0
-1093 1094 0
110 -1093 1095 0
-1095 1096 0
152 -1095 1097 0
-1097 1098 0
153 -1097 1099 0
-1099 1100 0
154 -1099 0
60 1090 0
95 -1090 1092 0
110 -1092 1094 0
152 -1094 1096 0
153 -1096 1098 0
154 -1098 1100 0
155 -1100 0
-54 1101 0
-1101 1102 0
-60 -1101 1103 0
-1103 1104 0
-95 -1103 0
-60 1102 0
-1102 1105 0
-95 -1102 1104 0
-1104 1106 0
-110 -1104 0
-95 1105 0
-1105 1107 0
-110 -1105 1106 0
-1106 1108 0
-152 -1106 0
-110 1107 0
-1107 1109 0
-152 -1107 1108 0
-1108 1110 0
-153 -1108 0
-152 1109 0
-1109 1111 0
-153 -1109 1110 0
-1110 1112 0
-154 -1110 0
-153 1111 0
-154 -1111 1112 0
-155 -1112 0
-55 1113 0
-1113 1114 0
-56 -1113 1115 0
-1115 1116 0
-57 -1115 0
-56 1114 0
-57 -1114 1116 0
-58 -1116 0
58 1117 0
-1117 1118 0
63 -1117 1119 0
-1119 1120 0
99 -1119 1121 0
-1121 1122 0
114 -1121 1123 0
-1123 1124 0
156 -1123 1125 0
-1125 1126 0
157 -1125 1127 0
-1127 1128 0
158 -1127 0
63 1118 0
99 -1118 1120 0
114 -1120 1122 0
156 -1122 1124 0
157 -1124 1126 0
158 -1126 1128 0
159 -1128 0
-58 1129 0
-1129 1130 0
-63 -1129 1131 0
-1131 1132 0
-99 -1131 0
-63 1130 0
-1130 1133 0
-99 -1130 1132 0
-1132 1134 0
-114 -1132 0
-99 1133 0
-1133 1135 0
-114 -1133 1134 0
-1134 1136 0
-156 -1134 0
-114 1135 0
-1135 1137 0
-156 -1135 1136 0
-1136 1138 0
-157 -1136 0
-156 1137 0
-1137 1139 0
-157 -1137 1138 0
-1138 1140 0
-158 -1138 0
-157 1139 0
-158 -1139 1140 0
-159 -1140 0
-59 -60 -61 0
61 1141 0
-1141 1142 0
65 -1141 1143 0
-1143 1144 0
103 -1143 1145 0
-1145 1146 0
116 -1145 1147 0
-1147 1148 0
160 -1147 1149 0
-1149 1150 0
161 -1149 1151 0
-1151 1152 0
162 -1151 0
65 1142 0
103 -1142 1144 0
116 -1144 1146 0
160 -1146 1148 0
161 -1148 1150 0
162 -1150 1152 0
163 -1152 0
-61 1153 0
-1153 1154 0
-65 -1153 1155 0
-1155 1156 0
-103 -1155 0
-65 1154 0
-1154 1157 0
-103 -1154 1156 0
-1156 1158 0
-116 -1156 0
-103 1157 0
-1157 1159 0
-116 -1157 1158 0
-1158 1160 0
-160 -1158 0
-116 1159 0
-1159 1161 0
-160 -1159 1160 0
-1160 1162 0
-161 -1160 0
-160 1161 0
-1161 1163 0
-161 -1161 1162 0
-1162 1164 0
-162 -1162 0
-161 1163 0
-162 -1163 1164 0
-163 -1164 0
69 1165 0
-1165 1166 0
76 -1165 1167 0
-1167 1168 0
117 -1167 1169 0
-1169 1170 0
128 -1169 1171 0
-1171 1172 0
170 -1171 1173 0
-1173 1174 0
171 -1173 1175 0
-1175 1176 0
172 -1175 0
76 1166 0
117 -1166 1168 0
128 -1168 1170 0
170 -1170 1172 0
171 -1172 1174 0
172 -1174 1176 0
173 -1176 0
-69 1177 0
-1177 1178 0
-76 -1177 1179 0
-1179 1180 0
-117 -1179 0
-76 1178 0
-1178 1181 0
-117 -1178 1180 0
-1180 1182 0
-128 -1180 0
-117 1181 0
-1181 1183 0
-128 -1181 1182 0
-1182 1184 0
-170 -1182 0
-128 1183 0
-1183 1185 0
-170 -1183 1184 0
-1184 1186 0
-171 -1184 0
-170 1185 0
-1185 1187 0
-171 -1185 1186 0
-1186 1188 0
-172 -1186 0
-171 1187 0
-172 -1187 1188 0
-173 -1188 0
-72 1189 0
-1189 1190 0
-124 -1189 1191 0
-1191 1192 0
-168 -1191 0
-124 1190 0
-168 -1190 1192 0
-169 -1192 0
73 1193 0
-1193 1194 0
80 -1193 1195 0
-1195 1196 0
118 -1195 1197 0
-1197 1198 0
132 -1197 1199 0
-1199 1200 0
174 -1199 1201 0
-1201 1202 0
175 -1201 1203 0
-1203 1204 0
176 -1203 0
80 1194 0
118 -1194 1196 0
132 -1196 1198 0
174 -1198 1200 0
175 -1200 1202 0
176 -1202 1204 0
177 -1204 0
-73 1205 0
-1205 1206 0
-80 -1205 1207 0
-1207 1208 0
-118 -1207 0
-80 1206 0
-1206 1209 0
-118 -1206 1208 0
-1208 1210 0
-132 -1208 0
-118 1209 0
-1209 1211 0
-132 -1209 1210 0
-1210 1212 0
-174 -1210 0
-132 1211 0
-1211 1213 0
-174 -1211 1212 0
-1212 1214 0
-175 -1212 0
-174 1213 0
-1213 1215 0
-175 -1213 1214 0
-1214 1216 0
-176 -1214 0
-175 1215 0
-176 -1215 1216 0
-177 -1216 0
-74 -118 -119 0
77 1217 0
-1217 1218 0
84 -1217 1219 0
-1219 1220 0
121 -1219 1221 0
-1221 1222 0
136 -1221 1223 0
-1223 1224 0
178 -1223 1225 0
-1225 1226 0
179 -1225 1227 0
-1227 1228 0
180 -1227 0
84 1218 0
121 -1218 1220 0
136 -1220 1222 0
178 -1222 1224 0
179 -1224 1226 0
180 -1226 1228 0
181 -1228 0
-77 1229 0
-1229 1230 0
-84 -1229 1231 0
-1231 1232 0
-121 -1231 0
-84 1230 0
-1230 1233 0
-121 -1230 1232 0
-1232 1234 0
-136 -1232 0
-121 1233 0
-1233 1235 0
-136 -1233 1234 0
-1234 1236 0
-178 -1234 0
-136 1235 0
-1235 1237 0
-178 -1235 1236 0
-1236 1238 0
-179 -1236 0
-178 1237 0
-1237 1239 0
-179 -1237 1238 0
-1238 1240 0
-180 -1238 0
-179 1239 0
-180 -1239 1240 0
-181 -1240 0
81 1241 0
-1241 1242 0
88 -1241 1243 0
-1243 1244 0
125 -1243 1245 0
-1245 1246 0
140 -1245 1247 0
-1247 1248 0
182 -1247 1249 0
-1249 1250 0
183 -1249 1251 0
-1251 1252 0
184 -1251 0
88 1242 0
125 -1242 1244 0
140 -1244 1246 0
182 -1246 1248 0
183 -1248 1250 0
184 -1250 1252 0
185 -1252 0
-81 1253 0
-1253 1254 0
-88 -1253 1255 0
-1255 1256 0
-125 -1255 0
-88 1254 0
-1254 1257 0
-125 -1254 1256 0
-1256 1258 0
-140 -1256 0
-125 1257 0
-1257 1259 0
-140 -1257 1258 0
-1258 1260 0
-182 -1258 0
-140 1259 0
-1259 1261 0
-182 -1259 1260 0
-1260 1262 0
-183 -1260 0
-182 1261 0
-1261 1263 0
-183 -1261 1262 0
-1262 1264 0
-184 -1262 0
-183 1263 0
-184 -1263 1264 0
-185 -1264 0
85 1265 0
-1265 1266 0
92 -1265 1267 0
-1267 1268 0
129 -1267 1269 0
-1269 1270 0
144 -1269 1271 0
-1271 1272 0
186 -1271 1273 0
-1273 1274 0
187 -1273 1275 0
-1275 1276 0
188 -1275 0
92 1266 0
129 -1266 1268 0
144 -1268 1270 0
186 -1270 1272 0
187 -1272 1274 0
188 -1274 1276 0
189 -1276 0
-85 1277 0
-1277 1278 0
-92 -1277 1279 0
-1279 1280 0
-129 -1279 0
-92 1278 0
-1278 1281 0
-129 -1278 1280 0
-1280 1282 0
-144 -1280 0
-129 1281 0
-1281 1283 0
-144 -1281 1282 0
-1282 1284 0
-186 -1282 0
-144 1283 0
-1283 1285 0
-186 -1283 1284 0
-1284 1286 0
-187 -1284 0
-186 1285 0
-1285 1287 0
-187 -1285 1286 0
-1286 1288 0
-188 -1286 0
-187 1287 0
-188 -1287 1288 0
-189 -1288 0
89 1289 0
-1289 1290 0
96 -1289 1291 0
-1291 1292 0
133 -1291 1293 0
-1293 1294 0
148 -1293 1295 0
-1295 1296 0
190 -1295 1297 0
-1297 1298 0
191 -1297 1299 0
-1299 1300 0
192 -1299 0
96 1290 0
133 -1290 1292 0
148 -1292 1294 0
190 -1294 1296 0
191 -1296 1298 0
192 -1298 1300 0
193 -1300 0
-89 1301 0
-1301 1302 0
-96 -1301 1303 0
-1303 1304 0
-133 -1303 0
-96 1302 0
-1302 1305 0
-133 -1302 1304 0
-1304 1306 0
-148 -1304 0
-133 1305 0
-1305 1307 0
-148 -1305 1306 0
-1306 1308 0
-190 -1306 0
-148 1307 0
-1307 1309 0
-190 -1307 1308 0
-1308 1310 0
-191 -1308 0
-190 1309 0
-1309 1311 0
-191 -1309 1310 0
-1310 1312 0
-192 -1310 0
-191 1311 0
-192 -1311 1312 0
-193 -1312 0
93 1313 0
-1313 1314 0
100 -1313 1315 0
-1315 1316 0
137 -1315 1317 0
-1317 1318 0
152 -1317 1319 0
-1319 1320 0
194 -1319 1321 0
-1321 1322 0
195 -1321 1323 0
-1323 1324 0
196 -1323 0
100 1314 0
137 -1314 1316 0
152 -1316 1318 0
194 -1318 1320 0
195 -1320 1322 0
196 -1322 1324 0
197 -1324 0
-93 1325 0
-1325 1326 0
-100 -1325 1327 0
-1327 1328 0
-137 -1327 0
-100 1326 0
-1326 1329 0
-137 -1326 1328 0
-1328 1330 0
-152 -1328 0
-137 1329 0
-1329 1331 0
-152 -1329 1330 0
-1330 1332 0
-194 -1330 0
-152 1331 0
-1331 1333 0
-194 -1331 1332 0
-1332 1334 0
-195 -1332 0
-194 1333 0
-1333 1335 0
-195 -1333 1334 0
-1334 1336 0
-196 -1334 0
-195 1335 0
-196 -1335 1336 0
-197 -1336 0
97 1337 0
-1337 1338 0
104 -1337 1339 0
-1339 1340 0
141 -1339 1341 0
-1341 1342 0
156 -1341 1343 0
-1343 1344 0
198 -1343 1345 0
-1345 1346 0
199 -1345 1347 0
-1347 1348 0
200 -1347 0
104 1338 0
141 -1338 1340 0
156 -1340 1342 0
198 -1342 1344 0
199 -1344 1346 0
200 -1346 1348 0
201 -1348 0
-97 1349 0
-1349 1350 0
-104 -1349 1351 0
-1351 1352 0
-141 -1351 0
-104 1350 0
-1350 1353 0
-141 -1350 1352 0
-1352 1354 0
-156 -1352 0
-141 1353 0
-1353 1355 0
-156 -1353 1354 0
-1354 1356 0
-198 -1354 0
-156 1355 0
-1355 1357 0
-198 -1355 1356 0
-1356 1358 0
-199 -1356 0
-198 1357 0
-1357 1359 0
-199 -1357 1358 0
-1358 1360 0
-200 -1358 0
-199 1359 0
-200 -1359 1360 0
-201 -1360 0
101 1361 0
-1361 1362 0
108 -1361 1363 0
-1363 1364 0
145 -1363 1365 0
-1365 1366 0
160 -1365 1367 0
-1367 1368 0
202 -1367 1369 0
-1369 1370 0
203 -1369 1371 0
-1371 1372 0
204 -1371 0
108 1362 0
145 -1362 1364 0
160 -1364 1366 0
202 -1366 1368 0
203 -1368 1370 0
204 -1370 1372 0
205 -1372 0
-101 1373 0
-1373 1374 0
-108 -1373 1375 0
-1375 1376 0
-145 -1375 0
-108 1374 0
-1374 1377 0
-145 -1374 1376 0
-1376 1378 0
-160 -1376 0
-145 1377 0
-1377 1379 0
-160 -1377 1378 0
-1378 1380 0
-202 -1378 0
-160 1379 0
-1379 1381 0
-202 -1379 1380 0
-1380 1382 0
-203 -1380 0
-202 1381 0
-1381 1383 0
-203 -1381 1382 0
-1382 1384 0
-204 -1382 0
-203 1383 0
-204 -1383 1384 0
-205 -1384 0
105 1385 0
-1385 1386 0
112 -1385 1387 0
-1387 1388 0
149 -1387 1389 0
-1389 1390 0
164 -1389 1391 0
-1391 1392 0
206 -1391 1393 0
-1393 1394 0
207 -1393 1395 0
-1395 1396 0
208 -1395 0
112 1386 0
149 -1386 1388 0
164 -1388 1390 0
206 -1390 1392 0
207 -1392 1394 0
208 -1394 1396 0
209 -1396 0
-105 1397 0
-1397 1398 0
-112 -1397 1399 0
-1399 1400 0
-149 -1399 0
-112 1398 0
-1398 1401 0
-149 -1398 1400 0
-1400 1402 0
-164 -1400 0
-149 1401 0
-1401 1403 0
-164 -1401 1402 0
-1402 1404 0
-206 -1402 0
-164 1403 0
-1403 1405 0
-206 -1403 1404 0
-1404 1406 0
-207 -1404 0
-206 1405 0
-1405 1407 0
-207 -1405 1406 0
-1406 1408 0
-208 -1406 0
-207 1407 0
-208 -1407 1408 0
-209 -1408 0
-107 -164 -165 0
109 1409 0
-1409 1410 0
115 -1409 1411 0
-1411 1412 0
153 -1411 1413 0
-1413 1414 0
166 -1413 1415 0
-1415 1416 0
210 -1415 1417 0
-1417 1418 0
211 -1417 1419 0
-1419 1420 0
212 -1419 0
115 1410 0
153 -1410 1412 0
166 -1412 1414 0
210 -1414 1416 0
211 -1416 1418 0
212 -1418 1420 0
213 -1420 0
-109 1421 0
-1421 1422 0
-115 -1421 1423 0
-1423 1424 0
-153 -1423 0
-115 1422 0
-1422 1425 0
-153 -1422 1424 0
-1424 1426 0
-166 -1424 0
-153 1425 0
-1425 1427 0
-166 -1425 1426 0
-1426 1428 0
-210 -1426 0
-166 1427 0
-1427 1429 0
-210 -1427 1428 0
-1428 1430 0
-211 -1428 0
-210 1429 0
-1429 1431 0
-211 -1429 1430 0
-1430 1432 0
-212 -1430 0
-211 1431 0
-212 -1431 1432 0
-213 -1432 0
-113 1433 0
-1433 1434 0
-157 -1433 1435 0
-1435 1436 0
-214 -1435 0
-157 1434 0
-214 -1434 1436 0
-215 -1436 0
119 1437 0
-1437 1438 0
126 -1437 1439 0
-1439 1440 0
167 -1439 1441 0
-1441 1442 0
178 -1441 1443 0
-1443 1444 0
220 -1443 1445 0
-1445 1446 0
221 -1445 1447 0
-1447 1448 0
222 -1447 0
126 1438 0
167 -1438 1440 0
178 -1440 1442 0
220 -1442 1444 0
221 -1444 1446 0
222 -1446 1448 0
223 -1448 0
-119 1449 0
-1449 1450 0
-126 -1449 1451 0
-1451 1452 0
-167 -1451 0
-126 1450 0
-1450 1453 0
-167 -1450 1452 0
-1452 1454 0
-178 -1452 0
-167 1453 0
-1453 1455 0
-178 -1453 1454 0
-1454 1456 0
-220 -1454 0
-178 1455 0
-1455 1457 0
-220 -1455 1456 0
-1456 1458 0
-221 -1456 0
-220 1457 0
-1457 1459 0
-221 -1457 1458 0
-1458 1460 0
-222 -1458 0
-221 1459 0
-222 -1459 1460 0
-223 -1460 0
-122 1461 0
-1461 1462 0
-174 -1461 1463 0
-1463 1464 0
-218 -1463 0
-174 1462 0
-218 -1462 1464 0
-219 -1464 0
123 1465 0
-1465 1466 0
130 -1465 1467 0
-1467 1468 0
168 -1467 1469 0
-1469 1470 0
182 -1469 1471 0
-1471 1472 0
224 -1471 1473 0
-1473 1474 0
225 -1473 1475 0
-1475 1476 0
226 -1475 0
130 1466 0
168 -1466 1468 0
182 -1468 1470 0
224 -1470 1472 0
225 -1472 1474 0
226 -1474 1476 0
227 -1476 0
-123 1477 0
-1477 1478 0
-130 -1477 1479 0
-1479 1480 0
-168 -1479 0
-130 1478 0
-1478 1481 0
-168 -1478 1480 0
-1480 1482 0
-182 -1480 0
-168 1481 0
-1481 1483 0
-182 -1481 1482 0
-1482 1484 0
-224 -1482 0
-182 1483 0
-1483 1485 0
-224 -1483 1484 0
-1484 1486 0
-225 -1484 0
-224 1485 0
-1485 1487 0
-225 -1485 1486 0
-1486 1488 0
-226 -1486 0
-225 1487 0
-226 -1487 1488 0
-227 -1488 0
127 1489 0
-1489 1490 0
134 -1489 1491 0
-1491 1492 0
171 -1491 1493 0
-1493 1494 0
186 -1493 1495 0
-1495 1496 0
228 -1495 1497 0
-1497 1498 0
229 -1497 1499 0
-1499 1500 0
230 -1499 0
134 1490 0
171 -1490 1492 0
186 -1492 1494 0
228 -1494 1496 0
229 -1496 1498 0
230 -1498 1500 0
231 -1500 0
-127 1501 0
-1501 1502 0
-134 -1501 1503 0
-1503 1504 0
-171 -1503 0
-134 1502 0
-1502 1505 0
-171 -1502 1504 0
-1504 1506 0
-186 -1504 0
-171 1505 0
-1505 1507 0
-186 -1505 1506 0
-1506 1508 0
-228 -1506 0
-186 1507 0
-1507 1509 0
-228 -1507 1508 0
-1508 1510 0
-229 -1508 0
-228 1509 0
-1509 1511 0
-229 -1509 1510 0
-1510 1512 0
-230 -1510 0
-229 1511 0
-230 -1511 1512 0
-231 -1512 0
131 1513 0
-1513 1514 0
138 -1513 1515 0
-1515 1516 0
175 -1515 1517 0
-1517 1518 0
190 -1517 1519 0
-1519 1520 0
232 -1519 1521 0
-1521 1522 0
233 -1521 1523 0
-1523 1524 0
234 -1523 0
138 1514 0
175 -1514 1516 0
190 -1516 1518 0
232 -1518 1520 0
233 -1520 1522 0
234 -1522 1524 0
235 -1524 0
-131 1525 0
-1525 1526 0
-138 -1525 1527 0
-1527 1528 0
-175 -1527 0
-138 1526 0
-1526 1529 0
-175 -1526 1528 0
-1528 1530 0
-190 -1528 0
-175 1529 0
-1529 1531 0
-190 -1529 1530 0
-1530 1532 0
-232 -1530 0
-190 1531 0
-1531 1533 0
-232 -1531 1532 0
-1532 1534 0
-233 -1532 0
-232 1533 0
-1533 1535 0
-233 -1533 1534 0
-1534 1536 0
-234 -1534 0
-233 1535 0
-234 -1535 1536 0
-235 -1536 0
135 1537 0
-1537 1538 0
142 -1537 1539 0
-1539 1540 0
179 -1539 1541 0
-1541 1542 0
194 -1541 1543 0
-1543 1544 0
236 -1543 1545 0
-1545 1546 0
237 -1545 1547 0
-1547 1548 0
238 -1547 0
142 1538 0
179 -1538 1540 0
194 -1540 1542 0
236 -1542 1544 0
237 -1544 1546 0
238 -1546 1548 0
239 -1548 0
-135 1549 0
-1549 1550 0
-142 -1549 1551 0
-1551 1552 0
-179 -1551 0
-142 1550 0
-1550 1553 0
-179 -1550 1552 0
-1552 1554 0
-194 -1552 0
-179 1553 0
-1553 1555 0
-194 -1553 1554 0
-1554 1556 0
-236 -1554 0
-194 1555 0
-1555 1557 0
-236 -1555 1556 0
-1556 1558 0
-237 -1556 0
-236 1557 0
-1557 1559 0
-237 -1557 1558 0
-1558 1560 0
-238 -1558 0
-237 1559 0
-238 -1559 1560 0
-239 -1560 0
139 1561 0
-1561 1562 0
146 -1561 1563 0
-1563 1564 0
183 -1563 1565 0
-1565 1566 0
198 -1565 1567 0
-1567 1568 0
240 -1567 1569 0
-1569 1570 0
241 -1569 1571 0
-1571 1572 0
242 -1571 0
146 1562 0
183 -1562 1564 0
198 -1564 1566 0
240 -1566 1568 0
241 -1568 1570 0
242 -1570 1572 0
243 -1572 0
-139 1573 0
-1573 1574 0
-146 -1573 1575 0
-1575 1576 0
-183 -1575 0
-146 1574 0
-1574 1577 0
-183 -1574 1576 0
-1576 1578 0
-198 -1576 0
-183 1577 0
-1577 1579 0
-198 -1577 1578 0
-1578 1580 0
-240 -1578 0
-198 1579 0
-1579 1581 0
-240 -1579 1580 0
-1580 1582 0
-241 -1580 0
-240 1581 0
-1581 1583 0
-241 -1581 1582 0
-1582 1584 0
-242 -1582 0
-241 1583 0
-242 -1583 1584 0
-243 -1584 0
143 1585 0
-1585 1586 0
150 -1585 1587 0
-1587 1588 0
187 -1587 1589 0
-1589 1590 0
202 -1589 1591 0
-1591 1592 0
244 -1591 1593 0
-1593 1594 0
245 -1593 1595 0
-1595 1596 0
246 -1595 0
150 1586 0
187 -1586 1588 0
202 -1588 1590 0
244 -1590 1592 0
245 -1592 1594 0
246 -1594 1596 0
247 -1596 0
-143 1597 0
-1597 1598 0
-150 -1597 1599 0
-1599 1600 0
-187 -1599 0
-150 1598 0
-1598 1601 0
-187 -1598 1600 0
-1600 1602 0
-202 -1600 0
-187 1601 0
-1601 1603 0
-202 -1601 1602 0
-1602 1604 0
-244 -1602 0
-202 1603 0
-1603 1605 0
-244 -1603 1604 0
-1604 1606 0
-245 -1604 0
-244 1605 0
-1605 1607 0
-245 -1605 1606 0
-1606 1608 0
-246 -1606 0
-245 1607 0
-246 -1607 1608 0
-247 -1608 0
147 1609 0
-1609 1610 0
154 -1609 1611 0
-1611 1612 0
191 -1611 1613 0
-1613 1614 0
206 -1613 1615 0
-1615 1616 0
248 -1615 1617 0
-1617 1618 0
249 -1617 1619 0
-1619 1620 0
250 -1619 0
154 1610 0
191 -1610 1612 0
206 -1612 1614 0
248 -1614 1616 0
249 -1616 1618 0
250 -1618 1620 0
251 -1620 0
-147 1621 0
-1621 1622 0
-154 -1621 1623 0
-1623 1624 0
-191 -1623 0
-154 1622 0
-1622 1625 0
-191 -1622 1624 0
-1624 1626 0
-206 -1624 0
-191 1625 0
-1625 1627 0
-206 -1625 1626 0
-1626 1628 0
-248 -1626 0
-206 1627 0
-1627 1629 0
-248 -1627 1628 0
-1628 1630 0
-249 -1628 0
-248 1629 0
-1629 1631 0
-249 -1629 1630 0
-1630 1632 0
-250 -1630 0
-249 1631 0
-250 -1631 1632 0
-251 -1632 0
151 1633 0
-1633 1634 0
158 -1633 1635 0
-1635 1636 0
195 -1635 1637 0
-1637 1638 0
210 -1637 1639 0
-1639 1640 0
252 -1639 1641 0
-1641 1642 0
253 -1641 1643 0
-1643 1644 0
254 -1643 0
158 1634 0
195 -1634 1636 0
210 -1636 1638 0
252 -1638 1640 0
253 -1640 1642 0
254 -1642 1644 0
255 -1644 0
-151 1645 0
-1645 1646 0
-158 -1645 1647 0
-1647 1648 0
-195 -1647 0
-158 1646 0
-1646 1649 0
-195 -1646 1648 0
-1648 1650 0
-210 -1648 0
-195 1649 0
-1649 1651 0
-210 -1649 1650 0
-1650 1652 0
-252 -1650 0
-210 1651 0
-1651 1653 0
-252 -1651 1652 0
-1652 1654 0
-253 -1652 0
-252 1653 0
-1653 1655 0
-253 -1653 1654 0
-1654 1656 0
-254 -1654 0
-253 1655 0
-254 -1655 1656 0
-255 -1656 0
155 1657 0
-1657 1658 0
162 -1657 1659 0
-1659 1660 0
199 -1659 1661 0
-1661 1662 0
214 -1661 1663 0
-1663 1664 0
256 -1663 1665 0
-1665 1666 0
257 -1665 1667 0
-1667 1668 0
258 -1667 0
162 1658 0
199 -1658 1660 0
214 -1660 1662 0
256 -1662 1664 0
257 -1664 1666 0
258 -1666 1668 0
259 -1668 0
-155 1669 0
-1669 1670 0
-162 -1669 1671 0
-1671 1672 0
-199 -1671 0
-162 1670 0
-1670 1673 0
-199 -1670 1672 0
-1672 1674 0
-214 -1672 0
-199 1673 0
-1673 1675 0
-214 -1673 1674 0
-1674 1676 0
-256 -1674 0
-214 1675 0
-1675 1677 0
-256 -1675 1676 0
-1676 1678 0
-257 -1676 0
-256 1677 0
-1677 1679 0
-257 -1677 1678 0
-1678 1680 0
-258 -1678 0
-257 1679 0
-258 -1679 1680 0
-259 -1680 0
159 1681 0
-1681 1682 0
165 -1681 1683 0
-1683 1684 0
203 -1683 1685 0
-1685 1686 0
216 -1685 1687 0
-1687 1688 0
260 -1687 1689 0
-1689 1690 0
261 -1689 1691 0
-1691 1692 0
262 -1691 0
165 1682 0
203 -1682 1684 0
216 -1684 1686 0
260 -1686 1688 0
261 -1688 1690 0
262 -1690 1692 0
263 -1692 0
-159 1693 0
-1693 1694 0
-165 -1693 1695 0
-1695 1696 0
-203 -1695 0
-165 1694 0
-1694 1697 0
-203 -1694 1696 0
-1696 1698 0
-216 -1696 0
-203 1697 0
-1697 1699 0
-216 -1697 1698 0
-1698 1700 0
-260 -1698 0
-216 1699 0
-1699 1701 0
-260 -1699 1700 0
-1700 1702 0
-261 -1700 0
-260 1701 0
-1701 1703 0
-261 -1701 1702 0
-1702 1704 0
-262 -1702 0
-261 1703 0
-262 -1703 1704 0
-263 -1704 0
-163 1705 0
-1705 1706 0
-207 -1705 1707 0
-1707 1708 0
-264 -1707 0
-207 1706 0
-264 -1706 1708 0
-265 -1708 0
169 1709 0
-1709 1710 0
176 -1709 1711 0
-1711 1712 0
217 -1711 1713 0
-1713 1714 0
228 -1713 1715 0
-1715 1716 0
270 -1715 1717 0
-1717 1718 0
271 -1717 1719 0
-1719 1720 0
272 -1719 0
176 1710 0
217 -1710 1712 0
228 -1712 1714 0
270 -1714 1716 0
271 -1716 1718 0
272 -1718 1720 0
273 -1720 0
-169 1721 0
-1721 1722 0
-176 -1721 1723 0
-1723 1724 0
-217 -1723 0
-176 1722 0
-1722 1725 0
-217 -1722 1724 0
-1724 1726 0
-228 -1724 0
-217 1725 0
-1725 1727 0
-228 -1725 1726 0
-1726 1728 0
-270 -1726 0
-228 1727 0
-1727 1729 0
-270 -1727 1728 0
-1728 1730 0
-271 -1728 0
-270 1729 0
-1729 1731 0
-271 -1729 1730 0
-1730 1732 0
-272 -1730 0
-271 1731 0
-272 -1731 1732 0
-273 -1732 0
-172 1733 0
-1733 1734 0
-224 -1733 1735 0
-1735 1736 0
-268 -1735 0
-224 1734 0
-268 -1734 1736 0
-269 -1736 0
173 1737 0
-1737 1738 0
180 -1737 1739 0
-1739 1740 0
218 -1739 1741 0
-1741 1742 0
232 -1741 1743 0
-1743 1744 0
274 -1743 1745 0
-1745 1746 0
275 -1745 1747 0
-1747 1748 0
276 -1747 0
180 1738 0
218 -1738 1740 0
232 -1740 1742 0
274 -1742 1744 0
275 -1744 1746 0
276 -1746 1748 0
277 -1748 0
-173 1749 0
-1749 1750 0
-180 -1749 1751 0
-1751 1752 0
-218 -1751 0
-180 1750 0
-1750 1753 0
-218 -1750 1752 0
-1752 1754 0
-232 -1752 0
-218 1753 0
-1753 1755 0
-232 -1753 1754 0
-1754 1756 0
-274 -1754 0
-232 1755 0
-1755 1757 0
-274 -1755 1756 0
-1756 1758 0
-275 -1756 0
-274 1757 0
-1757 1759 0
-275 -1757 1758 0
-1758 1760 0
-276 -1758 0
-275 1759 0
-276 -1759 1760 0
-277 -1760 0
177 1761 0
-1761 1762 0
184 -1761 1763 0
-1763 1764 0
221 -1763 1765 0
-1765 1766 0
236 -1765 1767 0
-1767 1768 0
278 -1767 1769 0
-1769 1770 0
279 -1769 1771 0
-1771 1772 0
280 -1771 0
184 1762 0
221 -1762 1764 0
236 -1764 1766 0
278 -1766 1768 0
279 -1768 1770 0
280 -1770 1772 0
281 -1772 0
-177 1773 0
-1773 1774 0
-184 -1773 1775 0
-1775 1776 0
-221 -1775 0
-184 1774 0
-1774 1777 0
-221 -1774 1776 0
-1776 1778 0
-236 -1776 0
-221 1777 0
-1777 1779 0
-236 -1777 1778 0
-1778 1780 0
-278 -1778 0
-236 1779 0
-1779 1781 0
-278 -1779 1780 0
-1780 1782 0
-279 -1780 0
-278 1781 0
-1781 1783 0
-279 -1781 1782 0
-1782 1784 0
-280 -1782 0
-279 1783 0
-280 -1783 1784 0
-281 -1784 0
181 1785 0
-1785 1786 0
188 -1785 1787 0
-1787 1788 0
225 -1787 1789 0
-1789 1790 0
240 -1789 1791 0
-1791 1792 0
282 -1791 1793 0
-1793 1794 0
283 -1793 1795 0
-1795 1796 0
284 -1795 0
188 1786 0
225 -1786 1788 0
240 -1788 1790 0
282 -1790 1792 0
283 -1792 1794 0
284 -1794 1796 0
285 -1796 0
-181 1797 0
-1797 1798 0
-188 -1797 1799 0
-1799 1800 0
-225 -1799 0
-188 1798 0
-1798 1801 0
-225 -1798 1800 0
-1800 1802 0
-240 -1800 0
-225 1801 0
-1801 1803 0
-240 -1801 1802 0
-1802 1804 0
-282 -1802 0
-240 1803 0
-1803 1805 0
-282 -1803 1804 0
-1804 1806 0
-283 -1804 0
-282 1805 0
-1805 1807 0
-283 -1805 1806 0
-1806 1808 0
-284 -1806 0
-283 1807 0
-284 -1807 1808 0
-285 -1808 0
185 1809 0
-1809 1810 0
192 -1809 1811 0
-1811 1812 0
229 -1811 1813 0
-1813 1814 0
244 -1813 1815 0
-1815 1816 0
286 -1815 1817 0
-1817 1818 0
287 -1817 1819 0
-1819 1820 0
288 -1819 0
192 1810 0
229 -1810 1812 0
244 -1812 1814 0
286 -1814 1816 0
287 -1816 1818 0
288 -1818 1820 0
289 -1820 0
-185 1821 0
-1821 1822 0
-192 -1821 1823 0
-1823 1824 0
-229 -1823 0
-192 1822 0
-1822 1825 0
-229 -1822 1824 0
-1824 1826 0
-244 -1824 0
-229 1825 0
-1825 1827 0
-244 -1825 1826 0
-1826 1828 0
-286 -1826 0
-244 1827 0
-1827 1829 0
-286 -1827 1828 0
-1828 1830 0
-287 -1828 0
-286 1829 0
-1829 1831 0
-287 -1829 1830 0
-1830 1832 0
-288 -1830 0
-287 1831 0
-288 -1831 1832 0
-289 -1832 0
189 1833 0
-1833 1834 0
196 -1833 1835 0
-1835 1836 0
233 -1835 1837 0
-1837 1838 0
248 -1837 1839 0
-1839 1840 0
290 -1839 1841 0
-1841 1842 0
291 -1841 1843 0
-1843 1844 0
292 -1843 0
196 1834 0
233 -1834 1836 0
248 -1836 1838 0
290 -1838 1840 0
291 -1840 1842 0
292 -1842 1844 0
293 -1844 0
-189 1845 0
-1845 1846 0
-196 -1845 1847 0
-1847 1848 0
-233 -1847 0
-196 1846 0
-1846 1849 0
-233 -1846 1848 0
-1848 1850 0
-248 -1848 0
-233 1849 0
-1849 1851 0
-248 -1849 1850 0
-1850 1852 0
-290 -1850 0
-248 1851 0
-1851 1853 0
-290 -1851 1852 0
-1852 1854 0
-291 -1852 0
-290 1853 0
-1853 1855 0
-291 -1853 1854 0
-1854 1856 0
-292 -1854 0
-291 1855 0
-292 -1855 1856 0
-293 -1856 0
193 1857 0
-1857 1858 0
200 -1857 1859 0
-1859 1860 0
237 -1859 1861 0
-1861 1862 0
252 -1861 1863 0
-1863 1864 0
294 -1863 1865 0
-1865 1866 0
295 -1865 1867 0
-1867 1868 0
296 -1867 0
200 1858 0
237 -1858 1860 0
252 -1860 1862 0
294 -1862 1864 0
295 -1864 1866 0
296 -1866 1868 0
297 -1868 0
-193 1869 0
-1869 1870 0
-200 -1869 1871 0
-1871 1872 0
-237 -1871 0
-200 1870 0
-1870 1873 0
-237 -1870 1872 0
-1872 1874 0
-252 -1872 0
-237 1873 0
-1873 1875 0
-252 -1873 1874 0
-1874 1876 0
-294 -1874 0
-252 1875 0
-1875 1877 0
-294 -1875 1876 0
-1876 1878 0
-295 -1876 0
-294 1877 0
-1877 1879 0
-295 -1877 1878 0
-1878 1880 0
-296 -1878 0
-295 1879 0
-296 -1879 1880 0
-297 -1880 0
197 1881 0
-1881 1882 0
204 -1881 1883 0
-1883 1884 0
241 -1883 1885 0
-1885 1886 0
256 -1885 1887 0
-1887 1888 0
298 -1887 1889 0
-1889 1890 0
299 -1889 1891 0
-1891 1892 0
300 -1891 0
204 1882 0
241 -1882 1884 0
256 -1884 1886 0
298 -1886 1888 0
299 -1888 1890 0
300 -1890 1892 0
301 -1892 0
-197 1893 0
-1893 1894 0
-204 -1893 1895 0
-1895 1896 0
-241 -1895 0
-204 1894 0
-1894 1897 0
-241 -1894 1896 0
-1896 1898 0
-256 -1896 0
-241 1897 0
-1897 1899 0
-256 -1897 1898 0
-1898 1900 0
-298 -1898 0
-256 1899 0
-1899 1901 0
-298 -1899 1900 0
-1900 1902 0
-299 -1900 0
-298 1901 0
-1901 1903 0
-299 -1901 1902 0
-1902 1904 0
-300 -1902 0
-299 1903 0
-300 -1903 1904 0
-301 -1904 0
201 1905 0
-1905 1906 0
208 -1905 1907 0
-1907 1908 0
245 -1907 1909 0
-1909 1910 0
260 -1909 1911 0
-1911 1912 0
302 -1911 1913 0
-1913 1914 0
303 -1913 1915 0
-1915 1916 0
304 -1915 0
208 1906 0
245 -1906 1908 0
260 -1908 1910 0
302 -1910 1912 0
303 -1912 1914 0
304 -1914 1916 0
305 -1916 0
-201 1917 0
-1917 1918 0
-208 -1917 1919 0
-1919 1920 0
-245 -1919 0
-208 1918 0
-1918 1921 0
-245 -1918 1920 0
-1920 1922 0
-260 -1920 0
-245 1921 0
-1921 1923 0
-260 -1921 1922 0
-1922 1924 0
-302 -1922 0
-260 1923 0
-1923 1925 0
-302 -1923 1924 0
-1924 1926 0
-303 -1924 0
-302 1925 0
-1925 1927 0
-303 -1925 1926 0
-1926 1928 0
-304 -1926 0
-303 1927 0
-304 -1927 1928 0
-305 -1928 0
205 1929 0
-1929 1930 0
212 -1929 1931 0
-1931 1932 0
249 -1931 1933 0
-1933 1934 0
264 -1933 1935 0
-1935 1936 0
306 -1935 1937 0
-1937 1938 0
307 -1937 1939 0
-1939 1940 0
308 -1939 0
212 1930 0
249 -1930 1932 0
264 -1932 1934 0
306 -1934 1936 0
307 -1936 1938 0
308 -1938 1940 0
309 -1940 0
-205 1941 0
-1941 1942 0
-212 -1941 1943 0
-1943 1944 0
-249 -1943 0
-212 1942 0
-1942 1945 0
-249 -1942 1944 0
-1944 1946 0
-264 -1944 0
-249 1945 0
-1945 1947 0
-264 -1945 1946 0
-1946 1948 0
-306 -1946 0
-264 1947 0
-1947 1949 0
-306 -1947 1948 0
-1948 1950 0
-307 -1948 0
-306 1949 0
-1949 1951 0
-307 -1949 1950 0
-1950 1952 0
-308 -1950 0
-307 1951 0
-308 -1951 1952 0
-309 -1952 0
209 1953 0
-1953 1954 0
215 -1953 1955 0
-1955 1956 0
253 -1955 1957 0
-1957 1958 0
266 -1957 1959 0
-1959 1960 0
310 -1959 1961 0
-1961 1962 0
311 -1961 1963 0
-1963 1964 0
312 -1963 0
215 1954 0
253 -1954 1956 0
266 -1956 1958 0
310 -1958 1960 0
311 -1960 1962 0
312 -1962 1964 0
313 -1964 0
-209 1965 0
-1965 1966 0
-215 -1965 1967 0
-1967 1968 0
-253 -1967 0
-215 1966 0
-1966 1969 0
-253 -1966 1968 0
-1968 1970 0
-266 -1968 0
-253 1969 0
-1969 1971 0
-266 -1969 1970 0
-1970 1972 0
-310 -1970 0
-266 1971 0
-1971 1973 0
-310 -1971 1972 0
-1972 1974 0
-311 -1972 0
-310 1973 0
-1973 1975 0
-311 -1973 1974 0
-1974 1976 0
-312 -1974 0
-311 1975 0
-312 -1975 1976 0
-313 -1976 0
-213 1977 0
-1977 1978 0
-257 -1977 1979 0
-1979 1980 0
-314 -1979 0
-257 1978 0
-314 -1978 1980 0
-315 -1980 0
219 1981 0
-1981 1982 0
226 -1981 1983 0
-1983 1984 0
267 -1983 1985 0
-1985 1986 0
278 -1985 1987 0
-1987 1988 0
320 -1987 1989 0
-1989 1990 0
321 -1989 1991 0
-1991 1992 0
322 -1991 0
226 1982 0
267 -1982 1984 0
278 -1984 1986 0
320 -1986 1988 0
321 -1988 1990 0
322 -1990 1992 0
323 -1992 0
-219 1993 0
-1993 1994 0
-226 -1993 1995 0
-1995 1996 0
-267 -1995 0
-226 1994 0
-1994 1997 0
-267 -1994 1996 0
-1996 1998 0
-278 -1996 0
-267 1997 0
-1997 1999 0
-278 -1997 1998 0
-1998 2000 0
-320 -1998 0
-278 1999 0
-1999 2001 0
-320 -1999 2000 0
-2000 2002 0
-321 -2000 0
-320 2001 0
-2001 2003 0
-321 -2001 2002 0
-2002 2004 0
-322 -2002 0
-321 2003 0
-322 -2003 2004 0
-323 -2004 0
-222 2005 0
-2005 2006 0
-274 -2005 2007 0
-2007 2008 0
-318 -2007 0
-274 2006 0
-318 -2006 2008 0
-319 -2008 0
223 2009 0
-2009 2010 0
230 -2009 2011 0
-2011 2012 0
268 -2011 2013 0
-2013 2014 0
282 -2013 2015 0
-2015 2016 0
324 -2015 2017 0
-2017 2018 0
325 -2017 2019 0
-2019 2020 0
326 -2019 0
230 2010 0
268 -2010 2012 0
282 -2012 2014 0
324 -2014 2016 0
325 -2016 2018 0
326 -2018 2020 0
327 -2020 0
-223 2021 0
-2021 2022 0
-230 -2021 2023 0
-2023 2024 0
-268 -2023 0
-230 2022 0
-2022 2025 0
-268 -2022 2024 0
-2024 2026 0
-282 -2024 0
-268 2025 0
-2025 2027 0
-282 -2025 2026 0
-2026 2028 0
-324 -2026 0
-282 2027 0
-2027 2029 0
-324 -2027 2028 0
-2028 2030 0
-325 -2028 0
-324 2029 0
-2029 2031 0
-325 -2029 2030 0
-2030 2032 0
-326 -2030 0
-325 2031 0
-326 -2031 2032 0
-327 -2032 0
227 2033 0
-2033 2034 0
234 -2033 2035 0
-2035 2036 0
271 -2035 2037 0
-2037 2038 0
286 -2037 2039 0
-2039 2040 0
328 -2039 2041 0
-2041 2042 0
329 -2041 2043 0
-2043 2044 0
330 -2043 0
234 2034 0
271 -2034 2036 0
286 -2036 2038 0
328 -2038 2040 0
329 -2040 2042 0
330 -2042 2044 0
331 -2044 0
-227 2045 0
-2045 2046 0
-234 -2045 2047 0
-2047 2048 0
-271 -2047 0
-234 2046 0
-2046 2049 0
-271 -2046 2048 0
-2048 2050 0
-286 -2048 0
-271 2049 0
-2049 2051 0
-286 -2049 2050 0
-2050 2052 0
-328 -2050 0
-286 2051 0
-2051 2053 0
-328 -2051 2052 0
-2052 2054 0
-329 -2052 0
-328 2053 0
-2053 2055 0
-329 -2053 2054 0
-2054 2056 0
-330 -2054 0
-329 2055 0
-330 -2055 2056 0
-331 -2056 0
231 2057 0
-2057 2058 0
238 -2057 2059 0
-2059 2060 0
275 -2059 2061 0
-2061 2062 0
290 -2061 2063 0
-2063 2064 0
332 -2063 2065 0
-2065 2066 0
333 -2065 2067 0
-2067 2068 0
334 -2067 0
238 2058 0
275 -2058 2060 0
290 -2060 2062 0
332 -2062 2064 0
333 -2064 2066 0
334 -2066 2068 0
335 -2068 0
-231 2069 0
-2069 2070 0
-238 -2069 2071 0
-2071 2072 0
-275 -2071 0
-238 2070 0
-2070 2073 0
-275 -2070 2072 0
-2072 2074 0
-290 -2072 0
-275 2073 0
-2073 2075 0
-290 -2073 2074 0
-2074 2076 0
-332 -2074 0
-290 2075 0
-2075 2077 0
-332 -2075 2076 0
-2076 2078 0
-333 -2076 0
-332 2077 0
-2077 2079 0
-333 -2077 2078 0
-2078 2080 0
-334 -2078 0
-333 2079 0
-334 -2079 2080 0
-335 -2080 0
235 2081 0
-2081 2082 0
242 -2081 2083 0
-2083 2084 0
279 -2083 2085 0
-2085 2086 0
294 -2085 2087 0
-2087 2088 0
336 -2087 2089 0
-2089 2090 0
337 -2089 2091 0
-2091 2092 0
338 -2091 0
242 2082 0
279 -2082 2084 0
294 -2084 2086 0
336 -2086 2088 0
337 -2088 2090 0
338 -2090 2092 0
339 -2092 0
-235 2093 0
-2093 2094 0
-242 -2093 2095 0
-2095 2096 0
-279 -2095 0
-242 2094 0
-2094 2097 0
-279 -2094 2096 0
-2096 2098 0
-294 -2096 0
-279 2097 0
-2097 2099 0
-294 -2097 2098 0
-2098 2100 0
-336 -2098 0
-294 2099 0
-2099 2101 0
-336 -2099 2100 0
-2100 2102 0
-337 -2100 0
-336 2101 0
-2101 2103 0
-337 -2101 2102 0
-2102 2104 0
-338 -2102 0
-337 2103 0
-338 -2103 2104 0
-339 -2104 0
239 2105 0
-2105 2106 0
246 -2105 2107 0
-2107 2108 0
283 -2107 2109 0
-2109 2110 0
298 -2109 2111 0
-2111 2112 0
340 -2111 2113 0
-2113 2114 0
341 -2113 2115 0
-2115 2116 0
342 -2115 0
246 2106 0
283 -2106 2108 0
298 -2108 2110 0
340 -2110 2112 0
341 -2112 2114 0
342 -2114 2116 0
343 -2116 0
-239 2117 0
-2117 2118 0
-246 -2117 2119 0
-2119 2120 0
-283 -2119 0
-246 2118 0
-2118 2121 0
-283 -2118 2120 0
-2120 2122 0
-298 -2120 0
-283 2121 0
-2121 2123 0
-298 -2121 2122 0
-2122 2124 0
-340 -2122 0
-298 2123 0
-2123 2125 0
-340 -2123 2124 0
-2124 2126 0
-341 -2124 0
-340 2125 0
-2125 2127 0
-341 -2125 2126 0
-2126 2128 0
-342 -2126 0
-341 2127 0
-342 -2127 2128 0
-343 -2128 0
243 2129 0
-2129 2130 0
250 -2129 2131 0
-2131 2132 0
287 -2131 2133 0
-2133 2134 0
302 -2133 2135 0
-2135 2136 0
344 -2135 2137 0
-2137 2138 0
345 -2137 2139 0
-2139 2140 0
346 -2139 0
250 2130 0
287 -2130 2132 0
302 -2132 2134 0
344 -2134 2136 0
345 -2136 2138 0
346 -2138 2140 0
347 -2140 0
-243 2141 0
-2141 2142 0
-250 -2141 2143 0
-2143 2144 0
-287 -2143 0
-250 2142 0
-2142 2145 0
-287 -2142 2144 0
-2144 2146 0
-302 -2144 0
-287 2145 0
-2145 2147 0
-302 -2145 2146 0
-2146 2148 0
-344 -2146 0
-302 2147 0
-2147 2149 0
-344 -2147 2148 0
-2148 2150 0
-345 -2148 0
-344 2149 0
-2149 2151 0
-345 -2149 2150 0
-2150 2152 0
-346 -2150 0
-345 2151 0
-346 -2151 2152 0
-347 -2152 0
247 2153 0
-2153 2154 0
254 -2153 2155 0
-2155 2156 0
291 -2155 2157 0
-2157 2158 0
306 -2157 2159 0
-2159 2160 0
348 -2159 2161 0
-2161 2162 0
349 -2161 2163 0
-2163 2164 0
350 -2163 0
254 2154 0
291 -2154 2156 0
306 -2156 2158 0
348 -2158 2160 0
349 -2160 2162 0
350 -2162 2164 0
351 -2164 0
-247 2165 0
-2165 2166 0
-254 -2165 2167 0
-2167 2168 0
-291 -2167 0
-254 2166 0
-2166 2169 0
-291 -2166 2168 0
-2168 2170 0
-306 -2168 0
-291 2169 0
-2169 2171 0
-306 -2169 2170 0
-2170 2172 0
-348 -2170 0
-306 2171 0
-2171 2173 0
-348 -2171 2172 0
-2172 2174 0
-349 -2172 0
-348 2173 0
-2173 2175 0
-349 -2173 2174 0
-2174 2176 0
-350 -2174 0
-349 2175 0
-350 -2175 2176 0
-351 -2176 0
251 2177 0
-2177 2178 0
258 -2177 2179 0
-2179 2180 0
295 -2179 2181 0
-2181 2182 0
310 -2181 2183 0
-2183 2184 0
352 -2183 2185 0
-2185 2186 0
353 -2185 2187 0
-2187 2188 0
354 -2187 0
258 2178 0
295 -2178 2180 0
310 -2180 2182 0
352 -2182 2184 0
353 -2184 2186 0
354 -2186 2188 0
355 -2188 0
-251 2189 0
-2189 2190 0
-258 -2189 2191 0
-2191 2192 0
-295 -2191 0
-258 2190 0
-2190 2193 0
-295 -2190 2192 0
-2192 2194 0
-310 -2192 0
-295 2193 0
-2193 2195 0
-310 -2193 2194 0
-2194 2196 0
-352 -2194 0
-310 2195 0
-2195 2197 0
-352 -2195 2196 0
-2196 2198 0
-353 -2196 0
-352 2197 0
-2197 2199 0
-353 -2197 2198 0
-2198 2200 0
-354 -2198 0
-353 2199 0
-354 -2199 2200 0
-355 -2200 0
255 2201 0
-2201 2202 0
262 -2201 2203 0
-2203 2204 0
299 -2203 2205 0
-2205 2206 0
314 -2205 2207 0
-2207 2208 0
356 -2207 2209 0
-2209 2210 0
357 -2209 2211 0
-2211 2212 0
358 -2211 0
262 2202 0
299 -2202 2204 0
314 -2204 2206 0
356 -2206 2208 0
357 -2208 2210 0
358 -2210 2212 0
359 -2212 0
-255 2213 0
-2213 2214 0
-262 -2213 2215 0
-2215 2216 0
-299 -2215 0
-262 2214 0
-2214 2217 0
-299 -2214 2216 0
-2216 2218 0
-314 -2216 0
-299 2217 0
-2217 2219 0
-314 -2217 2218 0
-2218 2220 0
-356 -2218 0
-314 2219 0
-2219 2221 0
-356 -2219 2220 0
-2220 2222 0
-357 -2220 0
-356 2221 0
-2221 2223 0
-357 -2221 2222 0
-2222 2224 0
-358 -2222 0
-357 2223 0
-358 -2223 2224 0
-359 -2224 0
259 2225 0
-2225 2226 0
265 -2225 2227 0
-2227 2228 0
303 -2227 2229 0
-2229 2230 0
316 -2229 2231 0
-2231 2232 0
360 -2231 2233 0
-2233 2234 0
361 -2233 2235 0
-2235 2236 0
362 -2235 0
265 2226 0
303 -2226 2228 0
316 -2228 2230 0
360 -2230 2232 0
361 -2232 2234 0
362 -2234 2236 0
363 -2236 0
-259 2237 0
-2237 2238 0
-265 -2237 2239 0
-2239 2240 0
-303 -2239 0
-265 2238 0
-2238 2241 0
-303 -2238 2240 0
-2240 2242 0
-316 -2240 0
-303 2241 0
-2241 2243 0
-316 -2241 2242 0
-2242 2244 0
-360 -2242 0
-316 2243 0
-2243 2245 0
-360 -2243 2244 0
-2244 2246 0
-361 -2244 0
-360 2245 0
-2245 2247 0
-361 -2245 2246 0
-2246 2248 0
-362 -2246 0
-361 2247 0
-362 -2247 2248 0
-363 -2248 0
-263 2249 0
-2249 2250 0
-307 -2249 2251 0
-2251 2252 0
-364 -2251 0
-307 2250 0
-364 -2250 2252 0
-365 -2252 0
269 2253 0
-2253 2254 0
276 -2253 2255 0
-2255 2256 0
317 -2255 2257 0
-2257 2258 0
328 -2257 2259 0
-2259 2260 0
370 -2259 2261 0
-2261 2262 0
371 -2261 2263 0
-2263 2264 0
372 -2263 0
276 2254 0
317 -2254 2256 0
328 -2256 2258 0
370 -2258 2260 0
371 -2260 2262 0
372 -2262 2264 0
373 -2264 0
-269 2265 0
-2265 2266 0
-276 -2265 2267 0
-2267 2268 0
-317 -2267 0
-276 2266 0
-2266 2269 0
-317 -2266 2268 0
-2268 2270 0
-328 -2268 0
-317 2269 0
-2269 2271 0
-328 -2269 2270 0
-2270 2272 0
-370 -2270 0
-328 2271 0
-2271 2273 0
-370 -2271 2272 0
-2272 2274 0
-371 -2272 0
-370 2273 0
-2273 2275 0
-371 -2273 2274 0
-2274 2276 0
-372 -2274 0
-371 2275 0
-372 -2275 2276 0
-373 -2276 0
-272 2277 0
-2277 2278 0
-324 -2277 2279 0
-2279 2280 0
-368 -2279 0
-324 2278 0
-368 -2278 2280 0
-369 -2280 0
273 2281 0
-2281 2282 0
280 -2281 2283 0
-2283 2284 0
318 -2283 2285 0
-2285 2286 0
332 -2285 2287 0
-2287 2288 0
374 -2287 2289 0
-2289 2290 0
375 -2289 2291 0
-2291 2292 0
376 -2291 0
280 2282 0
318 -2282 2284 0
332 -2284 2286 0
374 -2286 2288 0
375 -2288 2290 0
376 -2290 2292 0
377 -2292 0
-273 2293 0
-2293 2294 0
-280 -2293 2295 0
-2295 2296 0
-318 -2295 0
-280 2294 0
-2294 2297 0
-318 -2294 2296 0
-2296 2298 0
-332 -2296 0
-318 2297 0
-2297 2299 0
-332 -2297 2298 0
-2298 2300 0
-374 -2298 0
-332 2299 0
-2299 2301 0
-374 -2299 2300 0
-2300 2302 0
-375 -2300 0
-374 2301 0
-2301 2303 0
-375 -2301 2302 0
-2302 2304 0
-376 -2302 0
-375 2303 0
-376 -2303 2304 0
-377 -2304 0
277 2305 0
-2305 2306 0
284 -2305 2307 0
-2307 2308 0
321 -2307 2309 0
-2309 2310 0
336 -2309 2311 0
-2311 2312 0
378 -2311 2313 0
-2313 2314 0
379 -2313 2315 0
-2315 2316 0
380 -2315 0
284 2306 0
321 -2306 2308 0
336 -2308 2310 0
378 -2310 2312 0
379 -2312 2314 0
380 -2314 2316 0
381 -2316 0
-277 2317 0
-2317 2318 0
-284 -2317 2319 0
-2319 2320 0
-321 -2319 0
-284 2318 0
-2318 2321 0
-321 -2318 2320 0
-2320 2322 0
-336 -2320 0
-321 2321 0
-2321 2323 0
-336 -2321 2322 0
-2322 2324 0
-378 -2322 0
-336 2323 0
-2323 2325 0
-378 -2323 2324 0
-2324 2326 0
-379 -2324 0
-378 2325 0
-2325 2327 0
-379 -2325 2326 0
-2326 2328 0
-380 -2326 0
-379 2327 0
-380 -2327 2328 0
-381 -2328 0
281 2329 0
-2329 2330 0
288 -2329 2331 0
-2331 2332 0
325 -2331 2333 0
-2333 2334 0
340 -2333 2335 0
-2335 2336 0
382 -2335 2337 0
-2337 2338 0
383 -2337 2339 0
-2339 2340 0
384 -2339 0
288 2330 0
325 -2330 2332 0
340 -2332 2334 0
382 -2334 2336 0
383 -2336 2338 0
384 -2338 2340 0
385 -2340 0
-281 2341 0
-2341 2342 0
-288 -2341 2343 0
-2343 2344 0
-325 -2343 0
-288 2342 0
-2342 2345 0
-325 -2342 2344 0
-2344 2346 0
-340 -2344 0
-325 2345 0
-2345 2347 0
-340 -2345 2346 0
-2346 2348 0
-382 -2346 0
-340 2347 0
-2347 2349 0
-382 -2347 2348 0
-2348 2350 0
-383 -2348 0
-382 2349 0
-2349 2351 0
-383 -2349 2350 0
-2350 2352 0
-384 -2350 0
-383 2351 0
-384 -2351 2352 0
-385 -2352 0
285 2353 0
-2353 2354 0
292 -2353 2355 0
-2355 2356 0
329 -2355 2357 0
-2357 2358 0
344 -2357 2359 0
-2359 2360 0
386 -2359 2361 0
-2361 2362 0
387 -2361 2363 0
-2363 2364 0
388 -2363 0
292 2354 0
329 -2354 2356 0
344 -2356 2358 0
386 -2358 2360 0
387 -2360 2362 0
388 -2362 2364 0
389 -2364 0
-285 2365 0
-2365 2366 0
-292 -2365 2367 0
-2367 2368 0
-329 -2367 0
-292 2366 0
-2366 2369 0
-329 -2366 2368 0
-2368 2370 0
-344 -2368 0
-329 2369 0
-2369 2371 0
-344 -2369 2370 0
-2370 2372 0
-386 -2370 0
-344 2371 0
-2371 2373 0
-386 -2371 2372 0
-2372 2374 0
-387 -2372 0
-386 2373 0
-2373 2375 0
-387 -2373 2374 0
-2374 2376 0
-388 -2374 0
-387 2375 0
-388 -2375 2376 0
-389 -2376 0
289 2377 0
-2377 2378 0
296 -2377 2379 0
-2379 2380 0
333 -2379 2381 0
-2381 2382 0
348 -2381 2383 0
-2383 2384 0
390 -2383 2385 0
-2385 2386 0
391 -2385 2387 0
-2387 2388 0
392 -2387 0
296 2378 0
333 -2378 2380 0
348 -2380 2382 0
390 -2382 2384 0
391 -2384 2386 0
392 -2386 2388 0
393 -2388 0
-289 2389 0
-2389 2390 0
-296 -2389 2391 0
-2391 2392 0
-333 -2391 0
-296 2390 0
-2390 2393 0
-333 -2390 2392 0
-2392 2394 0
-348 -2392 0
-333 2393 0
-2393 2395 0
-348 -2393 2394 0
-2394 2396 0
-390 -2394 0
-348 2395 0
-2395 2397 0
-390 -2395 2396 0
-2396 2398 0
-391 -2396 0
-390 2397 0
-2397 2399 0
-391 -2397 2398 0
-2398 2400 0
-392 -2398 0
-391 2399 0
-392 -2399 2400 0
-393 -2400 0
293 2401 0
-2401 2402 0
300 -2401 2403 0
-2403 2404 0
337 -2403 2405 0
-2405 2406 0
352 -2405 2407 0
-2407 2408 0
394 -2407 2409 0
-2409 2410 0
395 -2409 2411 0
-2411 2412 0
396 -2411 0
300 2402 0
337 -2402 2404 0
352 -2404 2406 0
394 -2406 2408 0
395 -2408 2410 0
396 -2410 2412 0
397 -2412 0
-293 2413 0
-2413 2414 0
-300 -2413 2415 0
-2415 2416 0
-337 -2415 0
-300 2414 0
-2414 2417 0
-337 -2414 2416 0
-2416 2418 0
-352 -2416 0
-337 2417 0
-2417 2419 0
-352 -2417 2418 0
-2418 2420 0
-394 -2418 0
-352 2419 0
-2419 2421 0
-394 -2419 2420 0
-2420 2422 0
-395 -2420 0
-394 2421 0
-2421 2423 0
-395 -2421 2422 0
-2422 2424 0
-396 -2422 0
-395 2423 0
-396 -2423 2424 0
-397 -2424 0
297 2425 0
-2425 2426 0
304 -2425 2427 0
-2427 2428 0
341 -2427 2429 0
-2429 2430 0
356 -2429 2431 0
-2431 2432 0
398 -2431 2433 0
-2433 2434 0
399 -2433 2435 0
-2435 2436 0
400 -2435 0
304 2426 0
341 -2426 2428 0
356 -2428 2430 0
398 -2430 2432 0
399 -2432 2434 0
400 -2434 2436 0
401 -2436 0
-297 2437 0
-2437 2438 0
-304 -2437 2439 0
-2439 2440 0
-341 -2439 0
-304 2438 0
-2438 2441 0
-341 -2438 2440 0
-2440 2442 0
-356 -2440 0
-341 2441 0
-2441 2443 0
-356 -2441 2442 0
-2442 2444 0
-398 -2442 0
-356 2443 0
-2443 2445 0
-398 -2443 2444 0
-2444 2446 0
-399 -2444 0
-398 2445 0
-2445 2447 0
-399 -2445 2446 0
-2446 2448 0
-400 -2446 0
-399 2447 0
-400 -2447 2448 0
-401 -2448 0
301 2449 0
-2449 2450 0
308 -2449 2451 0
-2451 2452 0
345 -2451 2453 0
-2453 2454 0
360 -2453 2455 0
-2455 2456 0
402 -2455 2457 0
-2457 2458 0
403 -2457 2459 0
-2459 2460 0
404 -2459 0
308 2450 0
345 -2450 2452 0
360 -2452 2454 0
402 -2454 2456 0
403 -2456 2458 0
404 -2458 2460 0
405 -2460 0
-301 2461 0
-2461 2462 0
-308 -2461 2463 0
-2463 2464 0
-345 -2463 0
-308 2462 0
-2462 2465 0
-345 -2462 2464 0
-2464 2466 0
-360 -2464 0
-345 2465 0
-2465 2467 0
-360 -2465 2466 0
-2466 2468 0
-402 -2466 0
-360 2467 0
-2467 2469 0
-402 -2467 2468 0
-2468 2470 0
-403 -2468 0
-402 2469 0
-2469 2471 0
-403 -2469 2470 0
-2470 2472 0
-404 -2470 0
-403 2471 0
-404 -2471 2472 0
-405 -2472 0
305 2473 0
-2473 2474 0
312 -2473 2475 0
-2475 2476 0
349 -2475 2477 0
-2477 2478 0
364 -2477 2479 0
-2479 2480 0
406 -2479 2481 0
-2481 2482 0
407 -2481 2483 0
-2483 2484 0
408 -2483 0
312 2474 0
349 -2474 2476 0
364 -2476 2478 0
406 -2478 2480 0
407 -2480 2482 0
408 -2482 2484 0
409 -2484 0
-305 2485 0
-2485 2486 0
-312 -2485 2487 0
-2487 2488 0
-349 -2487 0
-312 2486 0
-2486 2489 0
-349 -2486 2488 0
-2488 2490 0
-364 -2488 0
-349 2489 0
-2489 2491 0
-364 -2489 2490 0
-2490 2492 0
-406 -2490 0
-364 2491 0
-2491 2493 0
-406 -2491 2492 0
-2492 2494 0
-407 -2492 0
-406 2493 0
-2493 2495 0
-407 -2493 2494 0
-2494 2496 0
-408 -2494 0
-407 2495 0
-408 -2495 2496 0
-409 -2496 0
309 2497 0
-2497 2498 0
315 -2497 2499 0
-2499 2500 0
353 -2499 2501 0
-2501 2502 0
366 -2501 2503 0
-2503 2504 0
410 -2503 2505 0
-2505 2506 0
411 -2505 2507 0
-2507 2508 0
412 -2507 0
315 2498 0
353 -2498 2500 0
366 -2500 2502 0
410 -2502 2504 0
411 -2504 2506 0
412 -2506 2508 0
413 -2508 0
-309 2509 0
-2509 2510 0
-315 -2509 2511 0
-2511 2512 0
-353 -2511 0
-315 2510 0
-2510 2513 0
-353 -2510 2512 0
-2512 2514 0
-366 -2512 0
-353 2513 0
-2513 2515 0
-366 -2513 2514 0
-2514 2516 0
-410 -2514 0
-366 2515 0
-2515 2517 0
-410 -2515 2516 0
-2516 2518 0
-411 -2516 0
-410 2517 0
-2517 2519 0
-411 -2517 2518 0
-2518 2520 0
-412 -2518 0
-411 2519 0
-412 -2519 2520 0
-413 -2520 0
-313 2521 0
-2521 2522 0
-357 -2521 2523 0
-2523 2524 0
-414 -2523 0
-357 2522 0
-414 -2522 2524 0
-415 -2524 0
319 2525 0
-2525 2526 0
326 -2525 2527 0
-2527 2528 0
367 -2527 2529 0
-2529 2530 0
378 -2529 2531 0
-2531 2532 0
420 -2531 2533 0
-2533 2534 0
421 -2533 2535 0
-2535 2536 0
422 -2535 0
326 2526 0
367 -2526 2528 0
378 -2528 2530 0
420 -2530 2532 0
421 -2532 2534 0
422 -2534 2536 0
423 -2536 0
-319 2537 0
-2537 2538 0
-326 -2537 2539 0
-2539 2540 0
-367 -2539 0
-326 2538 0
-2538 2541 0
-367 -2538 2540 0
-2540 2542 0
-378 -2540 0
-367 2541 0
-2541 2543 0
-378 -2541 2542 0
-2542 2544 0
-420 -2542 0
-378 2543 0
-2543 2545 0
-420 -2543 2544 0
-2544 2546 0
-421 -2544 0
-420 2545 0
-2545 2547 0
-421 -2545 2546 0
-2546 2548 0
-422 -2546 0
-421 2547 0
-422 -2547 2548 0
-423 -2548 0
-322 2549 0
-2549 2550 0
-374 -2549 2551 0
-2551 2552 0
-418 -2551 0
-374 2550 0
-418 -2550 2552 0
-419 -2552 0
323 2553 0
-2553 2554 0
330 -2553 2555 0
-2555 2556 0
368 -2555 2557 0
-2557 2558 0
382 -2557 2559 0
-2559 2560 0
424 -2559 2561 0
-2561 2562 0
425 -2561 2563 0
-2563 2564 0
426 -2563 0
330 2554 0
368 -2554 2556 0
382 -2556 2558 0
424 -2558 2560 0
425 -2560 2562 0
426 -2562 2564 0
427 -2564 0
-323 2565 0
-2565 2566 0
-330 -2565 2567 0
-2567 2568 0
-368 -2567 0
-330 2566 0
-2566 2569 0
-368 -2566 2568 0
-2568 2570 0
-382 -2568 0
-368 2569 0
-2569 2571 0
-382 -2569 2570 0
-2570 2572 0
-424 -2570 0
-382 2571 0
-2571 2573 0
-424 -2571 2572 0
-2572 2574 0
-425 -2572 0
-424 2573 0
-2573 2575 0
-425 -2573 2574 0
-2574 2576 0
-426 -2574 0
-425 2575 0
-426 -2575 2576 0
-427 -2576 0
327 2577 0
-2577 2578 0
334 -2577 2579 0
-2579 2580 0
371 -2579 2581 0
-2581 2582 0
386 -2581 2583 0
-2583 2584 0
428 -2583 2585 0
-2585 2586 0
429 -2585 2587 0
-2587 2588 0
430 -2587 0
334 2578 0
371 -2578 2580 0
386 -2580 2582 0
428 -2582 2584 0
429 -2584 2586 0
430 -2586 2588 0
431 -2588 0
-327 2589 0
-2589 2590 0
-334 -2589 2591 0
-2591 2592 0
-371 -2591 0
-334 2590 0
-2590 2593 0
-371 -2590 2592 0
-2592 2594 0
-386 -2592 0
-371 2593 0
-2593 2595 0
-386 -2593 2594 0
-2594 2596 0
-428 -2594 0
-386 2595 0
-2595 2597 0
-428 -2595 2596 0
-2596 2598 0
-429 -2596 0
-428 2597 0
-2597 2599 0
-429 -2597 2598 0
-2598 2600 0
-430 -2598 0
-429 2599 0
-430 -2599 2600 0
-431 -2600 0
331 2601 0
-2601 2602 0
338 -2601 2603 0
-2603 2604 0
375 -2603 2605 0
-2605 2606 0
390 -2605 2607 0
-2607 2608 0
432 -2607 2609 0
-2609 2610 0
433 -2609 2611 0
-2611 2612 0
434 -2611 0
338 2602 0
375 -2602 2604 0
390 -2604 2606 0
432 -2606 2608 0
433 -2608 2610 0
434 -2610 2612 0
435 -2612 0
-331 2613 0
-2613 2614 0
-338 -2613 2615 0
-2615 2616 0
-375 -2615 0
-338 2614 0
-2614 2617 0
-375 -2614 2616 0
-2616 2618 0
-390 -2616 0
-375 2617 0
-2617 2619 0
-390 -2617 2618 0
-2618 2620 0
-432 -2618 0
-390 2619 0
-2619 2621 0
-432 -2619 2620 0
-2620 2622 0
-433 -2620 0
-432 2621 0
-2621 2623 0
-433 -2621 2622 0
-2622 2624 0
-434 -2622 0
-433 2623 0
-434 -2623 2624 0
-435 -2624 0
335 2625 0
-2625 2626 0
342 -2625 2627 0
-2627 2628 0
379 -2627 2629 0
-2629 2630 0
394 -2629 2631 0
-2631 2632 0
436 -2631 2633 0
-2633 2634 0
437 -2633 2635 0
-2635 2636 0
438 -2635 0
342 2626 0
379 -2626 2628 0
394 -2628 2630 0
436 -2630 2632 0
437 -2632 2634 0
438 -2634 2636 0
439 -2636 0
-335 2637 0
-2637 2638 0
-342 -2637 2639 0
-2639 2640 0
-379 -2639 0
-342 2638 0
-2638 2641 0
-379 -2638 2640 0
-2640 2642 0
-394 -2640 0
-379 2641 0
-2641 2643 0
-394 -2641 2642 0
-2642 2644 0
-436 -2642 0
-394 2643 0
-2643 2645 0
-436 -2643 2644 0
-2644 2646 0
-437 -2644 0
-436 2645 0
-2645 2647 0
-437 -2645 2646 0
-2646 2648 0
-438 -2646 0
-437 2647 0
-438 -2647 2648 0
-439 -2648 0
339 2649 0
-2649 2650 0
346 -2649 2651 0
-2651 2652 0
383 -2651 2653 0
-2653 2654 0
398 -2653 2655 0
-2655 2656 0
440 -2655 2657 0
-2657 2658 0
441 -2657 2659 0
-2659 2660 0
442 -2659 0
346 2650 0
383 -2650 2652 0
398 -2652 2654 0
440 -2654 2656 0
441 -2656 2658 0
442 -2658 2660 0
443 -2660 0
-339 2661 0
-2661 2662 0
-346 -2661 2663 0
-2663 2664 0
-383 -2663 0
-346 2662 0
-2662 2665 0
-383 -2662 2664 0
-2664 2666 0
-398 -2664 0
-383 2665 0
-2665 2667 0
-398 -2665 2666 0
-2666 2668 0
-440 -2666 0
-398 2667 0
-2667 2669 0
-440 -2667 2668 0
-2668 2670 0
-441 -2668 0
-440 2669 0
-2669 2671 0
-441 -2669 2670 0
-2670 2672 0
-442 -2670 0
-441 2671 0
-442 -2671 2672 0
-443 -2672 0
343 2673 0
-2673 2674 0
350 -2673 2675 0
-2675 2676 0
387 -2675 2677 0
-2677 2678 0
402 -2677 2679 0
-2679 2680 0
444 -2679 2681 0
-2681 2682 0
445 -2681 2683 0
-2683 2684 0
446 -2683 0
350 2674 0
387 -2674 2676 0
402 -2676 2678 0
444 -2678 2680 0
445 -2680 2682 0
446 -2682 2684 0
447 -2684 0
-343 2685 0
-2685 2686 0
-350 -2685 2687 0
-2687 2688 0
-387 -2687 0
-350 2686 0
-2686 2689 0
-387 -2686 2688 0
-2688 2690 0
-402 -2688 0
-387 2689 0
-2689 2691 0
-402 -2689 2690 0
-2690 2692 0
-444 -2690 0
-402 2691 0
-2691 2693 0
-444 -2691 2692 0
-2692 2694 0
-445 -2692 0
-444 2693 0
-2693 2695 0
-445 -2693 2694 0
-2694 2696 0
-446 -2694 0
-445 2695 0
-446 -2695 2696 0
-447 -2696 0
347 2697 0
-2697 2698 0
354 -2697 2699 0
-2699 2700 0
391 -2699 2701 0
-2701 2702 0
406 -2701 2703 0
-2703 2704 0
448 -2703 2705 0
-2705 2706 0
449 -2705 2707 0
-2707 2708 0
450 -2707 0
354 2698 0
391 -2698 2700 0
406 -2700 2702 0
448 -2702 2704 0
449 -2704 2706 0
450 -2706 2708 0
451 -2708 0
-347 2709 0
-2709 2710 0
-354 -2709 2711 0
-2711 2712 0
-391 -2711 0
-354 2710 0
-2710 2713 0
-391 -2710 2712 0
-2712 2714 0
-406 -2712 0
-391 2713 0
-2713 2715 0
-406 -2713 2714 0
-2714 2716 0
-448 -2714 0
-406 2715 0
-2715 2717 0
-448 -2715 2716 0
-2716 2718 0
-449 -2716 0
-448 2717 0
-2717 2719 0
-449 -2717 2718 0
-2718 2720 0
-450 -2718 0
-449 2719 0
-450 -2719 2720 0
-451 -2720 0
351 2721 0
-2721 2722 0
358 -2721 2723 0
-2723 2724 0
395 -2723 2725 0
-2725 2726 0
410 -2725 2727 0
-2727 2728 0
452 -2727 2729 0
-2729 2730 0
453 -2729 2731 0
-2731 2732 0
454 -2731 0
358 2722 0
395 -2722 2724 0
410 -2724 2726 0
452 -2726 2728 0
453 -2728 2730 0
454 -2730 2732 0
455 -2732 0
-351 2733 0
-2733 2734 0
-358 -2733 2735 0
-2735 2736 0
-395 -2735 0
-358 2734 0
-2734 2737 0
-395 -2734 2736 0
-2736 2738 0
-410 -2736 0
-395 2737 0
-2737 2739 0
-410 -2737 2738 0
-2738 2740 0
-452 -2738 0
-410 2739 0
-2739 2741 0
-452 -2739 2740 0
-2740 2742 0
-453 -2740 0
-452 2741 0
-2741 2743 0
-453 -2741 2742 0
-2742 2744 0
-454 -2742 0
-453 2743 0
-454 -2743 2744 0
-455 -2744 0
355 2745 0
-2745 2746 0
362 -2745 2747 0
-2747 2748 0
399 -2747 2749 0
-2749 2750 0
414 -2749 2751 0
-2751 2752 0
456 -2751 2753 0
-2753 2754 0
457 -2753 2755 0
-2755 2756 0
458 -2755 0
362 2746 0
399 -2746 2748 0
414 -2748 2750 0
456 -2750 2752 0
457 -2752 2754 0
458 -2754 2756 0
459 -2756 0
-355 2757 0
-2757 2758 0
-362 -2757 2759 0
-2759 2760 0
-399 -2759 0
-362 2758 0
-2758 2761 0
-399 -2758 2760 0
-2760 2762 0
-414 -2760 0
-399 2761 0
-2761 2763 0
-414 -2761 2762 0
-2762 2764 0
-456 -2762 0
-414 2763 0
-2763 2765 0
-456 -2763 2764 0
-2764 2766 0
-457 -2764 0
-456 2765 0
-2765 2767 0
-457 -2765 2766 0
-2766 2768 0
-458 -2766 0
-457 2767 0
-458 -2767 2768 0
-459 -2768 0
359 2769 0
-2769 2770 0
365 -2769 2771 0
-2771 2772 0
403 -2771 2773 0
-2773 2774 0
416 -2773 2775 0
-2775 2776 0
460 -2775 2777 0
-2777 2778 0
461 -2777 2779 0
-2779 2780 0
462 -2779 0
365 2770 0
403 -2770 2772 0
416 -2772 2774 0
460 -2774 2776 0
461 -2776 2778 0
462 -2778 2780 0
463 -2780 0
-359 2781 0
-2781 2782 0
-365 -2781 2783 0
-2783 2784 0
-403 -2783 0
-365 2782 0
-2782 2785 0
-403 -2782 2784 0
-2784 2786 0
-416 -2784 0
-403 2785 0
-2785 2787 0
-416 -2785 2786 0
-2786 2788 0
-460 -2786 0
-416 2787 0
-2787 2789 0
-460 -2787 2788 0
-2788 2790 0
-461 -2788 0
-460 2789 0
-2789 2791 0
-461 -2789 2790 0
-2790 2792 0
-462 -2790 0
-461 2791 0
-462 -2791 2792 0
-463 -2792 0
-363 2793 0
-2793 2794 0
-407 -2793 2795 0
-2795 2796 0
-464 -2795 0
-407 2794 0
-464 -2794 2796 0
-465 -2796 0
369 2797 0
-2797 2798 0
376 -2797 2799 0
-2799 2800 0
417 -2799 2801 0
-2801 2802 0
428 -2801 2803 0
-2803 2804 0
470 -2803 2805 0
-2805 2806 0
471 -2805 2807 0
-2807 2808 0
472 -2807 0
376 2798 0
417 -2798 2800 0
428 -2800 2802 0
470 -2802 2804 0
471 -2804 2806 0
472 -2806 2808 0
473 -2808 0
-369 2809 0
-2809 2810 0
-376 -2809 2811 0
-2811 2812 0
-417 -2811 0
-376 2810 0
-2810 2813 0
-417 -2810 2812 0
-2812 2814 0
-428 -2812 0
-417 2813 0
-2813 2815 0
-428 -2813 2814 0
-2814 2816 0
-470 -2814 0
-428 2815 0
-2815 2817 0
-470 -2815 2816 0
-2816 2818 0
-471 -2816 0
-470 2817 0
-2817 2819 0
-471 -2817 2818 0
-2818 2820 0
-472 -2818 0
-471 2819 0
-472 -2819 2820 0
-473 -2820 0
-372 2821 0
-2821 2822 0
-424 -2821 2823 0
-2823 2824 0
-468 -2823 0
-424 2822 0
-468 -2822 2824 0
-469 -2824 0
373 2825 0
-2825 2826 0
380 -2825 2827 0
-2827 2828 0
418 -2827 2829 0
-2829 2830 0
432 -2829 2831 0
-2831 2832 0
474 -2831 2833 0
-2833 2834 0
475 -2833 2835 0
-2835 2836 0
476 -2835 0
380 2826 0
418 -2826 2828 0
432 -2828 2830 0
474 -2830 2832 0
475 -2832 2834 0
476 -2834 2836 0
477 -2836 0
-373 2837 0
-2837 2838 0
-380 -2837 2839 0
-2839 2840 0
-418 -2839 0
-380 2838 0
-2838 2841 0
-418 -2838 2840 0
-2840 2842 0
-432 -2840 0
-418 2841 0
-2841 2843 0
-432 -2841 2842 0
-2842 2844 0
-474 -2842 0
-432 2843 0
-2843 2845 0
-474 -2843 2844 0
-2844 2846 0
-475 -2844 0
-474 2845 0
-2845 2847 0
-475 -2845 2846 0
-2846 2848 0
-476 -2846 0
-475 2847 0
-476 -2847 2848 0
-477 -2848 0
377 2849 0
-2849 2850 0
384 -2849 2851 0
-2851 2852 0
421 -2851 2853 0
-2853 2854 0
436 -2853 2855 0
-2855 2856 0
478 -2855 2857 0
-2857 2858 0
479 -2857 2859 0
-2859 2860 0
480 -2859 0
384 2850 0
421 -2850 2852 0
436 -2852 2854 0
478 -2854 2856 0
479 -2856 2858 0
480 -2858 2860 0
481 -2860 0
-377 2861 0
-2861 2862 0
-384 -2861 2863 0
-2863 2864 0
-421 -2863 0
-384 2862 0
-2862 2865 0
-421 -2862 2864 0
-2864 2866 0
-436 -2864 0
-421 2865 0
-2865 2867 0
-436 -2865 2866 0
-2866 2868 0
-478 -2866 0
-436 2867 0
-2867 2869 0
-478 -2867 2868 0
-2868 2870 0
-479 -2868 0
-478 2869 0
-2869 2871 0
-479 -2869 2870 0
-2870 2872 0
-480 -2870 0
-479 2871 0
-480 -2871 2872 0
-481 -2872 0
381 2873 0
-2873 2874 0
388 -2873 2875 0
-2875 2876 0
425 -2875 2877 0
-2877 2878 0
440 -2877 2879 0
-2879 2880 0
482 -2879 2881 0
-2881 2882 0
483 -2881 2883 0
-2883 2884 0
484 -2883 0
388 2874 0
425 -2874 2876 0
440 -2876 2878 0
482 -2878 2880 0
483 -2880 2882 0
484 -2882 2884 0
485 -2884 0
-381 2885 0
-2885 2886 0
-388 -2885 2887 0
-2887 2888 0
-425 -2887 0
-388 2886 0
-2886 2889 0
-425 -2886 2888 0
-2888 2890 0
-440 -2888 0
-425 2889 0
-2889 2891 0
-440 -2889 2890 0
-2890 2892 0
-482 -2890 0
-440 2891 0
-2891 2893 0
-482 -2891 2892 0
-2892 2894 0
-483 -2892 0
-482 2893 0
-2893 2895 0
-483 -2893 2894 0
-2894 2896 0
-484 -2894 0
-483 2895 0
-484 -2895 2896 0
-485 -2896 0
385 2897 0
-2897 2898 0
392 -2897 2899 0
-2899 2900 0
429 -2899 2901 0
-2901 2902 0
444 -2901 2903 0
-2903 2904 0
486 -2903 2905 0
-2905 2906 0
487 -2905 2907 0
-2907 2908 0
488 -2907 0
392 2898 0
429 -2898 2900 0
444 -2900 2902 0
486 -2902 2904 0
487 -2904 2906 0
488 -2906 2908 0
489 -2908 0
-385 2909 0
-2909 2910 0
-392 -2909 2911 0
-2911 2912 0
-429 -2911 0
-392 2910 0
-2910 2913 0
-429 -2910 2912 0
-2912 2914 0
-444 -2912 0
-429 2913 0
-2913 2915 0
-444 -2913 2914 0
-2914 2916 0
-486 -2914 0
-444 2915 0
-2915 2917 0
-486 -2915 2916 0
-2916 2918 0
-487 -2916 0
-486 2917 0
-2917 2919 0
-487 -2917 2918 0
-2918 2920 0
-488 -2918 0
-487 2919 0
-488 -2919 2920 0
-489 -2920 0
389 2921 0
-2921 2922 0
396 -2921 2923 0
-2923 2924 0
433 -2923 2925 0
-2925 2926 0
448 -2925 2927 0
-2927 2928 0
490 -2927 2929 0
-2929 2930 0
491 -2929 2931 0
-2931 2932 0
492 -2931 0
396 2922 0
433 -2922 2924 0
448 -2924 2926 0
490 -2926 2928 0
491 -2928 2930 0
492 -2930 2932 0
493 -2932 0
-389 2933 0
-2933 2934 0
-396 -2933 2935 0
-2935 2936 0
-433 -2935 0
-396 2934 0
-2934 2937 0
-433 -2934 2936 0
-2936 2938 0
-448 -2936 0
-433 2937 0
-2937 2939 0
-448 -2937 2938 0
-2938 2940 0
-490 -2938 0
-448 2939 0
-2939 2941 0
-490 -2939 2940 0
-2940 2942 0
-491 -2940 0
-490 2941 0
-2941 2943 0
-491 -2941 2942 0
-2942 2944 0
-492 -2942 0
-491 2943 0
-492 -2943 2944 0
-493 -2944 0
393 2945 0
-2945 2946 0
400 -2945 2947 0
-2947 2948 0
437 -2947 2949 0
-2949 2950 0
452 -2949 2951 0
-2951 2952 0
494 -2951 2953 0
-2953 2954 0
495 -2953 2955 0
-2955 2956 0
496 -2955 0
400 2946 0
437 -2946 2948 0
452 -2948 2950 0
494 -2950 2952 0
495 -2952 2954 0
496 -2954 2956 0
497 -2956 0
-393 2957 0
-2957 2958 0
-400 -2957 2959 0
-2959 2960 0
-437 -2959 0
-400 2958 0
-2958 2961 0
-437 -2958 2960 0
-2960 2962 0
-452 -2960 0
-437 2961 0
-2961 2963 0
-452 -2961 2962 0
-2962 2964 0
-494 -2962 0
-452 2963 0
-2963 2965 0
-494 -2963 2964 0
-2964 2966 0
-495 -2964 0
-494 2965 0
-2965 2967 0
-495 -2965 2966 0
-2966 2968 0
-496 -2966 0
-495 2967 0
-496 -2967 2968 0
-497 -2968 0
397 2969 0
-2969 2970 0
404 -2969 2971 0
-2971 2972 0
441 -2971 2973 0
-2973 2974 0
456 -2973 2975 0
-2975 2976 0
498 -2975 2977 0
-2977 2978 0
499 -2977 2979 0
-2979 2980 0
500 -2979 0
404 2970 0
441 -2970 2972 0
456 -2972 2974 0
498 -2974 2976 0
499 -2976 2978 0
500 -2978 2980 0
501 -2980 0
-397 2981 0
-2981 2982 0
-404 -2981 2983 0
-2983 2984 0
-441 -2983 0
-404 2982 0
-2982 2985 0
-441 -2982 2984 0
-2984 2986 0
-456 -2984 0
-441 2985 0
-2985 2987 0
-456 -2985 2986 0
-2986 2988 0
-498 -2986 0
-456 2987 0
-2987 2989 0
-498 -2987 2988 0
-2988 2990 0
-499 -2988 0
-498 2989 0
-2989 2991 0
-499 -2989 2990 0
-2990 2992 0
-500 -2990 0
-499 2991 0
-500 -2991 2992 0
-501 -2992 0
401 2993 0
-2993 2994 0
408 -2993 2995 0
-2995 2996 0
445 -2995 2997 0
-2997 2998 0
460 -2997 2999 0
-2999 3000 0
502 -2999 3001 0
-3001 3002 0
503 -3001 3003 0
-3003 3004 0
504 -3003 0
408 2994 0
445 -2994 2996 0
460 -2996 2998 0
502 -2998 3000 0
503 -3000 3002 0
504 -3002 3004 0
505 -3004 0
-401 3005 0
-3005 3006 0
-408 -3005 3007 0
-3007 3008 0
-445 -3007 0
-408 3006 0
-3006 3009 0
-445 -3006 3008 0
-3008 3010 0
-460 -3008 0
-445 3009 0
-3009 3011 0
-460 -3009 3010 0
-3010 3012 0
-502 -3010 0
-460 3011 0
-3011 3013 0
-502 -3011 3012 0
-3012 3014 0
-503 -3012 0
-502 3013 0
-3013 3015 0
-503 -3013 3014 0
-3014 3016 0
-504 -3014 0
-503 3015 0
-504 -3015 3016 0
-505 -3016 0
405 3017 0
-3017 3018 0
412 -3017 3019 0
-3019 3020 0
449 -3019 3021 0
-3021 3022 0
464 -3021 3023 0
-3023 3024 0
506 -3023 3025 0
-3025 3026 0
507 -3025 3027 0
-3027 3028 0
508 -3027 0
412 3018 0
449 -3018 3020 0
464 -3020 3022 0
506 -3022 3024 0
507 -3024 3026 0
508 -3026 3028 0
509 -3028 0
-405 3029 0
-3029 3030 0
-412 -3029 3031 0
-3031 3032 0
-449 -3031 0
-412 3030 0
-3030 3033 0
-449 -3030 3032 0
-3032 3034 0
-464 -3032 0
-449 3033 0
-3033 3035 0
-464 -3033 3034 0
-3034 3036 0
-506 -3034 0
-464 3035 0
-3035 3037 0
-506 -3035 3036 0
-3036 3038 0
-507 -3036 0
-506 3037 0
-3037 3039 0
-507 -3037 3038 0
-3038 3040 0
-508 -3038 0
-507 3039 0
-508 -3039 3040 0
-509 -3040 0
409 3041 0
-3041 3042 0
415 -3041 3043 0
-3043 3044 0
453 -3043 3045 0
-3045 3046 0
466 -3045 3047 0
-3047 3048 0
510 -3047 3049 0
-3049 3050 0
511 -3049 3051 0
-3051 3052 0
512 -3051 0
415 3042 0
453 -3042 3044 0
466 -3044 3046 0
510 -3046 3048 0
511 -3048 3050 0
512 -3050 3052 0
513 -3052 0
-409 3053 0
-3053 3054 0
-415 -3053 3055 0
-3055 3056 0
-453 -3055 0
-415 3054 0
-3054 3057 0
-453 -3054 3056 0
-3056 3058 0
-466 -3056 0
-453 3057 0
-3057 3059 0
-466 -3057 3058 0
-3058 3060 0
-510 -3058 0
-466 3059 0
-3059 3061 0
-510 -3059 3060 0
-3060 3062 0
-511 -3060 0
-510 3061 0
-3061 3063 0
-511 -3061 3062 0
-3062 3064 0
-512 -3062 0
-511 3063 0
-512 -3063 3064 0
-513 -3064 0
-413 3065 0
-3065 3066 0
-457 -3065 3067 0
-3067 3068 0
-514 -3067 0
-457 3066 0
-514 -3066 3068 0
-515 -3068 0
419 3069 0
-3069 3070 0
426 -3069 3071 0
-3071 3072 0
467 -3071 3073 0
-3073 3074 0
478 -3073 3075 0
-3075 3076 0
519 -3075 3077 0
-3077 3078 0
520 -3077 3079 0
-3079 3080 0
521 -3079 0
426 3070 0
467 -3070 3072 0
478 -3072 3074 0
519 -3074 3076 0
520 -3076 3078 0
521 -3078 3080 0
522 -3080 0
-419 3081 0
-3081 3082 0
-426 -3081 3083 0
-3083 3084 0
-467 -3083 0
-426 3082 0
-3082 3085 0
-467 -3082 3084 0
-3084 3086 0
-478 -3084 0
-467 3085 0
-3085 3087 0
-478 -3085 3086 0
-3086 3088 0
-519 -3086 0
-478 3087 0
-3087 3089 0
-519 -3087 3088 0
-3088 3090 0
-520 -3088 0
-519 3089 0
-3089 3091 0
-520 -3089 3090 0
-3090 3092 0
-521 -3090 0
-520 3091 0
-521 -3091 3092 0
-522 -3092 0
-422 -474 -518 0
423 3093 0
-3093 3094 0
430 -3093 3095 0
-3095 3096 0
468 -3095 3097 0
-3097 3098 0
482 -3097 3099 0
-3099 3100 0
523 -3099 3101 0
-3101 3102 0
524 -3101 3103 0
-3103 3104 0
525 -3103 0
430 3094 0
468 -3094 3096 0
482 -3096 3098 0
523 -3098 3100 0
524 -3100 3102 0
525 -3102 3104 0
526 -3104 0
-423 3105 0
-3105 3106 0
-430 -3105 3107 0
-3107 3108 0
-468 -3107 0
-430 3106 0
-3106 3109 0
-468 -3106 3108 0
-3108 3110 0
-482 -3108 0
-468 3109 0
-3109 3111 0
-482 -3109 3110 0
-3110 3112 0
-523 -3110 0
-482 3111 0
-3111 3113 0
-523 -3111 3112 0
-3112 3114 0
-524 -3112 0
-523 3113 0
-3113 3115 0
-524 -3113 3114 0
-3114 3116 0
-525 -3114 0
-524 3115 0
-525 -3115 3116 0
-526 -3116 0
427 3117 0
-3117 3118 0
434 -3117 3119 0
-3119 3120 0
471 -3119 3121 0
-3121 3122 0
486 -3121 3123 0
-3123 3124 0
527 -3123 3125 0
-3125 3126 0
528 -3125 3127 0
-3127 3128 0
529 -3127 0
434 3118 0
471 -3118 3120 0
486 -3120 3122 0
527 -3122 3124 0
528 -3124 3126 0
529 -3126 3128 0
530 -3128 0
-427 3129 0
-3129 3130 0
-434 -3129 3131 0
-3131 3132 0
-471 -3131 0
-434 3130 0
-3130 3133 0
-471 -3130 3132 0
-3132 3134 0
-486 -3132 0
-471 3133 0
-3133 3135 0
-486 -3133 3134 0
-3134 3136 0
-527 -3134 0
-486 3135 0
-3135 3137 0
-527 -3135 3136 0
-3136 3138 0
-528 -3136 0
-527 3137 0
-3137 3139 0
-528 -3137 3138 0
-3138 3140 0
-529 -3138 0
-528 3139 0
-529 -3139 3140 0
-530 -3140 0
431 3141 0
-3141 3142 0
438 -3141 3143 0
-3143 3144 0
475 -3143 3145 0
-3145 3146 0
490 -3145 3147 0
-3147 3148 0
531 -3147 3149 0
-3149 3150 0
532 -3149 3151 0
-3151 3152 0
533 -3151 0
438 3142 0
475 -3142 3144 0
490 -3144 3146 0
531 -3146 3148 0
532 -3148 3150 0
533 -3150 3152 0
534 -3152 0
-431 3153 0
-3153 3154 0
-438 -3153 3155 0
-3155 3156 0
-475 -3155 0
-438 3154 0
-3154 3157 0
-475 -3154 3156 0
-3156 3158 0
-490 -3156 0
-475 3157 0
-3157 3159 0
-490 -3157 3158 0
-3158 3160 0
-531 -3158 0
-490 3159 0
-3159 3161 0
-531 -3159 3160 0
-3160 3162 0
-532 -3160 0
-531 3161 0
-3161 3163 0
-532 -3161 3162 0
-3162 3164 0
-533 -3162 0
-532 3163 0
-533 -3163 3164 0
-534 -3164 0
435 3165 0
-3165 3166 0
442 -3165 3167 0
-3167 3168 0
479 -3167 3169 0
-3169 3170 0
494 -3169 3171 0
-3171 3172 0
535 -3171 3173 0
-3173 3174 0
536 -3173 3175 0
-3175 3176 0
537 -3175 0
442 3166 0
479 -3166 3168 0
494 -3168 3170 0
535 -3170 3172 0
536 -3172 3174 0
537 -3174 3176 0
538 -3176 0
-435 3177 0
-3177 3178 0
-442 -3177 3179 0
-3179 3180 0
-479 -3179 0
-442 3178 0
-3178 3181 0
-479 -3178 3180 0
-3180 3182 0
-494 -3180 0
-479 3181 0
-3181 3183 0
-494 -3181 3182 0
-3182 3184 0
-535 -3182 0
-494 3183 0
-3183 3185 0
-535 -3183 3184 0
-3184 3186 0
-536 -3184 0
-535 3185 0
-3185 3187 0
-536 -3185 3186 0
-3186 3188 0
-537 -3186 0
-536 3187 0
-537 -3187 3188 0
-538 -3188 0
439 3189 0
-3189 3190 0
446 -3189 3191 0
-3191 3192 0
483 -3191 3193 0
-3193 3194 0
498 -3193 3195 0
-3195 3196 0
539 -3195 3197 0
-3197 3198 0
540 -3197 3199 0
-3199 3200 0
541 -3199 0
446 3190 0
483 -3190 3192 0
498 -3192 3194 0
539 -3194 3196 0
540 -3196 3198 0
541 -3198 3200 0
542 -3200 0
-439 3201 0
-3201 3202 0
-446 -3201 3203 0
-3203 3204 0
-483 -3203 0
-446 3202 0
-3202 3205 0
-483 -3202 3204 0
-3204 3206 0
-498 -3204 0
-483 3205 0
-3205 3207 0
-498 -3205 3206 0
-3206 3208 0
-539 -3206 0
-498 3207 0
-3207 3209 0
-539 -3207 3208 0
-3208 3210 0
-540 -3208 0
-539 3209 0
-3209 3211 0
-540 -3209 3210 0
-3210 3212 0
-541 -3210 0
-540 3211 0
-541 -3211 3212 0
-542 -3212 0
443 3213 0
-3213 3214 0
450 -3213 3215 0
-3215 3216 0
487 -3215 3217 0
-3217 3218 0
502 -3217 3219 0
-3219 3220 0
543 -3219 3221 0
-3221 3222 0
544 -3221 3223 0
-3223 3224 0
545 -3223 0
450 3214 0
487 -3214 3216 0
502 -3216 3218 0
543 -3218 3220 0
544 -3220 3222 0
545 -3222 3224 0
546 -3224 0
-443 3225 0
-3225 3226 0
-450 -3225 3227 0
-3227 3228 0
-487 -3227 0
-450 3226 0
-3226 3229 0
-487 -3226 3228 0
-3228 3230 0
-502 -3228 0
-487 3229 0
-3229 3231 0
-502 -3229 3230 0
-3230 3232 0
-543 -3230 0
-502 3231 0
-3231 3233 0
-543 -3231 3232 0
-3232 3234 0
-544 -3232 0
-543 3233 0
-3233 3235 0
-544 -3233 3234 0
-3234 3236 0
-545 -3234 0
-544 3235 0
-545 -3235 3236 0
-546 -3236 0
447 3237 0
-3237 3238 0
454 -3237 3239 0
-3239 3240 0
491 -3239 3241 0
-3241 3242 0
506 -3241 3243 0
-3243 3244 0
547 -3243 3245 0
-3245 3246 0
548 -3245 3247 0
-3247 3248 0
549 -3247 0
454 3238 0
491 -3238 3240 0
506 -3240 3242 0
547 -3242 3244 0
548 -3244 3246 0
549 -3246 3248 0
550 -3248 0
-447 3249 0
-3249 3250 0
-454 -3249 3251 0
-3251 3252 0
-491 -3251 0
-454 3250 0
-3250 3253 0
-491 -3250 3252 0
-3252 3254 0
-506 -3252 0
-491 3253 0
-3253 3255 0
-506 -3253 3254 0
-3254 3256 0
-547 -3254 0
-506 3255 0
-3255 3257 0
-547 -3255 3256 0
-3256 3258 0
-548 -3256 0
-547 3257 0
-3257 3259 0
-548 -3257 3258 0
-3258 3260 0
-549 -3258 0
-548 3259 0
-549 -3259 3260 0
-550 -3260 0
451 3261 0
-3261 3262 0
458 -3261 3263 0
-3263 3264 0
495 -3263 3265 0
-3265 3266 0
510 -3265 3267 0
-3267 3268 0
551 -3267 3269 0
-3269 3270 0
552 -3269 3271 0
-3271 3272 0
553 -3271 0
458 3262 0
495 -3262 3264 0
510 -3264 3266 0
551 -3266 3268 0
552 -3268 3270 0
553 -3270 3272 0
554 -3272 0
-451 3273 0
-3273 3274 0
-458 -3273 3275 0
-3275 3276 0
-495 -3275 0
-458 3274 0
-3274 3277 0
-495 -3274 3276 0
-3276 3278 0
-510 -3276 0
-495 3277 0
-3277 3279 0
-510 -3277 3278 0
-3278 3280 0
-551 -3278 0
-510 3279 0
-3279 3281 0
-551 -3279 3280 0
-3280 3282 0
-552 -3280 0
-551 3281 0
-3281 3283 0
-552 -3281 3282 0
-3282 3284 0
-553 -3282 0
-552 3283 0
-553 -3283 3284 0
-554 -3284 0
455 3285 0
-3285 3286 0
462 -3285 3287 0
-3287 3288 0
499 -3287 3289 0
-3289 3290 0
514 -3289 3291 0
-3291 3292 0
555 -3291 3293 0
-3293 3294 0
556 -3293 3295 0
-3295 3296 0
557 -3295 0
462 3286 0
499 -3286 3288 0
514 -3288 3290 0
555 -3290 3292 0
556 -3292 3294 0
557 -3294 3296 0
558 -3296 0
-455 3297 0
-3297 3298 0
-462 -3297 3299 0
-3299 3300 0
-499 -3299 0
-462 3298 0
-3298 3301 0
-499 -3298 3300 0
-3300 3302 0
-514 -3300 0
-499 3301 0
-3301 3303 0
-514 -3301 3302 0
-3302 3304 0
-555 -3302 0
-514 3303 0
-3303 3305 0
-555 -3303 3304 0
-3304 3306 0
-556 -3304 0
-555 3305 0
-3305 3307 0
-556 -3305 3306 0
-3306 3308 0
-557 -3306 0
-556 3307 0
-557 -3307 3308 0
-558 -3308 0
459 3309 0
-3309 3310 0
465 -3309 3311 0
-3311 3312 0
503 -3311 3313 0
-3313 3314 0
516 -3313 3315 0
-3315 3316 0
559 -3315 3317 0
-3317 3318 0
560 -3317 3319 0
-3319 3320 0
561 -3319 0
465 3310 0
503 -3310 3312 0
516 -3312 3314 0
559 -3314 3316 0
560 -3316 3318 0
561 -3318 3320 0
562 -3320 0
-459 3321 0
-3321 3322 0
-465 -3321 3323 0
-3323 3324 0
-503 -3323 0
-465 3322 0
-3322 3325 0
-503 -3322 3324 0
-3324 3326 0
-516 -3324 0
-503 3325 0
-3325 3327 0
-516 -3325 3326 0
-3326 3328 0
-559 -3326 0
-516 3327 0
-3327 3329 0
-559 -3327 3328 0
-3328 3330 0
-560 -3328 0
-559 3329 0
-3329 3331 0
-560 -3329 3330 0
-3330 3332 0
-561 -3330 0
-560 3331 0
-561 -3331 3332 0
-562 -3332 0
-463 -507 -563 0
469 3333 0
-3333 3334 0
476 -3333 3335 0
-3335 3336 0
517 -3335 3337 0
-3337 3338 0
527 -3337 3339 0
-3339 3340 0
565 -3339 3341 0
-3341 3342 0
566 -3341 3343 0
-3343 3344 0
567 -3343 0
476 3334 0
517 -3334 3336 0
527 -3336 3338 0
565 -3338 3340 0
566 -3340 3342 0
567 -3342 3344 0
568 -3344 0
-469 3345 0
-3345 3346 0
-476 -3345 3347 0
-3347 3348 0
-517 -3347 0
-476 3346 0
-3346 3349 0
-517 -3346 3348 0
-3348 3350 0
-527 -3348 0
-517 3349 0
-3349 3351 0
-527 -3349 3350 0
-3350 3352 0
-565 -3350 0
-527 3351 0
-3351 3353 0
-565 -3351 3352 0
-3352 3354 0
-566 -3352 0
-565 3353 0
-3353 3355 0
-566 -3353 3354 0
-3354 3356 0
-567 -3354 0
-566 3355 0
-567 -3355 3356 0
-568 -3356 0
473 3357 0
-3357 3358 0
480 -3357 3359 0
-3359 3360 0
518 -3359 3361 0
-3361 3362 0
531 -3361 3363 0
-3363 3364 0
569 -3363 3365 0
-3365 3366 0
570 -3365 3367 0
-3367 3368 0
571 -3367 0
480 3358 0
518 -3358 3360 0
531 -3360 3362 0
569 -3362 3364 0
570 -3364 3366 0
571 -3366 3368 0
572 -3368 0
-473 3369 0
-3369 3370 0
-480 -3369 3371 0
-3371 3372 0
-518 -3371 0
-480 3370 0
-3370 3373 0
-518 -3370 3372 0
-3372 3374 0
-531 -3372 0
-518 3373 0
-3373 3375 0
-531 -3373 3374 0
-3374 3376 0
-569 -3374 0
-531 3375 0
-3375 3377 0
-569 -3375 3376 0
-3376 3378 0
-570 -3376 0
-569 3377 0
-3377 3379 0
-570 -3377 3378 0
-3378 3380 0
-571 -3378 0
-570 3379 0
-571 -3379 3380 0
-572 -3380 0
477 3381 0
-3381 3382 0
484 -3381 3383 0
-3383 3384 0
520 -3383 3385 0
-3385 3386 0
535 -3385 3387 0
-3387 3388 0
573 -3387 3389 0
-3389 3390 0
574 -3389 3391 0
-3391 3392 0
575 -3391 0
484 3382 0
520 -3382 3384 0
535 -3384 3386 0
573 -3386 3388 0
574 -3388 3390 0
575 -3390 3392 0
576 -3392 0
-477 3393 0
-3393 3394 0
-484 -3393 3395 0
-3395 3396 0
-520 -3395 0
-484 3394 0
-3394 3397 0
-520 -3394 3396 0
-3396 3398 0
-535 -3396 0
-520 3397 0
-3397 3399 0
-535 -3397 3398 0
-3398 3400 0
-573 -3398 0
-535 3399 0
-3399 3401 0
-573 -3399 3400 0
-3400 3402 0
-574 -3400 0
-573 3401 0
-3401 3403 0
-574 -3401 3402 0
-3402 3404 0
-575 -3402 0
-574 3403 0
-575 -3403 3404 0
-576 -3404 0
481 3405 0
-3405 3406 0
488 -3405 3407 0
-3407 3408 0
524 -3407 3409 0
-3409 3410 0
539 -3409 3411 0
-3411 3412 0
577 -3411 3413 0
-3413 3414 0
578 -3413 3415 0
-3415 3416 0
579 -3415 0
488 3406 0
524 -3406 3408 0
539 -3408 3410 0
577 -3410 3412 0
578 -3412 3414 0
579 -3414 3416 0
580 -3416 0
-481 3417 0
-3417 3418 0
-488 -3417 3419 0
-3419 3420 0
-524 -3419 0
-488 3418 0
-3418 3421 0
-524 -3418 3420 0
-3420 3422 0
-539 -3420 0
-524 3421 0
-3421 3423 0
-539 -3421 3422 0
-3422 3424 0
-577 -3422 0
-539 3423 0
-3423 3425 0
-577 -3423 3424 0
-3424 3426 0
-578 -3424 0
-577 3425 0
-3425 3427 0
-578 -3425 3426 0
-3426 3428 0
-579 -3426 0
-578 3427 0
-579 -3427 3428 0
-580 -3428 0
485 3429 0
-3429 3430 0
492 -3429 3431 0
-3431 3432 0
528 -3431 3433 0
-3433 3434 0
543 -3433 3435 0
-3435 3436 0
581 -3435 3437 0
-3437 3438 0
582 -3437 3439 0
-3439 3440 0
583 -3439 0
492 3430 0
528 -3430 3432 0
543 -3432 3434 0
581 -3434 3436 0
582 -3436 3438 0
583 -3438 3440 0
584 -3440 0
-485 3441 0
-3441 3442 0
-492 -3441 3443 0
-3443 3444 0
-528 -3443 0
-492 3442 0
-3442 3445 0
-528 -3442 3444 0
-3444 3446 0
-543 -3444 0
-528 3445 0
-3445 3447 0
-543 -3445 3446 0
-3446 3448 0
-581 -3446 0
-543 3447 0
-3447 3449 0
-581 -3447 3448 0
-3448 3450 0
-582 -3448 0
-581 3449 0
-3449 3451 0
-582 -3449 3450 0
-3450 3452 0
-583 -3450 0
-582 3451 0
-583 -3451 3452 0
-584 -3452 0
489 3453 0
-3453 3454 0
496 -3453 3455 0
-3455 3456 0
532 -3455 3457 0
-3457 3458 0
547 -3457 3459 0
-3459 3460 0
585 -3459 3461 0
-3461 3462 0
586 -3461 3463 0
-3463 3464 0
587 -3463 0
496 3454 0
532 -3454 3456 0
547 -3456 3458 0
585 -3458 3460 0
586 -3460 3462 0
587 -3462 3464 0
588 -3464 0
-489 3465 0
-3465 3466 0
-496 -3465 3467 0
-3467 3468 0
-532 -3467 0
-496 3466 0
-3466 3469 0
-532 -3466 3468 0
-3468 3470 0
-547 -3468 0
-532 3469 0
-3469 3471 0
-547 -3469 3470 0
-3470 3472 0
-585 -3470 0
-547 3471 0
-3471 3473 0
-585 -3471 3472 0
-3472 3474 0
-586 -3472 0
-585 3473 0
-3473 3475 0
-586 -3473 3474 0
-3474 3476 0
-587 -3474 0
-586 3475 0
-587 -3475 3476 0
-588 -3476 0
493 3477 0
-3477 3478 0
500 -3477 3479 0
-3479 3480 0
536 -3479 3481 0
-3481 3482 0
551 -3481 3483 0
-3483 3484 0
589 -3483 3485 0
-3485 3486 0
590 -3485 3487 0
-3487 3488 0
591 -3487 0
500 3478 0
536 -3478 3480 0
551 -3480 3482 0
589 -3482 3484 0
590 -3484 3486 0
591 -3486 3488 0
592 -3488 0
-493 3489 0
-3489 3490 0
-500 -3489 3491 0
-3491 3492 0
-536 -3491 0
-500 3490 0
-3490 3493 0
-536 -3490 3492 0
-3492 3494 0
-551 -3492 0
-536 3493 0
-3493 3495 0
-551 -3493 3494 0
-3494 3496 0
-589 -3494 0
-551 3495 0
-3495 3497 0
-589 -3495 3496 0
-3496 3498 0
-590 -3496 0
-589 3497 0
-3497 3499 0
-590 -3497 3498 0
-3498 3500 0
-591 -3498 0
-590 3499 0
-591 -3499 3500 0
-592 -3500 0
497 3501 0
-3501 3502 0
504 -3501 3503 0
-3503 3504 0
540 -3503 3505 0
-3505 3506 0
555 -3505 3507 0
-3507 3508 0
593 -3507 3509 0
-3509 3510 0
594 -3509 3511 0
-3511 3512 0
595 -3511 0
504 3502 0
540 -3502 3504 0
555 -3504 3506 0
593 -3506 3508 0
594 -3508 3510 0
595 -3510 3512 0
596 -3512 0
-497 3513 0
-3513 3514 0
-504 -3513 3515 0
-3515 3516 0
-540 -3515 0
-504 3514 0
-3514 3517 0
-540 -3514 3516 0
-3516 3518 0
-555 -3516 0
-540 3517 0
-3517 3519 0
-555 -3517 3518 0
-3518 3520 0
-593 -3518 0
-555 3519 0
-3519 3521 0
-593 -3519 3520 0
-3520 3522 0
-594 -3520 0
-593 3521 0
-3521 3523 0
-594 -3521 3522 0
-3522 3524 0
-595 -3522 0
-594 3523 0
-595 -3523 3524 0
-596 -3524 0
501 3525 0
-3525 3526 0
508 -3525 3527 0
-3527 3528 0
544 -3527 3529 0
-3529 3530 0
559 -3529 3531 0
-3531 3532 0
597 -3531 3533 0
-3533 3534 0
598 -3533 3535 0
-3535 3536 0
599 -3535 0
508 3526 0
544 -3526 3528 0
559 -3528 3530 0
597 -3530 3532 0
598 -3532 3534 0
599 -3534 3536 0
600 -3536 0
-501 3537 0
-3537 3538 0
-508 -3537 3539 0
-3539 3540 0
-544 -3539 0
-508 3538 0
-3538 3541 0
-544 -3538 3540 0
-3540 3542 0
-559 -3540 0
-544 3541 0
-3541 3543 0
-559 -3541 3542 0
-3542 3544 0
-597 -3542 0
-559 3543 0
-3543 3545 0
-597 -3543 3544 0
-3544 3546 0
-598 -3544 0
-597 3545 0
-3545 3547 0
-598 -3545 3546 0
-3546 3548 0
-599 -3546 0
-598 3547 0
-599 -3547 3548 0
-600 -3548 0
505 3549 0
-3549 3550 0
512 -3549 3551 0
-3551 3552 0
548 -3551 3553 0
-3553 3554 0
563 -3553 3555 0
-3555 3556 0
601 -3555 3557 0
-3557 3558 0
602 -3557 3559 0
-3559 3560 0
603 -3559 0
512 3550 0
548 -3550 3552 0
563 -3552 3554 0
601 -3554 3556 0
602 -3556 3558 0
603 -3558 3560 0
604 -3560 0
-505 3561 0
-3561 3562 0
-512 -3561 3563 0
-3563 3564 0
-548 -3563 0
-512 3562 0
-3562 3565 0
-548 -3562 3564 0
-3564 3566 0
-563 -3564 0
-548 3565 0
-3565 3567 0
-563 -3565 3566 0
-3566 3568 0
-601 -3566 0
-563 3567 0
-3567 3569 0
-601 -3567 3568 0
-3568 3570 0
-602 -3568 0
-601 3569 0
-3569 3571 0
-602 -3569 3570 0
-3570 3572 0
-603 -3570 0
-602 3571 0
-603 -3571 3572 0
-604 -3572 0
509 3573 0
-3573 3574 0
515 -3573 3575 0
-3575 3576 0
552 -3575 3577 0
-3577 3578 0
564 -3577 3579 0
-3579 3580 0
605 -3579 3581 0
-3581 3582 0
606 -3581 3583 0
-3583 3584 0
607 -3583 0
515 3574 0
552 -3574 3576 0
564 -3576 3578 0
605 -3578 3580 0
606 -3580 3582 0
607 -3582 3584 0
608 -3584 0
-509 3585 0
-3585 3586 0
-515 -3585 3587 0
-3587 3588 0
-552 -3587 0
-515 3586 0
-3586 3589 0
-552 -3586 3588 0
-3588 3590 0
-564 -3588 0
-552 3589 0
-3589 3591 0
-564 -3589 3590 0
-3590 3592 0
-605 -3590 0
-564 3591 0
-3591 3593 0
-605 -3591 3592 0
-3592 3594 0
-606 -3592 0
-605 3593 0
-3593 3595 0
-606 -3593 3594 0
-3594 3596 0
-607 -3594 0
-606 3595 0
-607 -3595 3596 0
-608 -3596 0
-522 -529 -577 0
-526 3597 0
-3597 3598 0
-533 -3597 3599 0
-3599 3600 0
-566 -3599 0
-533 3598 0
-566 -3598 3600 0
-581 -3600 0
-530 3601 0
-3601 3602 0
-537 -3601 3603 0
-3603 3604 0
-570 -3603 0
-537 3602 0
-570 -3602 3604 0
-585 -3604 0
-534 3605 0
-3605 3606 0
-541 -3605 3607 0
-3607 3608 0
-574 -3607 0
-541 3606 0
-574 -3606 3608 0
-589 -3608 0
-538 3609 0
-3609 3610 0
-545 -3609 3611 0
-3611 3612 0
-578 -3611 0
-545 3610 0
-578 -3610 3612 0
-593 -3612 0
-542 3613 0
-3613 3614 0
-549 -3613 3615 0
-3615 3616 0
-582 -3615 0
-549 3614 0
-582 -3614 3616 0
-597 -3616 0
-546 3617 0
-3617 3618 0
-553 -3617 3619 0
-3619 3620 0
-586 -3619 0
-553 3618 0
-586 -3618 3620 0
-601 -3620 0
-550 3621 0
-3621 3622 0
-557 -3621 3623 0
-3623 3624 0
-590 -3623 0
-557 3622 0
-590 -3622 3624 0
-605 -3624 0
-554 -561 -594 0
-2 -29 0
-2 -31 0
-26 -29 0
-3 -26 0
-3 -24 0
-3 -27 0
-4 -33 0
-4 -35 0
-28 -33 0
-4 -31 0
-5 -28 0
-28 -31 0
-5 -26 0
-5 -30 0
-30 -31 0
-6 -37 0
-6 -39 0
-32 -37 0
-6 -35 0
-7 -32 0
-32 -35 0
-7 -28 0
-7 -34 0
-34 -35 0
-8 -41 0
-8 -43 0
-36 -41 0
-8 -39 0
-9 -36 0
-36 -39 0
-9 -32 0
-9 -38 0
-38 -39 0
-10 -45 0
-10 -47 0
-40 -45 0
-10 -43 0
-11 -40 0
-40 -43 0
-11 -36 0
-11 -42 0
-42 -43 0
-12 -49 0
-12 -51 0
-44 -49 0
-12 -47 0
-13 -44 0
-44 -47 0
-13 -40 0
-13 -46 0
-46 -47 0
-14 -53 0
-14 -55 0
-48 -53 0
-14 -51 0
-15 -48 0
-48 -51 0
-15 -44 0
-15 -50 0
-50 -51 0
-16 -57 0
-16 -59 0
-52 -57 0
-16 -55 0
-17 -52 0
-52 -55 0
-17 -48 0
-17 -54 0
-54 -55 0
-18 -60 0
-18 -62 0
-56 -60 0
-18 -59 0
-19 -56 0
-56 -59 0
-19 -52 0
-19 -58 0
-58 -59 0
-20 -63 0
-20 -64 0
-20 -62 0
-21 -56 0
-21 -61 0
-61 -62 0
-24 -29 0
-24 -31 0
-27 -31 0
-25 -72 0
-25 -74 0
-68 -72 0
-25 -70 0
-68 -70 0
-26 -33 0
-26 -35 0
-30 -35 0
-27 -74 0
-29 -71 0
-71 -74 0
-27 -76 0
-27 -78 0
-71 -76 0
-28 -37 0
-28 -39 0
-34 -39 0
-29 -68 0
-29 -73 0
-73 -74 0
-30 -80 0
-30 -82 0
-75 -80 0
-30 -78 0
-33 -75 0
-75 -78 0
-32 -41 0
-32 -43 0
-38 -43 0
-33 -71 0
-33 -77 0
-77 -78 0
-34 -82 0
-37 -79 0
-79 -82 0
-34 -84 0
-34 -86 0
-79 -84 0
-36 -45 0
-36 -47 0
-42 -47 0
-37 -75 0
-37 -81 0
-81 -82 0
-38 -88 0
-38 -90 0
-83 -88 0
-38 -86 0
-41 -83 0
-83 -86 0
-40 -49 0
-40 -51 0
-46 -51 0
-41 -79 0
-41 -85 0
-85 -86 0
-42 -92 0
-42 -94 0
-87 -92 0
-42 -90 0
-45 -87 0
-87 -90 0
-44 -53 0
-44 -55 0
-50 -55 0
-45 -83 0
-45 -89 0
-89 -90 0
-46 -96 0
-46 -98 0
-91 -96 0
-46 -94 0
-49 -91 0
-91 -94 0
-48 -57 0
-48 -59 0
-54 -59 0
-49 -87 0
-49 -93 0
-93 -94 0
-50 -98 0
-53 -95 0
-95 -98 0
-50 -100 0
-50 -102 0
-95 -100 0
-52 -60 0
-52 -62 0
-58 -62 0
-53 -91 0
-53 -97 0
-97 -98 0
-54 -102 0
-57 -99 0
-99 -102 0
-54 -104 0
-54 -106 0
-99 -104 0
-56 -63 0
-56 -64 0
-61 -64 0
-57 -95 0
-57 -101 0
-101 -102 0
-58 -108 0
-58 -110 0
-103 -108 0
-58 -106 0
-60 -103 0
-103 -106 0
-60 -99 0
-60 -105 0
-105 -106 0
-61 -112 0
-61 -114 0
-107 -112 0
-61 -110 0
-63 -107 0
-107 -110 0
-63 -103 0
-63 -109 0
-109 -110 0
-65 -107 0
-65 -113 0
-113 -114 0
-65 -111 0
-111 -114 0
-69 -70 0
-67 -72 0
-67 -74 0
-69 -74 0
-68 -76 0
-68 -78 0
-73 -78 0
-69 -120 0
-72 -118 0
-118 -120 0
-69 -122 0
-69 -124 0
-118 -122 0
-71 -80 0
-71 -82 0
-77 -82 0
-72 -117 0
-72 -119 0
-119 -120 0
-73 -126 0
-73 -128 0
-121 -126 0
-73 -124 0
-76 -121 0
-121 -124 0
-75 -84 0
-75 -86 0
-81 -86 0
-76 -118 0
-76 -123 0
-123 -124 0
-77 -130 0
-77 -132 0
-125 -130 0
-77 -128 0
-80 -125 0
-125 -128 0
-79 -88 0
-79 -90 0
-85 -90 0
-80 -121 0
-80 -127 0
-127 -128 0
-81 -134 0
-81 -136 0
-129 -134 0
-81 -132 0
-84 -129 0
-129 -132 0
-83 -92 0
-83 -94 0
-89 -94 0
-84 -125 0
-84 -131 0
-131 -132 0
-85 -138 0
-85 -140 0
-133 -138 0
-85 -136 0
-88 -133 0
-133 -136 0
-87 -96 0
-87 -98 0
-93 -98 0
-88 -129 0
-88 -135 0
-135 -136 0
-89 -142 0
-89 -144 0
-137 -142 0
-89 -140 0
-92 -137 0
-137 -140 0
-91 -100 0
-91 -102 0
-97 -102 0
-92 -133 0
-92 -139 0
-139 -140 0
-93 -146 0
-93 -148 0
-141 -146 0
-93 -144 0
-96 -141 0
-141 -144 0
-95 -104 0
-95 -106 0
-101 -106 0
-96 -137 0
-96 -143 0
-143 -144 0
-97 -150 0
-97 -152 0
-145 -150 0
-97 -148 0
-100 -145 0
-145 -148 0
-99 -108 0
-99 -110 0
-105 -110 0
-100 -141 0
-100 -147 0
-147 -148 0
-101 -154 0
-101 -156 0
-149 -154 0
-101 -152 0
-104 -149 0
-149 -152 0
-103 -112 0
-103 -114 0
-109 -114 0
-104 -145 0
-104 -151 0
-151 -152 0
-105 -158 0
-105 -160 0
-153 -158 0
-105 -156 0
-108 -153 0
-153 -156 0
-107 -115 0
-107 -116 0
-113 -116 0
-108 -149 0
-108 -155 0
-155 -156 0
-109 -162 0
-109 -164 0
-157 -162 0
-109 -160 0
-112 -157 0
-157 -160 0
-111 -115 0
-112 -153 0
-112 -159 0
-159 -160 0
-113 -165 0
-113 -166 0
-161 -165 0
-113 -164 0
-115 -161 0
-161 -164 0
-115 -157 0
-115 -163 0
-163 -164 0
-117 -122 0
-117 -124 0
-119 -124 0
-118 -126 0
-118 -128 0
-123 -128 0
-119 -172 0
-119 -174 0
-168 -172 0
-119 -170 0
-122 -168 0
-168 -170 0
-121 -130 0
-121 -132 0
-127 -132 0
-122 -167 0
-122 -169 0
-169 -170 0
-123 -176 0
-123 -178 0
-171 -176 0
-123 -174 0
-126 -171 0
-171 -174 0
-125 -134 0
-125 -136 0
-131 -136 0
-126 -168 0
-126 -173 0
-173 -174 0
-127 -180 0
-127 -182 0
-175 -180 0
-127 -178 0
-130 -175 0
-175 -178 0
-129 -138 0
-129 -140 0
-135 -140 0
-130 -171 0
-130 -177 0
-177 -178 0
-131 -184 0
-131 -186 0
-179 -184 0
-131 -182 0
-134 -179 0
-179 -182 0
-133 -142 0
-133 -144 0
-139 -144 0
-134 -175 0
-134 -181 0
-181 -182 0
-135 -188 0
-135 -190 0
-183 -188 0
-135 -186 0
-138 -183 0
-183 -186 0
-137 -146 0
-137 -148 0
-143 -148 0
-138 -179 0
-138 -185 0
-185 -186 0
-139 -192 0
-139 -194 0
-187 -192 0
-139 -190 0
-142 -187 0
-187 -190 0
-141 -150 0
-141 -152 0
-147 -152 0
-142 -183 0
-142 -189 0
-189 -190 0
-143 -196 0
-143 -198 0
-191 -196 0
-143 -194 0
-146 -191 0
-191 -194 0
-145 -154 0
-145 -156 0
-151 -156 0
-146 -187 0
-146 -193 0
-193 -194 0
-147 -200 0
-147 -202 0
-195 -200 0
-147 -198 0
-150 -195 0
-195 -198 0
-149 -158 0
-149 -160 0
-155 -160 0
-150 -191 0
-150 -197 0
-197 -198 0
-151 -204 0
-151 -206 0
-199 -204 0
-151 -202 0
-154 -199 0
-199 -202 0
-153 -162 0
-153 -164 0
-159 -164 0
-154 -195 0
-154 -201 0
-201 -202 0
-155 -208 0
-155 -210 0
-203 -208 0
-155 -206 0
-158 -203 0
-203 -206 0
-157 -165 0
-157 -166 0
-163 -166 0
-158 -199 0
-158 -205 0
-205 -206 0
-159 -212 0
-159 -214 0
-207 -212 0
-159 -210 0
-162 -207 0
-207 -210 0
-162 -203 0
-162 -209 0
-209 -210 0
-163 -215 0
-163 -216 0
-211 -215 0
-163 -214 0
-165 -211 0
-211 -214 0
-165 -207 0
-165 -213 0
-213 -214 0
-167 -172 0
-167 -174 0
-169 -174 0
-168 -176 0
-168 -178 0
-173 -178 0
-169 -222 0
-169 -224 0
-218 -222 0
-169 -220 0
-172 -218 0
-218 -220 0
-171 -180 0
-171 -182 0
-177 -182 0
-172 -217 0
-172 -219 0
-219 -220 0
-173 -224 0
-176 -221 0
-221 -224 0
-173 -226 0
-173 -228 0
-221 -226 0
-175 -184 0
-175 -186 0
-181 -186 0
-176 -218 0
-176 -223 0
-223 -224 0
-177 -230 0
-177 -232 0
-225 -230 0
-177 -228 0
-180 -225 0
-225 -228 0
-179 -188 0
-179 -190 0
-185 -190 0
-180 -221 0
-180 -227 0
-227 -228 0
-181 -234 0
-181 -236 0
-229 -234 0
-181 -232 0
-184 -229 0
-229 -232 0
-183 -192 0
-183 -194 0
-189 -194 0
-184 -225 0
-184 -231 0
-231 -232 0
-185 -236 0
-188 -233 0
-233 -236 0
-185 -238 0
-185 -240 0
-233 -238 0
-187 -196 0
-187 -198 0
-193 -198 0
-188 -229 0
-188 -235 0
-235 -236 0
-189 -240 0
-192 -237 0
-237 -240 0
-189 -242 0
-189 -244 0
-237 -242 0
-191 -200 0
-191 -202 0
-197 -202 0
-192 -233 0
-192 -239 0
-239 -240 0
-193 -244 0
-196 -241 0
-241 -244 0
-193 -246 0
-193 -248 0
-241 -246 0
-195 -204 0
-195 -206 0
-201 -206 0
-196 -237 0
-196 -243 0
-243 -244 0
-197 -250 0
-197 -252 0
-245 -250 0
-197 -248 0
-200 -245 0
-245 -248 0
-199 -208 0
-199 -210 0
-205 -210 0
-200 -241 0
-200 -247 0
-247 -248 0
-201 -254 0
-201 -256 0
-249 -254 0
-201 -252 0
-204 -249 0
-249 -252 0
-203 -212 0
-203 -214 0
-209 -214 0
-204 -245 0
-204 -251 0
-251 -252 0
-205 -258 0
-205 -260 0
-253 -258 0
-205 -256 0
-208 -253 0
-253 -256 0
-207 -215 0
-207 -216 0
-213 -216 0
-208 -249 0
-208 -255 0
-255 -256 0
-209 -260 0
-212 -257 0
-257 -260 0
-209 -262 0
-209 -264 0
-257 -262 0
-212 -253 0
-212 -259 0
-259 -260 0
-213 -264 0
-215 -261 0
-261 -264 0
-213 -265 0
-213 -266 0
-261 -265 0
-215 -257 0
-215 -263 0
-263 -264 0
-217 -222 0
-217 -224 0
-219 -224 0
-218 -226 0
-218 -228 0
-223 -228 0
-219 -272 0
-219 -274 0
-268 -272 0
-219 -270 0
-222 -268 0
-268 -270 0
-221 -230 0
-221 -232 0
-227 -232 0
-222 -267 0
-222 -269 0
-269 -270 0
-223 -274 0
-226 -271 0
-271 -274 0
-223 -276 0
-223 -278 0
-271 -276 0
-225 -234 0
-225 -236 0
-231 -236 0
-226 -268 0
-226 -273 0
-273 -274 0
-227 -280 0
-227 -282 0
-275 -280 0
-227 -278 0
-230 -275 0
-275 -278 0
-229 -238 0
-229 -240 0
-235 -240 0
-230 -271 0
-230 -277 0
-277 -278 0
-231 -284 0
-231 -286 0
-279 -284 0
-231 -282 0
-234 -279 0
-279 -282 0
-233 -242 0
-233 -244 0
-239 -244 0
-234 -275 0
-234 -281 0
-281 -282 0
-235 -286 0
-238 -283 0
-283 -286 0
-235 -288 0
-235 -290 0
-283 -288 0
-237 -246 0
-237 -248 0
-243 -248 0
-238 -279 0
-238 -285 0
-285 -286 0
-239 -290 0
-242 -287 0
-287 -290 0
-239 -292 0
-239 -294 0
-287 -292 0
-241 -250 0
-241 -252 0
-247 -252 0
-242 -283 0
-242 -289 0
-289 -290 0
-243 -296 0
-243 -298 0
-291 -296 0
-243 -294 0
-246 -291 0
-291 -294 0
-245 -254 0
-245 -256 0
-251 -256 0
-246 -287 0
-246 -293 0
-293 -294 0
-247 -300 0
-247 -302 0
-295 -300 0
-247 -298 0
-250 -295 0
-295 -298 0
-249 -258 0
-249 -260 0
-255 -260 0
-250 -291 0
-250 -297 0
-297 -298 0
-251 -304 0
-251 -306 0
-299 -304 0
-251 -302 0
-254 -299 0
-299 -302 0
-253 -262 0
-253 -264 0
-259 -264 0
-254 -295 0
-254 -301 0
-301 -302 0
-255 -308 0
-255 -310 0
-303 -308 0
-255 -306 0
-258 -303 0
-303 -306 0
-257 -265 0
-257 -266 0
-263 -266 0
-258 -299 0
-258 -305 0
-305 -306 0
-259 -312 0
-259 -314 0
-307 -312 0
-259 -310 0
-262 -307 0
-307 -310 0
-262 -303 0
-262 -309 0
-309 -310 0
-263 -315 0
-263 -316 0
-311 -315 0
-263 -314 0
-265 -311 0
-311 -314 0
-265 -307 0
-265 -313 0
-313 -314 0
-267 -272 0
-267 -274 0
-269 -274 0
-268 -276 0
-268 -278 0
-273 -278 0
-269 -322 0
-269 -324 0
-318 -322 0
-269 -320 0
-272 -318 0
-318 -320 0
-271 -280 0
-271 -282 0
-277 -282 0
-272 -317 0
-272 -319 0
-319 -320 0
-273 -324 0
-276 -321 0
-321 -324 0
-273 -326 0
-273 -328 0
-321 -326 0
-275 -284 0
-275 -286 0
-281 -286 0
-276 -318 0
-276 -323 0
-323 -324 0
-277 -330 0
-277 -332 0
-325 -330 0
-277 -328 0
-280 -325 0
-325 -328 0
-279 -288 0
-279 -290 0
-285 -290 0
-280 -321 0
-280 -327 0
-327 -328 0
-281 -334 0
-281 -336 0
-329 -334 0
-281 -332 0
-284 -329 0
-329 -332 0
-283 -292 0
-283 -294 0
-289 -294 0
-284 -325 0
-284 -331 0
-331 -332 0
-285 -336 0
-288 -333 0
-333 -336 0
-285 -338 0
-285 -340 0
-333 -338 0
-287 -296 0
-287 -298 0
-293 -298 0
-288 -329 0
-288 -335 0
-335 -336 0
-289 -340 0
-292 -337 0
-337 -340 0
-289 -342 0
-289 -344 0
-337 -342 0
-291 -300 0
-291 -302 0
-297 -302 0
-292 -333 0
-292 -339 0
-339 -340 0
-293 -346 0
-293 -348 0
-341 -346 0
-293 -344 0
-296 -341 0
-341 -344 0
-295 -304 0
-295 -306 0
-301 -306 0
-296 -337 0
-296 -343 0
-343 -344 0
-297 -350 0
-297 -352 0
-345 -350 0
-297 -348 0
-300 -345 0
-345 -348 0
-299 -308 0
-299 -310 0
-305 -310 0
-300 -341 0
-300 -347 0
-347 -348 0
-301 -354 0
-301 -356 0
-349 -354 0
-301 -352 0
-304 -349 0
-349 -352 0
-303 -312 0
-303 -314 0
-309 -314 0
-304 -345 0
-304 -351 0
-351 -352 0
-305 -358 0
-305 -360 0
-353 -358 0
-305 -356 0
-308 -353 0
-353 -356 0
-307 -315 0
-307 -316 0
-313 -316 0
-308 -349 0
-308 -355 0
-355 -356 0
-309 -362 0
-309 -364 0
-357 -362 0
-309 -360 0
-312 -357 0
-357 -360 0
-312 -353 0
-312 -359 0
-359 -360 0
-313 -365 0
-313 -366 0
-361 -365 0
-313 -364 0
-315 -361 0
-361 -364 0
-315 -357 0
-315 -363 0
-363 -364 0
-317 -322 0
-317 -324 0
-319 -324 0
-318 -326 0
-318 -328 0
-323 -328 0
-319 -370 0
-322 -368 0
-368 -370 0
-319 -372 0
-319 -374 0
-368 -372 0
-321 -330 0
-321 -332 0
-327 -332 0
-322 -367 0
-322 -369 0
-369 -370 0
-323 -374 0
-326 -371 0
-371 -374 0
-323 -376 0
-323 -378 0
-371 -376 0
-325 -334 0
-325 -336 0
-331 -336 0
-326 -368 0
-326 -373 0
-373 -374 0
-327 -380 0
-327 -382 0
-375 -380 0
-327 -378 0
-330 -375 0
-375 -378 0
-329 -338 0
-329 -340 0
-335 -340 0
-330 -371 0
-330 -377 0
-377 -378 0
-331 -384 0
-331 -386 0
-379 -384 0
-331 -382 0
-334 -379 0
-379 -382 0
-333 -342 0
-333 -344 0
-339 -344 0
-334 -375 0
-334 -381 0
-381 -382 0
-335 -388 0
-335 -390 0
-383 -388 0
-335 -386 0
-338 -383 0
-383 -386 0
-337 -346 0
-337 -348 0
-343 -348 0
-338 -379 0
-338 -385 0
-385 -386 0
-339 -392 0
-339 -394 0
-387 -392 0
-339 -390 0
-342 -387 0
-387 -390 0
-341 -350 0
-341 -352 0
-347 -352 0
-342 -383 0
-342 -389 0
-389 -390 0
-343 -396 0
-343 -398 0
-391 -396 0
-343 -394 0
-346 -391 0
-391 -394 0
-345 -354 0
-345 -356 0
-351 -356 0
-346 -387 0
-346 -393 0
-393 -394 0
-347 -398 0
-350 -395 0
-395 -398 0
-347 -400 0
-347 -402 0
-395 -400 0
-349 -358 0
-349 -360 0
-355 -360 0
-350 -391 0
-350 -397 0
-397 -398 0
-351 -404 0
-351 -406 0
-399 -404 0
-351 -402 0
-354 -399 0
-399 -402 0
-353 -362 0
-353 -364 0
-359 -364 0
-354 -395 0
-354 -401 0
-401 -402 0
-355 -408 0
-355 -410 0
-403 -408 0
-355 -406 0
-358 -403 0
-403 -406 0
-357 -365 0
-357 -366 0
-363 -366 0
-358 -399 0
-358 -405 0
-405 -406 0
-359 -410 0
-362 -407 0
-407 -410 0
-359 -412 0
-359 -414 0
-407 -412 0
-362 -403 0
-362 -409 0
-409 -410 0
-363 -415 0
-363 -416 0
-411 -415 0
-363 -414 0
-365 -411 0
-411 -414 0
-365 -407 0
-365 -413 0
-413 -414 0
-367 -372 0
-367 -374 0
-369 -374 0
-368 -376 0
-368 -378 0
-373 -378 0
-369 -420 0
-372 -418 0
-418 -420 0
-369 -422 0
-369 -424 0
-418 -422 0
-371 -380 0
-371 -382 0
-377 -382 0
-372 -417 0
-372 -419 0
-419 -420 0
-373 -426 0
-373 -428 0
-421 -426 0
-373 -424 0
-376 -421 0
-421 -424 0
-375 -384 0
-375 -386 0
-381 -386 0
-376 -418 0
-376 -423 0
-423 -424 0
-377 -430 0
-377 -432 0
-425 -430 0
-377 -428 0
-380 -425 0
-425 -428 0
-379 -388 0
-379 -390 0
-385 -390 0
-380 -421 0
-380 -427 0
-427 -428 0
-381 -432 0
-384 -429 0
-429 -432 0
-381 -434 0
-381 -436 0
-429 -434 0
-383 -392 0
-383 -394 0
-389 -394 0
-384 -425 0
-384 -431 0
-431 -432 0
-385 -436 0
-388 -433 0
-433 -436 0
-385 -438 0
-385 -440 0
-433 -438 0
-387 -396 0
-387 -398 0
-393 -398 0
-388 -429 0
-388 -435 0
-435 -436 0
-389 -440 0
-392 -437 0
-437 -440 0
-389 -442 0
-389 -444 0
-437 -442 0
-391 -400 0
-391 -402 0
-397 -402 0
-392 -433 0
-392 -439 0
-439 -440 0
-393 -446 0
-393 -448 0
-441 -446 0
-393 -444 0
-396 -441 0
-441 -444 0
-395 -404 0
-395 -406 0
-401 -406 0
-396 -437 0
-396 -443 0
-443 -444 0
-397 -450 0
-397 -452 0
-445 -450 0
-397 -448 0
-400 -445 0
-445 -448 0
-399 -408 0
-399 -410 0
-405 -410 0
-400 -441 0
-400 -447 0
-447 -448 0
-401 -454 0
-401 -456 0
-449 -454 0
-401 -452 0
-404 -449 0
-449 -452 0
-403 -412 0
-403 -414 0
-409 -414 0
-404 -445 0
-404 -451 0
-451 -452 0
-405 -458 0
-405 -460 0
-453 -458 0
-405 -456 0
-408 -453 0
-453 -456 0
-407 -415 0
-407 -416 0
-413 -416 0
-408 -449 0
-408 -455 0
-455 -456 0
-409 -462 0
-409 -464 0
-457 -462 0
-409 -460 0
-412 -457 0
-457 -460 0
-412 -453 0
-412 -459 0
-459 -460 0
-413 -464 0
-415 -461 0
-461 -464 0
-413 -465 0
-413 -466 0
-461 -465 0
-415 -457 0
-415 -463 0
-463 -464 0
-417 -422 0
-417 -424 0
-419 -424 0
-418 -426 0
-418 -428 0
-423 -428 0
-419 -472 0
-419 -474 0
-468 -472 0
-419 -470 0
-422 -468 0
-468 -470 0
-421 -430 0
-421 -432 0
-427 -432 0
-422 -467 0
-422 -469 0
-469 -470 0
-423 -476 0
-423 -478 0
-471 -476 0
-423 -474 0
-426 -471 0
-471 -474 0
-425 -434 0
-425 -436 0
-431 -436 0
-426 -468 0
-426 -473 0
-473 -474 0
-427 -478 0
-430 -475 0
-475 -478 0
-427 -480 0
-427 -482 0
-475 -480 0
-429 -438 0
-429 -440 0
-435 -440 0
-430 -471 0
-430 -477 0
-477 -478 0
-431 -484 0
-431 -486 0
-479 -484 0
-431 -482 0
-434 -479 0
-479 -482 0
-433 -442 0
-433 -444 0
-439 -444 0
-434 -475 0
-434 -481 0
-481 -482 0
-435 -488 0
-435 -490 0
-483 -488 0
-435 -486 0
-438 -483 0
-483 -486 0
-437 -446 0
-437 -448 0
-443 -448 0
-438 -479 0
-438 -485 0
-485 -486 0
-439 -492 0
-439 -494 0
-487 -492 0
-439 -490 0
-442 -487 0
-487 -490 0
-441 -450 0
-441 -452 0
-447 -452 0
-442 -483 0
-442 -489 0
-489 -490 0
-443 -496 0
-443 -498 0
-491 -496 0
-443 -494 0
-446 -491 0
-491 -494 0
-445 -454 0
-445 -456 0
-451 -456 0
-446 -487 0
-446 -493 0
-493 -494 0
-447 -498 0
-450 -495 0
-495 -498 0
-447 -500 0
-447 -502 0
-495 -500 0
-449 -458 0
-449 -460 0
-455 -460 0
-450 -491 0
-450 -497 0
-497 -498 0
-451 -504 0
-451 -506 0
-499 -504 0
-451 -502 0
-454 -499 0
-499 -502 0
-453 -462 0
-453 -464 0
-459 -464 0
-454 -495 0
-454 -501 0
-501 -502 0
-455 -508 0
-455 -510 0
-503 -508 0
-455 -506 0
-458 -503 0
-503 -506 0
-457 -465 0
-457 -466 0
-463 -466 0
-458 -499 0
-458 -505 0
-505 -506 0
-459 -510 0
-462 -507 0
-507 -510 0
-459 -512 0
-459 -514 0
-507 -512 0
-462 -503 0
-462 -509 0
-509 -510 0
-463 -515 0
-463 -516 0
-511 -515 0
-463 -514 0
-465 -511 0
-511 -514 0
-465 -507 0
-465 -513 0
-513 -514 0
-467 -472 0
-467 -474 0
-469 -474 0
-468 -476 0
-468 -478 0
-473 -478 0
-469 -519 0
-472 -518 0
-518 -519 0
-469 -521 0
-469 -523 0
-518 -521 0
-471 -480 0
-471 -482 0
-477 -482 0
-472 -517 0
-473 -523 0
-476 -520 0
-520 -523 0
-473 -525 0
-473 -527 0
-520 -525 0
-475 -484 0
-475 -486 0
-481 -486 0
-476 -518 0
-476 -522 0
-522 -523 0
-477 -529 0
-477 -531 0
-524 -529 0
-477 -527 0
-480 -524 0
-524 -527 0
-479 -488 0
-479 -490 0
-485 -490 0
-480 -520 0
-480 -526 0
-526 -527 0
-481 -533 0
-481 -535 0
-528 -533 0
-481 -531 0
-484 -528 0
-528 -531 0
-483 -492 0
-483 -494 0
-489 -494 0
-484 -524 0
-484 -530 0
-530 -531 0
-485 -535 0
-488 -532 0
-532 -535 0
-485 -537 0
-485 -539 0
-532 -537 0
-487 -496 0
-487 -498 0
-493 -498 0
-488 -528 0
-488 -534 0
-534 -535 0
-489 -539 0
-492 -536 0
-536 -539 0
-489 -541 0
-489 -543 0
-536 -541 0
-491 -500 0
-491 -502 0
-497 -502 0
-492 -532 0
-492 -538 0
-538 -539 0
-493 -545 0
-493 -547 0
-540 -545 0
-493 -543 0
-496 -540 0
-540 -543 0
-495 -504 0
-495 -506 0
-501 -506 0
-496 -536 0
-496 -542 0
-542 -543 0
-497 -549 0
-497 -551 0
-544 -549 0
-497 -547 0
-500 -544 0
-544 -547 0
-499 -508 0
-499 -510 0
-505 -510 0
-500 -540 0
-500 -546 0
-546 -547 0
-501 -551 0
-504 -548 0
-548 -551 0
-501 -553 0
-501 -555 0
-548 -553 0
-503 -512 0
-503 -514 0
-509 -514 0
-504 -544 0
-504 -550 0
-550 -551 0
-505 -555 0
-508 -552 0
-552 -555 0
-505 -557 0
-505 -559 0
-552 -557 0
-507 -515 0
-507 -516 0
-513 -516 0
-508 -548 0
-508 -554 0
-554 -555 0
-509 -559 0
-512 -556 0
-556 -559 0
-509 -561 0
-509 -563 0
-556 -561 0
-512 -552 0
-512 -558 0
-558 -559 0
-513 -563 0
-515 -560 0
-560 -563 0
-513 -564 0
-515 -556 0
-515 -562 0
-562 -563 0
-517 -521 0
-517 -523 0
-518 -525 0
-518 -527 0
-522 -527 0
-520 -529 0
-520 -531 0
-526 -531 0
-522 -569 0
-525 -566 0
-566 -569 0
-522 -571 0
-522 -573 0
-566 -571 0
-524 -533 0
-524 -535 0
-530 -535 0
-525 -568 0
-568 -569 0
-526 -573 0
-529 -570 0
-570 -573 0
-526 -575 0
-526 -577 0
-570 -575 0
-528 -537 0
-528 -539 0
-534 -539 0
-529 -566 0
-529 -572 0
-572 -573 0
-530 -579 0
-530 -581 0
-574 -579 0
-530 -577 0
-533 -574 0
-574 -577 0
-532 -541 0
-532 -543 0
-538 -543 0
-533 -570 0
-533 -576 0
-576 -577 0
-534 -583 0
-534 -585 0
-578 -583 0
-534 -581 0
-537 -578 0
-578 -581 0
-536 -545 0
-536 -547 0
-542 -547 0
-537 -574 0
-537 -580 0
-580 -581 0
-538 -587 0
-538 -589 0
-582 -587 0
-538 -585 0
-541 -582 0
-582 -585 0
-540 -549 0
-540 -551 0
-546 -551 0
-541 -578 0
-541 -584 0
-584 -585 0
-542 -589 0
-545 -586 0
-586 -589 0
-542 -591 0
-542 -593 0
-586 -591 0
-544 -553 0
-544 -555 0
-550 -555 0
-545 -582 0
-545 -588 0
-588 -589 0
-546 -595 0
-546 -597 0
-590 -595 0
-546 -593 0
-549 -590 0
-590 -593 0
-548 -557 0
-548 -559 0
-554 -559 0
-549 -586 0
-549 -592 0
-592 -593 0
-550 -597 0
-553 -594 0
-594 -597 0
-550 -599 0
-550 -601 0
-594 -599 0
-552 -561 0
-552 -563 0
-558 -563 0
-553 -590 0
-553 -596 0
-596 -597 0
-554 -603 0
-554 -605 0
-598 -603 0
-554 -601 0
-557 -598 0
-598 -601 0
-556 -564 0
-562 -564 0
-557 -594 0
-557 -600 0
-600 -601 0
-558 -607 0
-602 -607 0
-558 -605 0
-561 -602 0
-602 -605 0
-561 -598 0
-561 -604 0
-604 -605 0
-566 -575 0
-566 -577 0
-572 -577 0
-568 -573 0
-570 -579 0
-570 -581 0
-576 -581 0
-574 -583 0
-574 -585 0
-580 -585 0
-578 -587 0
-578 -589 0
-584 -589 0
-582 -591 0
-582 -593 0
-588 -593 0
-586 -595 0
-586 -597 0
-592 -597 0
-590 -599 0
-590 -601 0
-596 -601 0
-594 -603 0
-594 -605 0
-600 -605 0
-598 -607 0
-2 3625 0
-3625 3626 0
-26 -3625 3627 0
-3627 3628 0
-29 -3627 0
-26 3626 0
-29 -3626 3628 0
-31 -3628 0
-2 -3 -26 0
-3 -24 -27 0
-4 3629 0
-3629 3630 0
-28 -3629 3631 0
-3631 3632 0
-33 -3631 0
-28 3630 0
-33 -3630 3632 0
-35 -3632 0
-4 3633 0
-3633 3634 0
-5 -3633 3635 0
-3635 3636 0
-28 -3635 0
-5 3634 0
-28 -3634 3636 0
-31 -3636 0
-5 3637 0
-3637 3638 0
-26 -3637 3639 0
-3639 3640 0
-30 -3639 0
-26 3638 0
-30 -3638 3640 0
-31 -3640 0
-6 3641 0
-3641 3642 0
-32 -3641 3643 0
-3643 3644 0
-37 -3643 0
-32 3642 0
-37 -3642 3644 0
-39 -3644 0
-6 3645 0
-3645 3646 0
-7 -3645 3647 0
-3647 3648 0
-32 -3647 0
-7 3646 0
-32 -3646 3648 0
-35 -3648 0
-7 3649 0
-3649 3650 0
-28 -3649 3651 0
-3651 3652 0
-34 -3651 0
-28 3650 0
-34 -3650 3652 0
-35 -3652 0
-8 3653 0
-3653 3654 0
-36 -3653 3655 0
-3655 3656 0
-41 -3655 0
-36 3654 0
-41 -3654 3656 0
-43 -3656 0
-8 3657 0
-3657 3658 0
-9 -3657 3659 0
-3659 3660 0
-36 -3659 0
-9 3658 0
-36 -3658 3660 0
-39 -3660 0
-9 3661 0
-3661 3662 0
-32 -3661 3663 0
-3663 3664 0
-38 -3663 0
-32 3662 0
-38 -3662 3664 0
-39 -3664 0
-10 3665 0
-3665 3666 0
-40 -3665 3667 0
-3667 3668 0
-45 -3667 0
-40 3666 0
-45 -3666 3668 0
-47 -3668 0
-10 3669 0
-3669 3670 0
-11 -3669 3671 0
-3671 3672 0
-40 -3671 0
-11 3670 0
-40 -3670 3672 0
-43 -3672 0
-11 3673 0
-3673 3674 0
-36 -3673 3675 0
-3675 3676 0
-42 -3675 0
-36 3674 0
-42 -3674 3676 0
-43 -3676 0
-12 3677 0
-3677 3678 0
-44 -3677 3679 0
-3679 3680 0
-49 -3679 0
-44 3678 0
-49 -3678 3680 0
-51 -3680 0
-12 3681 0
-3681 3682 0
-13 -3681 3683 0
-3683 3684 0
-44 -3683 0
-13 3682 0
-44 -3682 3684 0
-47 -3684 0
-13 3685 0
-3685 3686 0
-40 -3685 3687 0
-3687 3688 0
-46 -3687 0
-40 3686 0
-46 -3686 3688 0
-47 -3688 0
-14 3689 0
-3689 3690 0
-48 -3689 3691 0
-3691 3692 0
-53 -3691 0
-48 3690 0
-53 -3690 3692 0
-55 -3692 0
-14 3693 0
-3693 3694 0
-15 -3693 3695 0
-3695 3696 0
-48 -3695 0
-15 3694 0
-48 -3694 3696 0
-51 -3696 0
-15 3697 0
-3697 3698 0
-44 -3697 3699 0
-3699 3700 0
-50 -3699 0
-44 3698 0
-50 -3698 3700 0
-51 -3700 0
-16 3701 0
-3701 3702 0
-52 -3701 3703 0
-3703 3704 0
-57 -3703 0
-52 3702 0
-57 -3702 3704 0
-59 -3704 0
-16 3705 0
-3705 3706 0
-17 -3705 3707 0
-3707 3708 0
-52 -3707 0
-17 3706 0
-52 -3706 3708 0
-55 -3708 0
-17 3709 0
-3709 3710 0
-48 -3709 3711 0
-3711 3712 0
-54 -3711 0
-48 3710 0
-54 -3710 3712 0
-55 -3712 0
-18 3713 0
-3713 3714 0
-56 -3713 3715 0
-3715 3716 0
-60 -3715 0
-56 3714 0
-60 -3714 3716 0
-62 -3716 0
-18 3717 0
-3717 3718 0
-19 -3717 3719 0
-3719 3720 0
-56 -3719 0
-19 3718 0
-56 -3718 3720 0
-59 -3720 0
-19 3721 0
-3721 3722 0
-52 -3721 3723 0
-3723 3724 0
-58 -3723 0
-52 3722 0
-58 -3722 3724 0
-59 -3724 0
-20 -63 -64 0
-20 -21 -62 0
-21 3725 0
-3725 3726 0
-56 -3725 3727 0
-3727 3728 0
-61 -3727 0
-56 3726 0
-61 -3726 3728 0
-62 -3728 0
-24 3729 0
-3729 3730 0
-27 -3729 3731 0
-3731 3732 0
-29 -3731 0
-27 3730 0
-29 -3730 3732 0
-31 -3732 0
-25 3733 0
-3733 3734 0
-68 -3733 3735 0
-3735 3736 0
-72 -3735 0
-68 3734 0
-72 -3734 3736 0
-74 -3736 0
-25 -68 -70 0
-26 3737 0
-3737 3738 0
-30 -3737 3739 0
-3739 3740 0
-33 -3739 0
-30 3738 0
-33 -3738 3740 0
-35 -3740 0
-27 3741 0
-3741 3742 0
-29 -3741 3743 0
-3743 3744 0
-71 -3743 0
-29 3742 0
-71 -3742 3744 0
-74 -3744 0
-27 3745 0
-3745 3746 0
-71 -3745 3747 0
-3747 3748 0
-76 -3747 0
-71 3746 0
-76 -3746 3748 0
-78 -3748 0
-28 3749 0
-3749 3750 0
-34 -3749 3751 0
-3751 3752 0
-37 -3751 0
-34 3750 0
-37 -3750 3752 0
-39 -3752 0
-29 3753 0
-3753 3754 0
-68 -3753 3755 0
-3755 3756 0
-73 -3755 0
-68 3754 0
-73 -3754 3756 0
-74 -3756 0
-30 3757 0
-3757 3758 0
-75 -3757 3759 0
-3759 3760 0
-80 -3759 0
-75 3758 0
-80 -3758 3760 0
-82 -3760 0
-30 3761 0
-3761 3762 0
-33 -3761 3763 0
-3763 3764 0
-75 -3763 0
-33 3762 0
-75 -3762 3764 0
-78 -3764 0
-32 3765 0
-3765 3766 0
-38 -3765 3767 0
-3767 3768 0
-41 -3767 0
-38 3766 0
-41 -3766 3768 0
-43 -3768 0
-33 3769 0
-3769 3770 0
-71 -3769 3771 0
-3771 3772 0
-77 -3771 0
-71 3770 0
-77 -3770 3772 0
-78 -3772 0
-34 3773 0
-3773 3774 0
-37 -3773 3775 0
-3775 3776 0
-79 -3775 0
-37 3774 0
-79 -3774 3776 0
-82 -3776 0
-34 3777 0
-3777 3778 0
-79 -3777 3779 0
-3779 3780 0
-84 -3779 0
-79 3778 0
-84 -3778 3780 0
-86 -3780 0
-36 3781 0
-3781 3782 0
-42 -3781 3783 0
-3783 3784 0
-45 -3783 0
-42 3782 0
-45 -3782 3784 0
-47 -3784 0
-37 3785 0
-3785 3786 0
-75 -3785 3787 0
-3787 3788 0
-81 -3787 0
-75 3786 0
-81 -3786 3788 0
-82 -3788 0
-38 3789 0
-3789 3790 0
-83 -3789 3791 0
-3791 3792 0
-88 -3791 0
-83 3790 0
-88 -3790 3792 0
-90 -3792 0
-38 3793 0
-3793 3794 0
-41 -3793 3795 0
-3795 3796 0
-83 -3795 0
-41 3794 0
-83 -3794 3796 0
-86 -3796 0
-40 3797 0
-3797 3798 0
-46 -3797 3799 0
-3799 3800 0
-49 -3799 0
-46 3798 0
-49 -3798 3800 0
-51 -3800 0
-41 3801 0
-3801 3802 0
-79 -3801 3803 0
-3803 3804 0
-85 -3803 0
-79 3802 0
-85 -3802 3804 0
-86 -3804 0
-42 3805 0
-3805 3806 0
-87 -3805 3807 0
-3807 3808 0
-92 -3807 0
-87 3806 0
-92 -3806 3808 0
-94 -3808 0
-42 3809 0
-3809 3810 0
-45 -3809 3811 0
-3811 3812 0
-87 -3811 0
-45 3810 0
-87 -3810 3812 0
-90 -3812 0
-44 3813 0
-3813 3814 0
-50 -3813 3815 0
-3815 3816 0
-53 -3815 0
-50 3814 0
-53 -3814 3816 0
-55 -3816 0
-45 3817 0
-3817 3818 0
-83 -3817 3819 0
-3819 3820 0
-89 -3819 0
-83 3818 0
-89 -3818 3820 0
-90 -3820 0
-46 3821 0
-3821 3822 0
-91 -3821 3823 0
-3823 3824 0
-96 -3823 0
-91 3822 0
-96 -3822 3824 0
-98 -3824 0
-46 3825 0
-3825 3826 0
-49 -3825 3827 0
-3827 3828 0
-91 -3827 0
-49 3826 0
-91 -3826 3828 0
-94 -3828 0
-48 3829 0
-3829 3830 0
-54 -3829 3831 0
-3831 3832 0
-57 -3831 0
-54 3830 0
-57 -3830 3832 0
-59 -3832 0
-49 3833 0
-3833 3834 0
-87 -3833 3835 0
-3835 3836 0
-93 -3835 0
-87 3834 0
-93 -3834 3836 0
-94 -3836 0
-50 3837 0
-3837 3838 0
-53 -3837 3839 0
-3839 3840 0
-95 -3839 0
-53 3838 0
-95 -3838 3840 0
-98 -3840 0
-50 3841 0
-3841 3842 0
-95 -3841 3843 0
-3843 3844 0
-100 -3843 0
-95 3842 0
-100 -3842 3844 0
-102 -3844 0
-52 3845 0
-3845 3846 0
-58 -3845 3847 0
-3847 3848 0
-60 -3847 0
-58 3846 0
-60 -3846 3848 0
-62 -3848 0
-53 3849 0
-3849 3850 0
-91 -3849 3851 0
-3851 3852 0
-97 -3851 0
-91 3850 0
-97 -3850 3852 0
-98 -3852 0
-54 3853 0
-3853 3854 0
-57 -3853 3855 0
-3855 3856 0
-99 -3855 0
-57 3854 0
-99 -3854 3856 0
-102 -3856 0
-54 3857 0
-3857 3858 0
-99 -3857 3859 0
-3859 3860 0
-104 -3859 0
-99 3858 0
-104 -3858 3860 0
-106 -3860 0
-56 3861 0
-3861 3862 0
-61 -3861 3863 0
-3863 3864 0
-63 -3863 0
-61 3862 0
-63 -3862 3864 0
-64 -3864 0
-57 3865 0
-3865 3866 0
-95 -3865 3867 0
-3867 3868 0
-101 -3867 0
-95 3866 0
-101 -3866 3868 0
-102 -3868 0
-58 3869 0
-3869 3870 0
-103 -3869 3871 0
-3871 3872 0
-108 -3871 0
-103 3870 0
-108 -3870 3872 0
-110 -3872 0
-58 3873 0
-3873 3874 0
-60 -3873 3875 0
-3875 3876 0
-103 -3875 0
-60 3874 0
-103 -3874 3876 0
-106 -3876 0
-60 3877 0
-3877 3878 0
-99 -3877 3879 0
-3879 3880 0
-105 -3879 0
-99 3878 0
-105 -3878 3880 0
-106 -3880 0
-61 3881 0
-3881 3882 0
-107 -3881 3883 0
-3883 3884 0
-112 -3883 0
-107 3882 0
-112 -3882 3884 0
-114 -3884 0
-61 3885 0
-3885 3886 0
-63 -3885 3887 0
-3887 3888 0
-107 -3887 0
-63 3886 0
-107 -3886 3888 0
-110 -3888 0
-63 3889 0
-3889 3890 0
-103 -3889 3891 0
-3891 3892 0
-109 -3891 0
-103 3890 0
-109 -3890 3892 0
-110 -3892 0
-65 3893 0
-3893 3894 0
-107 -3893 3895 0
-3895 3896 0
-113 -3895 0
-107 3894 0
-113 -3894 3896 0
-114 -3896 0
-65 -111 -114 0
-67 -69 -70 0
-67 3897 0
-3897 3898 0
-69 -3897 3899 0
-3899 3900 0
-72 -3899 0
-69 3898 0
-72 -3898 3900 0
-74 -3900 0
-68 3901 0
-3901 3902 0
-73 -3901 3903 0
-3903 3904 0
-76 -3903 0
-73 3902 0
-76 -3902 3904 0
-78 -3904 0
-69 3905 0
-3905 3906 0
-72 -3905 3907 0
-3907 3908 0
-118 -3907 0
-72 3906 0
-118 -3906 3908 0
-120 -3908 0
-69 3909 0
-3909 3910 0
-118 -3909 3911 0
-3911 3912 0
-122 -3911 0
-118 3910 0
-122 -3910 3912 0
-124 -3912 0
-71 3913 0
-3913 3914 0
-77 -3913 3915 0
-3915 3916 0
-80 -3915 0
-77 3914 0
-80 -3914 3916 0
-82 -3916 0
-72 3917 0
-3917 3918 0
-117 -3917 3919 0
-3919 3920 0
-119 -3919 0
-117 3918 0
-119 -3918 3920 0
-120 -3920 0
-73 3921 0
-3921 3922 0
-121 -3921 3923 0
-3923 3924 0
-126 -3923 0
-121 3922 0
-126 -3922 3924 0
-128 -3924 0
-73 3925 0
-3925 3926 0
-76 -3925 3927 0
-3927 3928 0
-121 -3927 0
-76 3926 0
-121 -3926 3928 0
-124 -3928 0
-75 3929 0
-3929 3930 0
-81 -3929 3931 0
-3931 3932 0
-84 -3931 0
-81 3930 0
-84 -3930 3932 0
-86 -3932 0
-76 3933 0
-3933 3934 0
-118 -3933 3935 0
-3935 3936 0
-123 -3935 0
-118 3934 0
-123 -3934 3936 0
-124 -3936 0
-77 3937 0
-3937 3938 0
-125 -3937 3939 0
-3939 3940 0
-130 -3939 0
-125 3938 0
-130 -3938 3940 0
-132 -3940 0
-77 3941 0
-3941 3942 0
-80 -3941 3943 0
-3943 3944 0
-125 -3943 0
-80 3942 0
-125 -3942 3944 0
-128 -3944 0
-79 3945 0
-3945 3946 0
-85 -3945 3947 0
-3947 3948 0
-88 -3947 0
-85 3946 0
-88 -3946 3948 0
-90 -3948 0
-80 3949 0
-3949 3950 0
-121 -3949 3951 0
-3951 3952 0
-127 -3951 0
-121 3950 0
-127 -3950 3952 0
-128 -3952 0
-81 3953 0
-3953 3954 0
-129 -3953 3955 0
-3955 3956 0
-134 -3955 0
-129 3954 0
-134 -3954 3956 0
-136 -3956 0
-81 3957 0
-3957 3958 0
-84 -3957 3959 0
-3959 3960 0
-129 -3959 0
-84 3958 0
-129 -3958 3960 0
-132 -3960 0
-83 3961 0
-3961 3962 0
-89 -3961 3963 0
-3963 3964 0
-92 -3963 0
-89 3962 0
-92 -3962 3964 0
-94 -3964 0
-84 3965 0
-3965 3966 0
-125 -3965 3967 0
-3967 3968 0
-131 -3967 0
-125 3966 0
-131 -3966 3968 0
-132 -3968 0
-85 3969 0
-3969 3970 0
-133 -3969 3971 0
-3971 3972 0
-138 -3971 0
-133 3970 0
-138 -3970 3972 0
-140 -3972 0
-85 3973 0
-3973 3974 0
-88 -3973 3975 0
-3975 3976 0
-133 -3975 0
-88 3974 0
-133 -3974 3976 0
-136 -3976 0
-87 3977 0
-3977 3978 0
-93 -3977 3979 0
-3979 3980 0
-96 -3979 0
-93 3978 0
-96 -3978 3980 0
-98 -3980 0
-88 3981 0
-3981 3982 0
-129 -3981 3983 0
-3983 3984 0
-135 -3983 0
-129 3982 0
-135 -3982 3984 0
-136 -3984 0
-89 3985 0
-3985 3986 0
-137 -3985 3987 0
-3987 3988 0
-142 -3987 0
-137 3986 0
-142 -3986 3988 0
-144 -3988 0
-89 3989 0
-3989 3990 0
-92 -3989 3991 0
-3991 3992 0
-137 -3991 0
-92 3990 0
-137 -3990 3992 0
-140 -3992 0
-91 3993 0
-3993 3994 0
-97 -3993 3995 0
-3995 3996 0
-100 -3995 0
-97 3994 0
-100 -3994 3996 0
-102 -3996 0
-92 3997 0
-3997 3998 0
-133 -3997 3999 0
-3999 4000 0
-139 -3999 0
-133 3998 0
-139 -3998 4000 0
-140 -4000 0
-93 4001 0
-4001 4002 0
-141 -4001 4003 0
-4003 4004 0
-146 -4003 0
-141 4002 0
-146 -4002 4004 0
-148 -4004 0
-93 4005 0
-4005 4006 0
-96 -4005 4007 0
-4007 4008 0
-141 -4007 0
-96 4006 0
-141 -4006 4008 0
-144 -4008 0
-95 4009 0
-4009 4010 0
-101 -4009 4011 0
-4011 4012 0
-104 -4011 0
-101 4010 0
-104 -4010 4012 0
-106 -4012 0
-96 4013 0
-4013 4014 0
-137 -4013 4015 0
-4015 4016 0
-143 -4015 0
-137 4014 0
-143 -4014 4016 0
-144 -4016 0
-97 4017 0
-4017 4018 0
-145 -4017 4019 0
-4019 4020 0
-150 -4019 0
-145 4018 0
-150 -4018 4020 0
-152 -4020 0
-97 4021 0
-4021 4022 0
-100 -4021 4023 0
-4023 4024 0
-145 -4023 0
-100 4022 0
-145 -4022 4024 0
-148 -4024 0
-99 4025 0
-4025 4026 0
-105 -4025 4027 0
-4027 4028 0
-108 -4027 0
-105 4026 0
-108 -4026 4028 0
-110 -4028 0
-100 4029 0
-4029 4030 0
-141 -4029 4031 0
-4031 4032 0
-147 -4031 0
-141 4030 0
-147 -4030 4032 0
-148 -4032 0
-101 4033 0
-4033 4034 0
-149 -4033 4035 0
-4035 4036 0
-154 -4035 0
-149 4034 0
-154 -4034 4036 0
-156 -4036 0
-101 4037 0
-4037 4038 0
-104 -4037 4039 0
-4039 4040 0
-149 -4039 0
-104 4038 0
-149 -4038 4040 0
-152 -4040 0
-103 4041 0
-4041 4042 0
-109 -4041 4043 0
-4043 4044 0
-112 -4043 0
-109 4042 0
-112 -4042 4044 0
-114 -4044 0
-104 4045 0
-4045 4046 0
-145 -4045 4047 0
-4047 4048 0
-151 -4047 0
-145 4046 0
-151 -4046 4048 0
-152 -4048 0
-105 4049 0
-4049 4050 0
-153 -4049 4051 0
-4051 4052 0
-158 -4051 0
-153 4050 0
-158 -4050 4052 0
-160 -4052 0
-105 4053 0
-4053 4054 0
-108 -4053 4055 0
-4055 4056 0
-153 -4055 0
-108 4054 0
-153 -4054 4056 0
-156 -4056 0
-107 4057 0
-4057 4058 0
-113 -4057 4059 0
-4059 4060 0
-115 -4059 0
-113 4058 0
-115 -4058 4060 0
-116 -4060 0
-108 4061 0
-4061 4062 0
-149 -4061 4063 0
-4063 4064 0
-155 -4063 0
-149 4062 0
-155 -4062 4064 0
-156 -4064 0
-109 4065 0
-4065 4066 0
-157 -4065 4067 0
-4067 4068 0
-162 -4067 0
-157 4066 0
-162 -4066 4068 0
-164 -4068 0
-109 4069 0
-4069 4070 0
-112 -4069 4071 0
-4071 4072 0
-157 -4071 0
-112 4070 0
-157 -4070 4072 0
-160 -4072 0
-111 -115 -116 0
-112 4073 0
-4073 4074 0
-153 -4073 4075 0
-4075 4076 0
-159 -4075 0
-153 4074 0
-159 -4074 4076 0
-160 -4076 0
-113 4077 0
-4077 4078 0
-161 -4077 4079 0
-4079 4080 0
-165 -4079 0
-161 4078 0
-165 -4078 4080 0
-166 -4080 0
-113 4081 0
-4081 4082 0
-115 -4081 4083 0
-4083 4084 0
-161 -4083 0
-115 4082 0
-161 -4082 4084 0
-164 -4084 0
-115 4085 0
-4085 4086 0
-157 -4085 4087 0
-4087 4088 0
-163 -4087 0
-157 4086 0
-163 -4086 4088 0
-164 -4088 0
-117 4089 0
-4089 4090 0
-119 -4089 4091 0
-4091 4092 0
-122 -4091 0
-119 4090 0
-122 -4090 4092 0
-124 -4092 0
-118 4093 0
-4093 4094 0
-123 -4093 4095 0
-4095 4096 0
-126 -4095 0
-123 4094 0
-126 -4094 4096 0
-128 -4096 0
-119 4097 0
-4097 4098 0
-168 -4097 4099 0
-4099 4100 0
-172 -4099 0
-168 4098 0
-172 -4098 4100 0
-174 -4100 0
-119 4101 0
-4101 4102 0
-122 -4101 4103 0
-4103 4104 0
-168 -4103 0
-122 4102 0
-168 -4102 4104 0
-170 -4104 0
-121 4105 0
-4105 4106 0
-127 -4105 4107 0
-4107 4108 0
-130 -4107 0
-127 4106 0
-130 -4106 4108 0
-132 -4108 0
-122 4109 0
-4109 4110 0
-167 -4109 4111 0
-4111 4112 0
-169 -4111 0
-167 4110 0
-169 -4110 4112 0
-170 -4112 0
-123 4113 0
-4113 4114 0
-171 -4113 4115 0
-4115 4116 0
-176 -4115 0
-171 4114 0
-176 -4114 4116 0
-178 -4116 0
-123 4117 0
-4117 4118 0
-126 -4117 4119 0
-4119 4120 0
-171 -4119 0
-126 4118 0
-171 -4118 4120 0
-174 -4120 0
-125 4121 0
-4121 4122 0
-131 -4121 4123 0
-4123 4124 0
-134 -4123 0
-131 4122 0
-134 -4122 4124 0
-136 -4124 0
-126 4125 0
-4125 4126 0
-168 -4125 4127 0
-4127 4128 0
-173 -4127 0
-168 4126 0
-173 -4126 4128 0
-174 -4128 0
-127 4129 0
-4129 4130 0
-175 -4129 4131 0
-4131 4132 0
-180 -4131 0
-175 4130 0
-180 -4130 4132 0
-182 -4132 0
-127 4133 0
-4133 4134 0
-130 -4133 4135 0
-4135 4136 0
-175 -4135 0
-130 4134 0
-175 -4134 4136 0
-178 -4136 0
-129 4137 0
-4137 4138 0
-135 -4137 4139 0
-4139 4140 0
-138 -4139 0
-135 4138 0
-138 -4138 4140 0
-140 -4140 0
-130 4141 0
-4141 4142 0
-171 -4141 4143 0
-4143 4144 0
-177 -4143 0
-171 4142 0
-177 -4142 4144 0
-178 -4144 0
-131 4145 0
-4145 4146 0
-179 -4145 4147 0
-4147 4148 0
-184 -4147 0
-179 4146 0
-184 -4146 4148 0
-186 -4148 0
-131 4149 0
-4149 4150 0
-134 -4149 4151 0
-4151 4152 0
-179 -4151 0
-134 4150 0
-179 -4150 4152 0
-182 -4152 0
-133 4153 0
-4153 4154 0
-139 -4153 4155 0
-4155 4156 0
-142 -4155 0
-139 4154 0
-142 -4154 4156 0
-144 -4156 0
-134 4157 0
-4157 4158 0
-175 -4157 4159 0
-4159 4160 0
-181 -4159 0
-175 4158 0
-181 -4158 4160 0
-182 -4160 0
-135 4161 0
-4161 4162 0
-183 -4161 4163 0
-4163 4164 0
-188 -4163 0
-183 4162 0
-188 -4162 4164 0
-190 -4164 0
-135 4165 0
-4165 4166 0
-138 -4165 4167 0
-4167 4168 0
-183 -4167 0
-138 4166 0
-183 -4166 4168 0
-186 -4168 0
-137 4169 0
-4169 4170 0
-143 -4169 4171 0
-4171 4172 0
-146 -4171 0
-143 4170 0
-146 -4170 4172 0
-148 -4172 0
-138 4173 0
-4173 4174 0
-179 -4173 4175 0
-4175 4176 0
-185 -4175 0
-179 4174 0
-185 -4174 4176 0
-186 -4176 0
-139 4177 0
-4177 4178 0
-187 -4177 4179 0
-4179 4180 0
-192 -4179 0
-187 4178 0
-192 -4178 4180 0
-194 -4180 0
-139 4181 0
-4181 4182 0
-142 -4181 4183 0
-4183 4184 0
-187 -4183 0
-142 4182 0
-187 -4182 4184 0
-190 -4184 0
-141 4185 0
-4185 4186 0
-147 -4185 4187 0
-4187 4188 0
-150 -4187 0
-147 4186 0
-150 -4186 4188 0
-152 -4188 0
-142 4189 0
-4189 4190 0
-183 -4189 4191 0
-4191 4192 0
-189 -4191 0
-183 4190 0
-189 -4190 4192 0
-190 -4192 0
-143 4193 0
-4193 4194 0
-191 -4193 4195 0
-4195 4196 0
-196 -4195 0
-191 4194 0
-196 -4194 4196 0
-198 -4196 0
-143 4197 0
-4197 4198 0
-146 -4197 4199 0
-4199 4200 0
-191 -4199 0
-146 4198 0
-191 -4198 4200 0
-194 -4200 0
-145 4201 0
-4201 4202 0
-151 -4201 4203 0
-4203 4204 0
-154 -4203 0
-151 4202 0
-154 -4202 4204 0
-156 -4204 0
-146 4205 0
-4205 4206 0
-187 -4205 4207 0
-4207 4208 0
-193 -4207 0
-187 4206 0
-193 -4206 4208 0
-194 -4208 0
-147 4209 0
-4209 4210 0
-195 -4209 4211 0
-4211 4212 0
-200 -4211 0
-195 4210 0
-200 -4210 4212 0
-202 -4212 0
-147 4213 0
-4213 4214 0
-150 -4213 4215 0
-4215 4216 0
-195 -4215 0
-150 4214 0
-195 -4214 4216 0
-198 -4216 0
-149 4217 0
-4217 4218 0
-155 -4217 4219 0
-4219 4220 0
-158 -4219 0
-155 4218 0
-158 -4218 4220 0
-160 -4220 0
-150 4221 0
-4221 4222 0
-191 -4221 4223 0
-4223 4224 0
-197 -4223 0
-191 4222 0
-197 -4222 4224 0
-198 -4224 0
-151 4225 0
-4225 4226 0
-199 -4225 4227 0
-4227 4228 0
-204 -4227 0
-199 4226 0
-204 -4226 4228 0
-206 -4228 0
-151 4229 0
-4229 4230 0
-154 -4229 4231 0
-4231 4232 0
-199 -4231 0
-154 4230 0
-199 -4230 4232 0
-202 -4232 0
-153 4233 0
-4233 4234 0
-159 -4233 4235 0
-4235 4236 0
-162 -4235 0
-159 4234 0
-162 -4234 4236 0
-164 -4236 0
-154 4237 0
-4237 4238 0
-195 -4237 4239 0
-4239 4240 0
-201 -4239 0
-195 4238 0
-201 -4238 4240 0
-202 -4240 0
-155 4241 0
-4241 4242 0
-203 -4241 4243 0
-4243 4244 0
-208 -4243 0
-203 4242 0
-208 -4242 4244 0
-210 -4244 0
-155 4245 0
-4245 4246 0
-158 -4245 4247 0
-4247 4248 0
-203 -4247 0
-158 4246 0
-203 -4246 4248 0
-206 -4248 0
-157 4249 0
-4249 4250 0
-163 -4249 4251 0
-4251 4252 0
-165 -4251 0
-163 4250 0
-165 -4250 4252 0
-166 -4252 0
-158 4253 0
-4253 4254 0
-199 -4253 4255 0
-4255 4256 0
-205 -4255 0
-199 4254 0
-205 -4254 4256 0
-206 -4256 0
-159 4257 0
-4257 4258 0
-207 -4257 4259 0
-4259 4260 0
-212 -4259 0
-207 4258 0
-212 -4258 4260 0
-214 -4260 0
-159 4261 0
-4261 4262 0
-162 -4261 4263 0
-4263 4264 0
-207 -4263 0
-162 4262 0
-207 -4262 4264 0
-210 -4264 0
-162 4265 0
-4265 4266 0
-203 -4265 4267 0
-4267 4268 0
-209 -4267 0
-203 4266 0
-209 -4266 4268 0
-210 -4268 0
-163 4269 0
-4269 4270 0
-211 -4269 4271 0
-4271 4272 0
-215 -4271 0
-211 4270 0
-215 -4270 4272 0
-216 -4272 0
-163 4273 0
-4273 4274 0
-165 -4273 4275 0
-4275 4276 0
-211 -4275 0
-165 4274 0
-211 -4274 4276 0
-214 -4276 0
-165 4277 0
-4277 4278 0
-207 -4277 4279 0
-4279 4280 0
-213 -4279 0
-207 4278 0
-213 -4278 4280 0
-214 -4280 0
-167 4281 0
-4281 4282 0
-169 -4281 4283 0
-4283 4284 0
-172 -4283 0
-169 4282 0
-172 -4282 4284 0
-174 -4284 0
-168 4285 0
-4285 4286 0
-173 -4285 4287 0
-4287 4288 0
-176 -4287 0
-173 4286 0
-176 -4286 4288 0
-178 -4288 0
-169 4289 0
-4289 4290 0
-218 -4289 4291 0
-4291 4292 0
-222 -4291 0
-218 4290 0
-222 -4290 4292 0
-224 -4292 0
-169 4293 0
-4293 4294 0
-172 -4293 4295 0
-4295 4296 0
-218 -4295 0
-172 4294 0
-218 -4294 4296 0
-220 -4296 0
-171 4297 0
-4297 4298 0
-177 -4297 4299 0
-4299 4300 0
-180 -4299 0
-177 4298 0
-180 -4298 4300 0
-182 -4300 0
-172 4301 0
-4301 4302 0
-217 -4301 4303 0
-4303 4304 0
-219 -4303 0
-217 4302 0
-219 -4302 4304 0
-220 -4304 0
-173 4305 0
-4305 4306 0
-176 -4305 4307 0
-4307 4308 0
-221 -4307 0
-176 4306 0
-221 -4306 4308 0
-224 -4308 0
-173 4309 0
-4309 4310 0
-221 -4309 4311 0
-4311 4312 0
-226 -4311 0
-221 4310 0
-226 -4310 4312 0
-228 -4312 0
-175 4313 0
-4313 4314 0
-181 -4313 4315 0
-4315 4316 0
-184 -4315 0
-181 4314 0
-184 -4314 4316 0
-186 -4316 0
-176 4317 0
-4317 4318 0
-218 -4317 4319 0
-4319 4320 0
-223 -4319 0
-218 4318 0
-223 -4318 4320 0
-224 -4320 0
-177 4321 0
-4321 4322 0
-225 -4321 4323 0
-4323 4324 0
-230 -4323 0
-225 4322 0
-230 -4322 4324 0
-232 -4324 0
-177 4325 0
-4325 4326 0
-180 -4325 4327 0
-4327 4328 0
-225 -4327 0
-180 4326 0
-225 -4326 4328 0
-228 -4328 0
-179 4329 0
-4329 4330 0
-185 -4329 4331 0
-4331 4332 0
-188 -4331 0
-185 4330 0
-188 -4330 4332 0
-190 -4332 0
-180 4333 0
-4333 4334 0
-221 -4333 4335 0
-4335 4336 0
-227 -4335 0
-221 4334 0
-227 -4334 4336 0
-228 -4336 0
-181 4337 0
-4337 4338 0
-229 -4337 4339 0
-4339 4340 0
-234 -4339 0
-229 4338 0
-234 -4338 4340 0
-236 -4340 0
-181 4341 0
-4341 4342 0
-184 -4341 4343 0
-4343 4344 0
-229 -4343 0
-184 4342 0
-229 -4342 4344 0
-232 -4344 0
-183 4345 0
-4345 4346 0
-189 -4345 4347 0
-4347 4348 0
-192 -4347 0
-189 4346 0
-192 -4346 4348 0
-194 -4348 0
-184 4349 0
-4349 4350 0
-225 -4349 4351 0
-4351 4352 0
-231 -4351 0
-225 4350 0
-231 -4350 4352 0
-232 -4352 0
-185 4353 0
-4353 4354 0
-188 -4353 4355 0
-4355 4356 0
-233 -4355 0
-188 4354 0
-233 -4354 4356 0
-236 -4356 0
-185 4357 0
-4357 4358 0
-233 -4357 4359 0
-4359 4360 0
-238 -4359 0
-233 4358 0
-238 -4358 4360 0
-240 -4360 0
-187 4361 0
-4361 4362 0
-193 -4361 4363 0
-4363 4364 0
-196 -4363 0
-193 4362 0
-196 -4362 4364 0
-198 -4364 0
-188 4365 0
-4365 4366 0
-229 -4365 4367 0
-4367 4368 0
-235 -4367 0
-229 4366 0
-235 -4366 4368 0
-236 -4368 0
-189 4369 0
-4369 4370 0
-192 -4369 4371 0
-4371 4372 0
-237 -4371 0
-192 4370 0
-237 -4370 4372 0
-240 -4372 0
-189 4373 0
-4373 4374 0
-237 -4373 4375 0
-4375 4376 0
-242 -4375 0
-237 4374 0
-242 -4374 4376 0
-244 -4376 0
-191 4377 0
-4377 4378 0
-197 -4377 4379 0
-4379 4380 0
-200 -4379 0
-197 4378 0
-200 -4378 4380 0
-202 -4380 0
-192 4381 0
-4381 4382 0
-233 -4381 4383 0
-4383 4384 0
-239 -4383 0
-233 4382 0
-239 -4382 4384 0
-240 -4384 0
-193 4385 0
-4385 4386 0
-196 -4385 4387 0
-4387 4388 0
-241 -4387 0
-196 4386 0
-241 -4386 4388 0
-244 -4388 0
-193 4389 0
-4389 4390 0
-241 -4389 4391 0
-4391 4392 0
-246 -4391 0
-241 4390 0
-246 -4390 4392 0
-248 -4392 0
-195 4393 0
-4393 4394 0
-201 -4393 4395 0
-4395 4396 0
-204 -4395 0
-201 4394 0
-204 -4394 4396 0
-206 -4396 0
-196 4397 0
-4397 4398 0
-237 -4397 4399 0
-4399 4400 0
-243 -4399 0
-237 4398 0
-243 -4398 4400 0
-244 -4400 0
-197 4401 0
-4401 4402 0
-245 -4401 4403 0
-4403 4404 0
-250 -4403 0
-245 4402 0
-250 -4402 4404 0
-252 -4404 0
-197 4405 0
-4405 4406 0
-200 -4405 4407 0
-4407 4408 0
-245 -4407 0
-200 4406 0
-245 -4406 4408 0
-248 -4408 0
-199 4409 0
-4409 4410 0
-205 -4409 4411 0
-4411 4412 0
-208 -4411 0
-205 4410 0
-208 -4410 4412 0
-210 -4412 0
-200 4413 0
-4413 4414 0
-241 -4413 4415 0
-4415 4416 0
-247 -4415 0
-241 4414 0
-247 -4414 4416 0
-248 -4416 0
-201 4417 0
-4417 4418 0
-249 -4417 4419 0
-4419 4420 0
-254 -4419 0
-249 4418 0
-254 -4418 4420 0
-256 -4420 0
-201 4421 0
-4421 4422 0
-204 -4421 4423 0
-4423 4424 0
-249 -4423 0
-204 4422 0
-249 -4422 4424 0
-252 -4424 0
-203 4425 0
-4425 4426 0
-209 -4425 4427 0
-4427 4428 0
-212 -4427 0
-209 4426 0
-212 -4426 4428 0
-214 -4428 0
-204 4429 0
-4429 4430 0
-245 -4429 4431 0
-4431 4432 0
-251 -4431 0
-245 4430 0
-251 -4430 4432 0
-252 -4432 0
-205 4433 0
-4433 4434 0
-253 -4433 4435 0
-4435 4436 0
-258 -4435 0
-253 4434 0
-258 -4434 4436 0
-260 -4436 0
-205 4437 0
-4437 4438 0
-208 -4437 4439 0
-4439 4440 0
-253 -4439 0
-208 4438 0
-253 -4438 4440 0
-256 -4440 0
-207 4441 0
-4441 4442 0
-213 -4441 4443 0
-4443 4444 0
-215 -4443 0
-213 4442 0
-215 -4442 4444 0
-216 -4444 0
-208 4445 0
-4445 4446 0
-249 -4445 4447 0
-4447 4448 0
-255 -4447 0
-249 4446 0
-255 -4446 4448 0
-256 -4448 0
-209 4449 0
-4449 4450 0
-212 -4449 4451 0
-4451 4452 0
-257 -4451 0
-212 4450 0
-257 -4450 4452 0
-260 -4452 0
-209 4453 0
-4453 4454 0
-257 -4453 4455 0
-4455 4456 0
-262 -4455 0
-257 4454 0
-262 -4454 4456 0
-264 -4456 0
-212 4457 0
-4457 4458 0
-253 -4457 4459 0
-4459 4460 0
-259 -4459 0
-253 4458 0
-259 -4458 4460 0
-260 -4460 0
-213 4461 0
-4461 4462 0
-215 -4461 4463 0
-4463 4464 0
-261 -4463 0
-215 4462 0
-261 -4462 4464 0
-264 -4464 0
-213 4465 0
-4465 4466 0
-261 -4465 4467 0
-4467 4468 0
-265 -4467 0
-261 4466 0
-265 -4466 4468 0
-266 -4468 0
-215 4469 0
-4469 4470 0
-257 -4469 4471 0
-4471 4472 0
-263 -4471 0
-257 4470 0
-263 -4470 4472 0
-264 -4472 0
-217 4473 0
-4473 4474 0
-219 -4473 4475 0
-4475 4476 0
-222 -4475 0
-219 4474 0
-222 -4474 4476 0
-224 -4476 0
-218 4477 0
-4477 4478 0
-223 -4477 4479 0
-4479 4480 0
-226 -4479 0
-223 4478 0
-226 -4478 4480 0
-228 -4480 0
-219 4481 0
-4481 4482 0
-268 -4481 4483 0
-4483 4484 0
-272 -4483 0
-268 4482 0
-272 -4482 4484 0
-274 -4484 0
-219 4485 0
-4485 4486 0
-222 -4485 4487 0
-4487 4488 0
-268 -4487 0
-222 4486 0
-268 -4486 4488 0
-270 -4488 0
-221 4489 0
-4489 4490 0
-227 -4489 4491 0
-4491 4492 0
-230 -4491 0
-227 4490 0
-230 -4490 4492 0
-232 -4492 0
-222 4493 0
-4493 4494 0
-267 -4493 4495 0
-4495 4496 0
-269 -4495 0
-267 4494 0
-269 -4494 4496 0
-270 -4496 0
-223 4497 0
-4497 4498 0
-226 -4497 4499 0
-4499 4500 0
-271 -4499 0
-226 4498 0
-271 -4498 4500 0
-274 -4500 0
-223 4501 0
-4501 4502 0
-271 -4501 4503 0
-4503 4504 0
-276 -4503 0
-271 4502 0
-276 -4502 4504 0
-278 -4504 0
-225 4505 0
-4505 4506 0
-231 -4505 4507 0
-4507 4508 0
-234 -4507 0
-231 4506 0
-234 -4506 4508 0
-236 -4508 0
-226 4509 0
-4509 4510 0
-268 -4509 4511 0
-4511 4512 0
-273 -4511 0
-268 4510 0
-273 -4510 4512 0
-274 -4512 0
-227 4513 0
-4513 4514 0
-275 -4513 4515 0
-4515 4516 0
-280 -4515 0
-275 4514 0
-280 -4514 4516 0
-282 -4516 0
-227 4517 0
-4517 4518 0
-230 -4517 4519 0
-4519 4520 0
-275 -4519 0
-230 4518 0
-275 -4518 4520 0
-278 -4520 0
-229 4521 0
-4521 4522 0
-235 -4521 4523 0
-4523 4524 0
-238 -4523 0
-235 4522 0
-238 -4522 4524 0
-240 -4524 0
-230 4525 0
-4525 4526 0
-271 -4525 4527 0
-4527 4528 0
-277 -4527 0
-271 4526 0
-277 -4526 4528 0
-278 -4528 0
-231 4529 0
-4529 4530 0
-279 -4529 4531 0
-4531 4532 0
-284 -4531 0
-279 4530 0
-284 -4530 4532 0
-286 -4532 0
-231 4533 0
-4533 4534 0
-234 -4533 4535 0
-4535 4536 0
-279 -4535 0
-234 4534 0
-279 -4534 4536 0
-282 -4536 0
-233 4537 0
-4537 4538 0
-239 -4537 4539 0
-4539 4540 0
-242 -4539 0
-239 4538 0
-242 -4538 4540 0
-244 -4540 0
-234 4541 0
-4541 4542 0
-275 -4541 4543 0
-4543 4544 0
-281 -4543 0
-275 4542 0
-281 -4542 4544 0
-282 -4544 0
-235 4545 0
-4545 4546 0
-238 -4545 4547 0
-4547 4548 0
-283 -4547 0
-238 4546 0
-283 -4546 4548 0
-286 -4548 0
-235 4549 0
-4549 4550 0
-283 -4549 4551 0
-4551 4552 0
-288 -4551 0
-283 4550 0
-288 -4550 4552 0
-290 -4552 0
-237 4553 0
-4553 4554 0
-243 -4553 4555 0
-4555 4556 0
-246 -4555 0
-243 4554 0
-246 -4554 4556 0
-248 -4556 0
-238 4557 0
-4557 4558 0
-279 -4557 4559 0
-4559 4560 0
-285 -4559 0
-279 4558 0
-285 -4558 4560 0
-286 -4560 0
-239 4561 0
-4561 4562 0
-242 -4561 4563 0
-4563 4564 0
-287 -4563 0
-242 4562 0
-287 -4562 4564 0
-290 -4564 0
-239 4565 0
-4565 4566 0
-287 -4565 4567 0
-4567 4568 0
-292 -4567 0
-287 4566 0
-292 -4566 4568 0
-294 -4568 0
-241 4569 0
-4569 4570 0
-247 -4569 4571 0
-4571 4572 0
-250 -4571 0
-247 4570 0
-250 -4570 4572 0
-252 -4572 0
-242 4573 0
-4573 4574 0
-283 -4573 4575 0
-4575 4576 0
-289 -4575 0
-283 4574 0
-289 -4574 4576 0
-290 -4576 0
-243 4577 0
-4577 4578 0
-291 -4577 4579 0
-4579 4580 0
-296 -4579 0
-291 4578 0
-296 -4578 4580 0
-298 -4580 0
-243 4581 0
-4581 4582 0
-246 -4581 4583 0
-4583 4584 0
-291 -4583 0
-246 4582 0
-291 -4582 4584 0
-294 -4584 0
-245 4585 0
-4585 4586 0
-251 -4585 4587 0
-4587 4588 0
-254 -4587 0
-251 4586 0
-254 -4586 4588 0
-256 -4588 0
-246 4589 0
-4589 4590 0
-287 -4589 4591 0
-4591 4592 0
-293 -4591 0
-287 4590 0
-293 -4590 4592 0
-294 -4592 0
-247 4593 0
-4593 4594 0
-295 -4593 4595 0
-4595 4596 0
-300 -4595 0
-295 4594 0
-300 -4594 4596 0
-302 -4596 0
-247 4597 0
-4597 4598 0
-250 -4597 4599 0
-4599 4600 0
-295 -4599 0
-250 4598 0
-295 -4598 4600 0
-298 -4600 0
-249 4601 0
-4601 4602 0
-255 -4601 4603 0
-4603 4604 0
-258 -4603 0
-255 4602 0
-258 -4602 4604 0
-260 -4604 0
-250 4605 0
-4605 4606 0
-291 -4605 4607 0
-4607 4608 0
-297 -4607 0
-291 4606 0
-297 -4606 4608 0
-298 -4608 0
-251 4609 0
-4609 4610 0
-299 -4609 4611 0
-4611 4612 0
-304 -4611 0
-299 4610 0
-304 -4610 4612 0
-306 -4612 0
-251 4613 0
-4613 4614 0
-254 -4613 4615 0
-4615 4616 0
-299 -4615 0
-254 4614 0
-299 -4614 4616 0
-302 -4616 0
-253 4617 0
-4617 4618 0
-259 -4617 4619 0
-4619 4620 0
-262 -4619 0
-259 4618 0
-262 -4618 4620 0
-264 -4620 0
-254 4621 0
-4621 4622 0
-295 -4621 4623 0
-4623 4624 0
-301 -4623 0
-295 4622 0
-301 -4622 4624 0
-302 -4624 0
-255 4625 0
-4625 4626 0
-303 -4625 4627 0
-4627 4628 0
-308 -4627 0
-303 4626 0
-308 -4626 4628 0
-310 -4628 0
-255 4629 0
-4629 4630 0
-258 -4629 4631 0
-4631 4632 0
-303 -4631 0
-258 4630 0
-303 -4630 4632 0
-306 -4632 0
-257 4633 0
-4633 4634 0
-263 -4633 4635 0
-4635 4636 0
-265 -4635 0
-263 4634 0
-265 -4634 4636 0
-266 -4636 0
-258 4637 0
-4637 4638 0
-299 -4637 4639 0
-4639 4640 0
-305 -4639 0
-299 4638 0
-305 -4638 4640 0
-306 -4640 0
-259 4641 0
-4641 4642 0
-307 -4641 4643 0
-4643 4644 0
-312 -4643 0
-307 4642 0
-312 -4642 4644 0
-314 -4644 0
-259 4645 0
-4645 4646 0
-262 -4645 4647 0
-4647 4648 0
-307 -4647 0
-262 4646 0
-307 -4646 4648 0
-310 -4648 0
-262 4649 0
-4649 4650 0
-303 -4649 4651 0
-4651 4652 0
-309 -4651 0
-303 4650 0
-309 -4650 4652 0
-310 -4652 0
-263 4653 0
-4653 4654 0
-311 -4653 4655 0
-4655 4656 0
-315 -4655 0
-311 4654 0
-315 -4654 4656 0
-316 -4656 0
-263 4657 0
-4657 4658 0
-265 -4657 4659 0
-4659 4660 0
-311 -4659 0
-265 4658 0
-311 -4658 4660 0
-314 -4660 0
-265 4661 0
-4661 4662 0
-307 -4661 4663 0
-4663 4664 0
-313 -4663 0
-307 4662 0
-313 -4662 4664 0
-314 -4664 0
-267 4665 0
-4665 4666 0
-269 -4665 4667 0
-4667 4668 0
-272 -4667 0
-269 4666 0
-272 -4666 4668 0
-274 -4668 0
-268 4669 0
-4669 4670 0
-273 -4669 4671 0
-4671 4672 0
-276 -4671 0
-273 4670 0
-276 -4670 4672 0
-278 -4672 0
-269 4673 0
-4673 4674 0
-318 -4673 4675 0
-4675 4676 0
-322 -4675 0
-318 4674 0
-322 -4674 4676 0
-324 -4676 0
-269 4677 0
-4677 4678 0
-272 -4677 4679 0
-4679 4680 0
-318 -4679 0
-272 4678 0
-318 -4678 4680 0
-320 -4680 0
-271 4681 0
-4681 4682 0
-277 -4681 4683 0
-4683 4684 0
-280 -4683 0
-277 4682 0
-280 -4682 4684 0
-282 -4684 0
-272 4685 0
-4685 4686 0
-317 -4685 4687 0
-4687 4688 0
-319 -4687 0
-317 4686 0
-319 -4686 4688 0
-320 -4688 0
-273 4689 0
-4689 4690 0
-276 -4689 4691 0
-4691 4692 0
-321 -4691 0
-276 4690 0
-321 -4690 4692 0
-324 -4692 0
-273 4693 0
-4693 4694 0
-321 -4693 4695 0
-4695 4696 0
-326 -4695 0
-321 4694 0
-326 -4694 4696 0
-328 -4696 0
-275 4697 0
-4697 4698 0
-281 -4697 4699 0
-4699 4700 0
-284 -4699 0
-281 4698 0
-284 -4698 4700 0
-286 -4700 0
-276 4701 0
-4701 4702 0
-318 -4701 4703 0
-4703 4704 0
-323 -4703 0
-318 4702 0
-323 -4702 4704 0
-324 -4704 0
-277 4705 0
-4705 4706 0
-325 -4705 4707 0
-4707 4708 0
-330 -4707 0
-325 4706 0
-330 -4706 4708 0
-332 -4708 0
-277 4709 0
-4709 4710 0
-280 -4709 4711 0
-4711 4712 0
-325 -4711 0
-280 4710 0
-325 -4710 4712 0
-328 -4712 0
-279 4713 0
-4713 4714 0
-285 -4713 4715 0
-4715 4716 0
-288 -4715 0
-285 4714 0
-288 -4714 4716 0
-290 -4716 0
-280 4717 0
-4717 4718 0
-321 -4717 4719 0
-4719 4720 0
-327 -4719 0
-321 4718 0
-327 -4718 4720 0
-328 -4720 0
-281 4721 0
-4721 4722 0
-329 -4721 4723 0
-4723 4724 0
-334 -4723 0
-329 4722 0
-334 -4722 4724 0
-336 -4724 0
-281 4725 0
-4725 4726 0
-284 -4725 4727 0
-4727 4728 0
-329 -4727 0
-284 4726 0
-329 -4726 4728 0
-332 -4728 0
-283 4729 0
-4729 4730 0
-289 -4729 4731 0
-4731 4732 0
-292 -4731 0
-289 4730 0
-292 -4730 4732 0
-294 -4732 0
-284 4733 0
-4733 4734 0
-325 -4733 4735 0
-4735 4736 0
-331 -4735 0
-325 4734 0
-331 -4734 4736 0
-332 -4736 0
-285 4737 0
-4737 4738 0
-288 -4737 4739 0
-4739 4740 0
-333 -4739 0
-288 4738 0
-333 -4738 4740 0
-336 -4740 0
-285 4741 0
-4741 4742 0
-333 -4741 4743 0
-4743 4744 0
-338 -4743 0
-333 4742 0
-338 -4742 4744 0
-340 -4744 0
-287 4745 0
-4745 4746 0
-293 -4745 4747 0
-4747 4748 0
-296 -4747 0
-293 4746 0
-296 -4746 4748 0
-298 -4748 0
-288 4749 0
-4749 4750 0
-329 -4749 4751 0
-4751 4752 0
-335 -4751 0
-329 4750 0
-335 -4750 4752 0
-336 -4752 0
-289 4753 0
-4753 4754 0
-292 -4753 4755 0
-4755 4756 0
-337 -4755 0
-292 4754 0
-337 -4754 4756 0
-340 -4756 0
-289 4757 0
-4757 4758 0
-337 -4757 4759 0
-4759 4760 0
-342 -4759 0
-337 4758 0
-342 -4758 4760 0
-344 -4760 0
-291 4761 0
-4761 4762 0
-297 -4761 4763 0
-4763 4764 0
-300 -4763 0
-297 4762 0
-300 -4762 4764 0
-302 -4764 0
-292 4765 0
-4765 4766 0
-333 -4765 4767 0
-4767 4768 0
-339 -4767 0
-333 4766 0
-339 -4766 4768 0
-340 -4768 0
-293 4769 0
-4769 4770 0
-341 -4769 4771 0
-4771 4772 0
-346 -4771 0
-341 4770 0
-346 -4770 4772 0
-348 -4772 0
-293 4773 0
-4773 4774 0
-296 -4773 4775 0
-4775 4776 0
-341 -4775 0
-296 4774 0
-341 -4774 4776 0
-344 -4776 0
-295 4777 0
-4777 4778 0
-301 -4777 4779 0
-4779 4780 0
-304 -4779 0
-301 4778 0
-304 -4778 4780 0
-306 -4780 0
-296 4781 0
-4781 4782 0
-337 -4781 4783 0
-4783 4784 0
-343 -4783 0
-337 4782 0
-343 -4782 4784 0
-344 -4784 0
-297 4785 0
-4785 4786 0
-345 -4785 4787 0
-4787 4788 0
-350 -4787 0
-345 4786 0
-350 -4786 4788 0
-352 -4788 0
-297 4789 0
-4789 4790 0
-300 -4789 4791 0
-4791 4792 0
-345 -4791 0
-300 4790 0
-345 -4790 4792 0
-348 -4792 0
-299 4793 0
-4793 4794 0
-305 -4793 4795 0
-4795 4796 0
-308 -4795 0
-305 4794 0
-308 -4794 4796 0
-310 -4796 0
-300 4797 0
-4797 4798 0
-341 -4797 4799 0
-4799 4800 0
-347 -4799 0
-341 4798 0
-347 -4798 4800 0
-348 -4800 0
-301 4801 0
-4801 4802 0
-349 -4801 4803 0
-4803 4804 0
-354 -4803 0
-349 4802 0
-354 -4802 4804 0
-356 -4804 0
-301 4805 0
-4805 4806 0
-304 -4805 4807 0
-4807 4808 0
-349 -4807 0
-304 4806 0
-349 -4806 4808 0
-352 -4808 0
-303 4809 0
-4809 4810 0
-309 -4809 4811 0
-4811 4812 0
-312 -4811 0
-309 4810 0
-312 -4810 4812 0
-314 -4812 0
-304 4813 0
-4813 4814 0
-345 -4813 4815 0
-4815 4816 0
-351 -4815 0
-345 4814 0
-351 -4814 4816 0
-352 -4816 0
-305 4817 0
-4817 4818 0
-353 -4817 4819 0
-4819 4820 0
-358 -4819 0
-353 4818 0
-358 -4818 4820 0
-360 -4820 0
-305 4821 0
-4821 4822 0
-308 -4821 4823 0
-4823 4824 0
-353 -4823 0
-308 4822 0
-353 -4822 4824 0
-356 -4824 0
-307 4825 0
-4825 4826 0
-313 -4825 4827 0
-4827 4828 0
-315 -4827 0
-313 4826 0
-315 -4826 4828 0
-316 -4828 0
-308 4829 0
-4829 4830 0
-349 -4829 4831 0
-4831 4832 0
-355 -4831 0
-349 4830 0
-355 -4830 4832 0
-356 -4832 0
-309 4833 0
-4833 4834 0
-357 -4833 4835 0
-4835 4836 0
-362 -4835 0
-357 4834 0
-362 -4834 4836 0
-364 -4836 0
-309 4837 0
-4837 4838 0
-312 -4837 4839 0
-4839 4840 0
-357 -4839 0
-312 4838 0
-357 -4838 4840 0
-360 -4840 0
-312 4841 0
-4841 4842 0
-353 -4841 4843 0
-4843 4844 0
-359 -4843 0
-353 4842 0
-359 -4842 4844 0
-360 -4844 0
-313 4845 0
-4845 4846 0
-361 -4845 4847 0
-4847 4848 0
-365 -4847 0
-361 4846 0
-365 -4846 4848 0
-366 -4848 0
-313 4849 0
-4849 4850 0
-315 -4849 4851 0
-4851 4852 0
-361 -4851 0
-315 4850 0
-361 -4850 4852 0
-364 -4852 0
-315 4853 0
-4853 4854 0
-357 -4853 4855 0
-4855 4856 0
-363 -4855 0
-357 4854 0
-363 -4854 4856 0
-364 -4856 0
-317 4857 0
-4857 4858 0
-319 -4857 4859 0
-4859 4860 0
-322 -4859 0
-319 4858 0
-322 -4858 4860 0
-324 -4860 0
-318 4861 0
-4861 4862 0
-323 -4861 4863 0
-4863 4864 0
-326 -4863 0
-323 4862 0
-326 -4862 4864 0
-328 -4864 0
-319 4865 0
-4865 4866 0
-322 -4865 4867 0
-4867 4868 0
-368 -4867 0
-322 4866 0
-368 -4866 4868 0
-370 -4868 0
-319 4869 0
-4869 4870 0
-368 -4869 4871 0
-4871 4872 0
-372 -4871 0
-368 4870 0
-372 -4870 4872 0
-374 -4872 0
-321 4873 0
-4873 4874 0
-327 -4873 4875 0
-4875 4876 0
-330 -4875 0
-327 4874 0
-330 -4874 4876 0
-332 -4876 0
-322 4877 0
-4877 4878 0
-367 -4877 4879 0
-4879 4880 0
-369 -4879 0
-367 4878 0
-369 -4878 4880 0
-370 -4880 0
-323 4881 0
-4881 4882 0
-326 -4881 4883 0
-4883 4884 0
-371 -4883 0
-326 4882 0
-371 -4882 4884 0
-374 -4884 0
-323 4885 0
-4885 4886 0
-371 -4885 4887 0
-4887 4888 0
-376 -4887 0
-371 4886 0
-376 -4886 4888 0
-378 -4888 0
-325 4889 0
-4889 4890 0
-331 -4889 4891 0
-4891 4892 0
-334 -4891 0
-331 4890 0
-334 -4890 4892 0
-336 -4892 0
-326 4893 0
-4893 4894 0
-368 -4893 4895 0
-4895 4896 0
-373 -4895 0
-368 4894 0
-373 -4894 4896 0
-374 -4896 0
-327 4897 0
-4897 4898 0
-375 -4897 4899 0
-4899 4900 0
-380 -4899 0
-375 4898 0
-380 -4898 4900 0
-382 -4900 0
-327 4901 0
-4901 4902 0
-330 -4901 4903 0
-4903 4904 0
-375 -4903 0
-330 4902 0
-375 -4902 4904 0
-378 -4904 0
-329 4905 0
-4905 4906 0
-335 -4905 4907 0
-4907 4908 0
-338 -4907 0
-335 4906 0
-338 -4906 4908 0
-340 -4908 0
-330 4909 0
-4909 4910 0
-371 -4909 4911 0
-4911 4912 0
-377 -4911 0
-371 4910 0
-377 -4910 4912 0
-378 -4912 0
-331 4913 0
-4913 4914 0
-379 -4913 4915 0
-4915 4916 0
-384 -4915 0
-379 4914 0
-384 -4914 4916 0
-386 -4916 0
-331 4917 0
-4917 4918 0
-334 -4917 4919 0
-4919 4920 0
-379 -4919 0
-334 4918 0
-379 -4918 4920 0
-382 -4920 0
-333 4921 0
-4921 4922 0
-339 -4921 4923 0
-4923 4924 0
-342 -4923 0
-339 4922 0
-342 -4922 4924 0
-344 -4924 0
-334 4925 0
-4925 4926 0
-375 -4925 4927 0
-4927 4928 0
-381 -4927 0
-375 4926 0
-381 -4926 4928 0
-382 -4928 0
-335 4929 0
-4929 4930 0
-383 -4929 4931 0
-4931 4932 0
-388 -4931 0
-383 4930 0
-388 -4930 4932 0
-390 -4932 0
-335 4933 0
-4933 4934 0
-338 -4933 4935 0
-4935 4936 0
-383 -4935 0
-338 4934 0
-383 -4934 4936 0
-386 -4936 0
-337 4937 0
-4937 4938 0
-343 -4937 4939 0
-4939 4940 0
-346 -4939 0
-343 4938 0
-346 -4938 4940 0
-348 -4940 0
-338 4941 0
-4941 4942 0
-379 -4941 4943 0
-4943 4944 0
-385 -4943 0
-379 4942 0
-385 -4942 4944 0
-386 -4944 0
-339 4945 0
-4945 4946 0
-387 -4945 4947 0
-4947 4948 0
-392 -4947 0
-387 4946 0
-392 -4946 4948 0
-394 -4948 0
-339 4949 0
-4949 4950 0
-342 -4949 4951 0
-4951 4952 0
-387 -4951 0
-342 4950 0
-387 -4950 4952 0
-390 -4952 0
-341 4953 0
-4953 4954 0
-347 -4953 4955 0
-4955 4956 0
-350 -4955 0
-347 4954 0
-350 -4954 4956 0
-352 -4956 0
-342 4957 0
-4957 4958 0
-383 -4957 4959 0
-4959 4960 0
-389 -4959 0
-383 4958 0
-389 -4958 4960 0
-390 -4960 0
-343 4961 0
-4961 4962 0
-391 -4961 4963 0
-4963 4964 0
-396 -4963 0
-391 4962 0
-396 -4962 4964 0
-398 -4964 0
-343 4965 0
-4965 4966 0
-346 -4965 4967 0
-4967 4968 0
-391 -4967 0
-346 4966 0
-391 -4966 4968 0
-394 -4968 0
-345 4969 0
-4969 4970 0
-351 -4969 4971 0
-4971 4972 0
-354 -4971 0
-351 4970 0
-354 -4970 4972 0
-356 -4972 0
-346 4973 0
-4973 4974 0
-387 -4973 4975 0
-4975 4976 0
-393 -4975 0
-387 4974 0
-393 -4974 4976 0
-394 -4976 0
-347 4977 0
-4977 4978 0
-350 -4977 4979 0
-4979 4980 0
-395 -4979 0
-350 4978 0
-395 -4978 4980 0
-398 -4980 0
-347 4981 0
-4981 4982 0
-395 -4981 4983 0
-4983 4984 0
-400 -4983 0
-395 4982 0
-400 -4982 4984 0
-402 -4984 0
-349 4985 0
-4985 4986 0
-355 -4985 4987 0
-4987 4988 0
-358 -4987 0
-355 4986 0
-358 -4986 4988 0
-360 -4988 0
-350 4989 0
-4989 4990 0
-391 -4989 4991 0
-4991 4992 0
-397 -4991 0
-391 4990 0
-397 -4990 4992 0
-398 -4992 0
-351 4993 0
-4993 4994 0
-399 -4993 4995 0
-4995 4996 0
-404 -4995 0
-399 4994 0
-404 -4994 4996 0
-406 -4996 0
-351 4997 0
-4997 4998 0
-354 -4997 4999 0
-4999 5000 0
-399 -4999 0
-354 4998 0
-399 -4998 5000 0
-402 -5000 0
-353 5001 0
-5001 5002 0
-359 -5001 5003 0
-5003 5004 0
-362 -5003 0
-359 5002 0
-362 -5002 5004 0
-364 -5004 0
-354 5005 0
-5005 5006 0
-395 -5005 5007 0
-5007 5008 0
-401 -5007 0
-395 5006 0
-401 -5006 5008 0
-402 -5008 0
-355 5009 0
-5009 5010 0
-403 -5009 5011 0
-5011 5012 0
-408 -5011 0
-403 5010 0
-408 -5010 5012 0
-410 -5012 0
-355 5013 0
-5013 5014 0
-358 -5013 5015 0
-5015 5016 0
-403 -5015 0
-358 5014 0
-403 -5014 5016 0
-406 -5016 0
-357 5017 0
-5017 5018 0
-363 -5017 5019 0
-5019 5020 0
-365 -5019 0
-363 5018 0
-365 -5018 5020 0
-366 -5020 0
-358 5021 0
-5021 5022 0
-399 -5021 5023 0
-5023 5024 0
-405 -5023 0
-399 5022 0
-405 -5022 5024 0
-406 -5024 0
-359 5025 0
-5025 5026 0
-362 -5025 5027 0
-5027 5028 0
-407 -5027 0
-362 5026 0
-407 -5026 5028 0
-410 -5028 0
-359 5029 0
-5029 5030 0
-407 -5029 5031 0
-5031 5032 0
-412 -5031 0
-407 5030 0
-412 -5030 5032 0
-414 -5032 0
-362 5033 0
-5033 5034 0
-403 -5033 5035 0
-5035 5036 0
-409 -5035 0
-403 5034 0
-409 -5034 5036 0
-410 -5036 0
-363 5037 0
-5037 5038 0
-411 -5037 5039 0
-5039 5040 0
-415 -5039 0
-411 5038 0
-415 -5038 5040 0
-416 -5040 0
-363 5041 0
-5041 5042 0
-365 -5041 5043 0
-5043 5044 0
-411 -5043 0
-365 5042 0
-411 -5042 5044 0
-414 -5044 0
-365 5045 0
-5045 5046 0
-407 -5045 5047 0
-5047 5048 0
-413 -5047 0
-407 5046 0
-413 -5046 5048 0
-414 -5048 0
-367 5049 0
-5049 5050 0
-369 -5049 5051 0
-5051 5052 0
-372 -5051 0
-369 5050 0
-372 -5050 5052 0
-374 -5052 0
-368 5053 0
-5053 5054 0
-373 -5053 5055 0
-5055 5056 0
-376 -5055 0
-373 5054 0
-376 -5054 5056 0
-378 -5056 0
-369 5057 0
-5057 5058 0
-372 -5057 5059 0
-5059 5060 0
-418 -5059 0
-372 5058 0
-418 -5058 5060 0
-420 -5060 0
-369 5061 0
-5061 5062 0
-418 -5061 5063 0
-5063 5064 0
-422 -5063 0
-418 5062 0
-422 -5062 5064 0
-424 -5064 0
-371 5065 0
-5065 5066 0
-377 -5065 5067 0
-5067 5068 0
-380 -5067 0
-377 5066 0
-380 -5066 5068 0
-382 -5068 0
-372 5069 0
-5069 5070 0
-417 -5069 5071 0
-5071 5072 0
-419 -5071 0
-417 5070 0
-419 -5070 5072 0
-420 -5072 0
-373 5073 0
-5073 5074 0
-421 -5073 5075 0
-5075 5076 0
-426 -5075 0
-421 5074 0
-426 -5074 5076 0
-428 -5076 0
-373 5077 0
-5077 5078 0
-376 -5077 5079 0
-5079 5080 0
-421 -5079 0
-376 5078 0
-421 -5078 5080 0
-424 -5080 0
-375 5081 0
-5081 5082 0
-381 -5081 5083 0
-5083 5084 0
-384 -5083 0
-381 5082 0
-384 -5082 5084 0
-386 -5084 0
-376 5085 0
-5085 5086 0
-418 -5085 5087 0
-5087 5088 0
-423 -5087 0
-418 5086 0
-423 -5086 5088 0
-424 -5088 0
-377 5089 0
-5089 5090 0
-425 -5089 5091 0
-5091 5092 0
-430 -5091 0
-425 5090 0
-430 -5090 5092 0
-432 -5092 0
-377 5093 0
-5093 5094 0
-380 -5093 5095 0
-5095 5096 0
-425 -5095 0
-380 5094 0
-425 -5094 5096 0
-428 -5096 0
-379 5097 0
-5097 5098 0
-385 -5097 5099 0
-5099 5100 0
-388 -5099 0
-385 5098 0
-388 -5098 5100 0
-390 -5100 0
-380 5101 0
-5101 5102 0
-421 -5101 5103 0
-5103 5104 0
-427 -5103 0
-421 5102 0
-427 -5102 5104 0
-428 -5104 0
-381 5105 0
-5105 5106 0
-384 -5105 5107 0
-5107 5108 0
-429 -5107 0
-384 5106 0
-429 -5106 5108 0
-432 -5108 0
-381 5109 0
-5109 5110 0
-429 -5109 5111 0
-5111 5112 0
-434 -5111 0
-429 5110 0
-434 -5110 5112 0
-436 -5112 0
-383 5113 0
-5113 5114 0
-389 -5113 5115 0
-5115 5116 0
-392 -5115 0
-389 5114 0
-392 -5114 5116 0
-394 -5116 0
-384 5117 0
-5117 5118 0
-425 -5117 5119 0
-5119 5120 0
-431 -5119 0
-425 5118 0
-431 -5118 5120 0
-432 -5120 0
-385 5121 0
-5121 5122 0
-388 -5121 5123 0
-5123 5124 0
-433 -5123 0
-388 5122 0
-433 -5122 5124 0
-436 -5124 0
-385 5125 0
-5125 5126 0
-433 -5125 5127 0
-5127 5128 0
-438 -5127 0
-433 5126 0
-438 -5126 5128 0
-440 -5128 0
-387 5129 0
-5129 5130 0
-393 -5129 5131 0
-5131 5132 0
-396 -5131 0
-393 5130 0
-396 -5130 5132 0
-398 -5132 0
-388 5133 0
-5133 5134 0
-429 -5133 5135 0
-5135 5136 0
-435 -5135 0
-429 5134 0
-435 -5134 5136 0
-436 -5136 0
-389 5137 0
-5137 5138 0
-392 -5137 5139 0
-5139 5140 0
-437 -5139 0
-392 5138 0
-437 -5138 5140 0
-440 -5140 0
-389 5141 0
-5141 5142 0
-437 -5141 5143 0
-5143 5144 0
-442 -5143 0
-437 5142 0
-442 -5142 5144 0
-444 -5144 0
-391 5145 0
-5145 5146 0
-397 -5145 5147 0
-5147 5148 0
-400 -5147 0
-397 5146 0
-400 -5146 5148 0
-402 -5148 0
-392 5149 0
-5149 5150 0
-433 -5149 5151 0
-5151 5152 0
-439 -5151 0
-433 5150 0
-439 -5150 5152 0
-440 -5152 0
-393 5153 0
-5153 5154 0
-441 -5153 5155 0
-5155 5156 0
-446 -5155 0
-441 5154 0
-446 -5154 5156 0
-448 -5156 0
-393 5157 0
-5157 5158 0
-396 -5157 5159 0
-5159 5160 0
-441 -5159 0
-396 5158 0
-441 -5158 5160 0
-444 -5160 0
-395 5161 0
-5161 5162 0
-401 -5161 5163 0
-5163 5164 0
-404 -5163 0
-401 5162 0
-404 -5162 5164 0
-406 -5164 0
-396 5165 0
-5165 5166 0
-437 -5165 5167 0
-5167 5168 0
-443 -5167 0
-437 5166 0
-443 -5166 5168 0
-444 -5168 0
-397 5169 0
-5169 5170 0
-445 -5169 5171 0
-5171 5172 0
-450 -5171 0
-445 5170 0
-450 -5170 5172 0
-452 -5172 0
-397 5173 0
-5173 5174 0
-400 -5173 5175 0
-5175 5176 0
-445 -5175 0
-400 5174 0
-445 -5174 5176 0
-448 -5176 0
-399 5177 0
-5177 5178 0
-405 -5177 5179 0
-5179 5180 0
-408 -5179 0
-405 5178 0
-408 -5178 5180 0
-410 -5180 0
-400 5181 0
-5181 5182 0
-441 -5181 5183 0
-5183 5184 0
-447 -5183 0
-441 5182 0
-447 -5182 5184 0
-448 -5184 0
-401 5185 0
-5185 5186 0
-449 -5185 5187 0
-5187 5188 0
-454 -5187 0
-449 5186 0
-454 -5186 5188 0
-456 -5188 0
-401 5189 0
-5189 5190 0
-404 -5189 5191 0
-5191 5192 0
-449 -5191 0
-404 5190 0
-449 -5190 5192 0
-452 -5192 0
-403 5193 0
-5193 5194 0
-409 -5193 5195 0
-5195 5196 0
-412 -5195 0
-409 5194 0
-412 -5194 5196 0
-414 -5196 0
-404 5197 0
-5197 5198 0
-445 -5197 5199 0
-5199 5200 0
-451 -5199 0
-445 5198 0
-451 -5198 5200 0
-452 -5200 0
-405 5201 0
-5201 5202 0
-453 -5201 5203 0
-5203 5204 0
-458 -5203 0
-453 5202 0
-458 -5202 5204 0
-460 -5204 0
-405 5205 0
-5205 5206 0
-408 -5205 5207 0
-5207 5208 0
-453 -5207 0
-408 5206 0
-453 -5206 5208 0
-456 -5208 0
-407 5209 0
-5209 5210 0
-413 -5209 5211 0
-5211 5212 0
-415 -5211 0
-413 5210 0
-415 -5210 5212 0
-416 -5212 0
-408 5213 0
-5213 5214 0
-449 -5213 5215 0
-5215 5216 0
-455 -5215 0
-449 5214 0
-455 -5214 5216 0
-456 -5216 0
-409 5217 0
-5217 5218 0
-457 -5217 5219 0
-5219 5220 0
-462 -5219 0
-457 5218 0
-462 -5218 5220 0
-464 -5220 0
-409 5221 0
-5221 5222 0
-412 -5221 5223 0
-5223 5224 0
-457 -5223 0
-412 5222 0
-457 -5222 5224 0
-460 -5224 0
-412 5225 0
-5225 5226 0
-453 -5225 5227 0
-5227 5228 0
-459 -5227 0
-453 5226 0
-459 -5226 5228 0
-460 -5228 0
-413 5229 0
-5229 5230 0
-415 -5229 5231 0
-5231 5232 0
-461 -5231 0
-415 5230 0
-461 -5230 5232 0
-464 -5232 0
-413 5233 0
-5233 5234 0
-461 -5233 5235 0
-5235 5236 0
-465 -5235 0
-461 5234 0
-465 -5234 5236 0
-466 -5236 0
-415 5237 0
-5237 5238 0
-457 -5237 5239 0
-5239 5240 0
-463 -5239 0
-457 5238 0
-463 -5238 5240 0
-464 -5240 0
-417 5241 0
-5241 5242 0
-419 -5241 5243 0
-5243 5244 0
-422 -5243 0
-419 5242 0
-422 -5242 5244 0
-424 -5244 0
-418 5245 0
-5245 5246 0
-423 -5245 5247 0
-5247 5248 0
-426 -5247 0
-423 5246 0
-426 -5246 5248 0
-428 -5248 0
-419 5249 0
-5249 5250 0
-468 -5249 5251 0
-5251 5252 0
-472 -5251 0
-468 5250 0
-472 -5250 5252 0
-474 -5252 0
-419 5253 0
-5253 5254 0
-422 -5253 5255 0
-5255 5256 0
-468 -5255 0
-422 5254 0
-468 -5254 5256 0
-470 -5256 0
-421 5257 0
-5257 5258 0
-427 -5257 5259 0
-5259 5260 0
-430 -5259 0
-427 5258 0
-430 -5258 5260 0
-432 -5260 0
-422 5261 0
-5261 5262 0
-467 -5261 5263 0
-5263 5264 0
-469 -5263 0
-467 5262 0
-469 -5262 5264 0
-470 -5264 0
-423 5265 0
-5265 5266 0
-471 -5265 5267 0
-5267 5268 0
-476 -5267 0
-471 5266 0
-476 -5266 5268 0
-478 -5268 0
-423 5269 0
-5269 5270 0
-426 -5269 5271 0
-5271 5272 0
-471 -5271 0
-426 5270 0
-471 -5270 5272 0
-474 -5272 0
-425 5273 0
-5273 5274 0
-431 -5273 5275 0
-5275 5276 0
-434 -5275 0
-431 5274 0
-434 -5274 5276 0
-436 -5276 0
-426 5277 0
-5277 5278 0
-468 -5277 5279 0
-5279 5280 0
-473 -5279 0
-468 5278 0
-473 -5278 5280 0
-474 -5280 0
-427 5281 0
-5281 5282 0
-430 -5281 5283 0
-5283 5284 0
-475 -5283 0
-430 5282 0
-475 -5282 5284 0
-478 -5284 0
-427 5285 0
-5285 5286 0
-475 -5285 5287 0
-5287 5288 0
-480 -5287 0
-475 5286 0
-480 -5286 5288 0
-482 -5288 0
-429 5289 0
-5289 5290 0
-435 -5289 5291 0
-5291 5292 0
-438 -5291 0
-435 5290 0
-438 -5290 5292 0
-440 -5292 0
-430 5293 0
-5293 5294 0
-471 -5293 5295 0
-5295 5296 0
-477 -5295 0
-471 5294 0
-477 -5294 5296 0
-478 -5296 0
-431 5297 0
-5297 5298 0
-479 -5297 5299 0
-5299 5300 0
-484 -5299 0
-479 5298 0
-484 -5298 5300 0
-486 -5300 0
-431 5301 0
-5301 5302 0
-434 -5301 5303 0
-5303 5304 0
-479 -5303 0
-434 5302 0
-479 -5302 5304 0
-482 -5304 0
-433 5305 0
-5305 5306 0
-439 -5305 5307 0
-5307 5308 0
-442 -5307 0
-439 5306 0
-442 -5306 5308 0
-444 -5308 0
-434 5309 0
-5309 5310 0
-475 -5309 5311 0
-5311 5312 0
-481 -5311 0
-475 5310 0
-481 -5310 5312 0
-482 -5312 0
-435 5313 0
-5313 5314 0
-483 -5313 5315 0
-5315 5316 0
-488 -5315 0
-483 5314 0
-488 -5314 5316 0
-490 -5316 0
-435 5317 0
-5317 5318 0
-438 -5317 5319 0
-5319 5320 0
-483 -5319 0
-438 5318 0
-483 -5318 5320 0
-486 -5320 0
-437 5321 0
-5321 5322 0
-443 -5321 5323 0
-5323 5324 0
-446 -5323 0
-443 5322 0
-446 -5322 5324 0
-448 -5324 0
-438 5325 0
-5325 5326 0
-479 -5325 5327 0
-5327 5328 0
-485 -5327 0
-479 5326 0
-485 -5326 5328 0
-486 -5328 0
-439 5329 0
-5329 5330 0
-487 -5329 5331 0
-5331 5332 0
-492 -5331 0
-487 5330 0
-492 -5330 5332 0
-494 -5332 0
-439 5333 0
-5333 5334 0
-442 -5333 5335 0
-5335 5336 0
-487 -5335 0
-442 5334 0
-487 -5334 5336 0
-490 -5336 0
-441 5337 0
-5337 5338 0
-447 -5337 5339 0
-5339 5340 0
-450 -5339 0
-447 5338 0
-450 -5338 5340 0
-452 -5340 0
-442 5341 0
-5341 5342 0
-483 -5341 5343 0
-5343 5344 0
-489 -5343 0
-483 5342 0
-489 -5342 5344 0
-490 -5344 0
-443 5345 0
-5345 5346 0
-491 -5345 5347 0
-5347 5348 0
-496 -5347 0
-491 5346 0
-496 -5346 5348 0
-498 -5348 0
-443 5349 0
-5349 5350 0
-446 -5349 5351 0
-5351 5352 0
-491 -5351 0
-446 5350 0
-491 -5350 5352 0
-494 -5352 0
-445 5353 0
-5353 5354 0
-451 -5353 5355 0
-5355 5356 0
-454 -5355 0
-451 5354 0
-454 -5354 5356 0
-456 -5356 0
-446 5357 0
-5357 5358 0
-487 -5357 5359 0
-5359 5360 0
-493 -5359 0
-487 5358 0
-493 -5358 5360 0
-494 -5360 0
-447 5361 0
-5361 5362 0
-450 -5361 5363 0
-5363 5364 0
-495 -5363 0
-450 5362 0
-495 -5362 5364 0
-498 -5364 0
-447 5365 0
-5365 5366 0
-495 -5365 5367 0
-5367 5368 0
-500 -5367 0
-495 5366 0
-500 -5366 5368 0
-502 -5368 0
-449 5369 0
-5369 5370 0
-455 -5369 5371 0
-5371 5372 0
-458 -5371 0
-455 5370 0
-458 -5370 5372 0
-460 -5372 0
-450 5373 0
-5373 5374 0
-491 -5373 5375 0
-5375 5376 0
-497 -5375 0
-491 5374 0
-497 -5374 5376 0
-498 -5376 0
-451 5377 0
-5377 5378 0
-499 -5377 5379 0
-5379 5380 0
-504 -5379 0
-499 5378 0
-504 -5378 5380 0
-506 -5380 0
-451 5381 0
-5381 5382 0
-454 -5381 5383 0
-5383 5384 0
-499 -5383 0
-454 5382 0
-499 -5382 5384 0
-502 -5384 0
-453 5385 0
-5385 5386 0
-459 -5385 5387 0
-5387 5388 0
-462 -5387 0
-459 5386 0
-462 -5386 5388 0
-464 -5388 0
-454 5389 0
-5389 5390 0
-495 -5389 5391 0
-5391 5392 0
-501 -5391 0
-495 5390 0
-501 -5390 5392 0
-502 -5392 0
-455 5393 0
-5393 5394 0
-503 -5393 5395 0
-5395 5396 0
-508 -5395 0
-503 5394 0
-508 -5394 5396 0
-510 -5396 0
-455 5397 0
-5397 5398 0
-458 -5397 5399 0
-5399 5400 0
-503 -5399 0
-458 5398 0
-503 -5398 5400 0
-506 -5400 0
-457 5401 0
-5401 5402 0
-463 -5401 5403 0
-5403 5404 0
-465 -5403 0
-463 5402 0
-465 -5402 5404 0
-466 -5404 0
-458 5405 0
-5405 5406 0
-499 -5405 5407 0
-5407 5408 0
-505 -5407 0
-499 5406 0
-505 -5406 5408 0
-506 -5408 0
-459 5409 0
-5409 5410 0
-462 -5409 5411 0
-5411 5412 0
-507 -5411 0
-462 5410 0
-507 -5410 5412 0
-510 -5412 0
-459 5413 0
-5413 5414 0
-507 -5413 5415 0
-5415 5416 0
-512 -5415 0
-507 5414 0
-512 -5414 5416 0
-514 -5416 0
-462 5417 0
-5417 5418 0
-503 -5417 5419 0
-5419 5420 0
-509 -5419 0
-503 5418 0
-509 -5418 5420 0
-510 -5420 0
-463 5421 0
-5421 5422 0
-511 -5421 5423 0
-5423 5424 0
-515 -5423 0
-511 5422 0
-515 -5422 5424 0
-516 -5424 0
-463 5425 0
-5425 5426 0
-465 -5425 5427 0
-5427 5428 0
-511 -5427 0
-465 5426 0
-511 -5426 5428 0
-514 -5428 0
-465 5429 0
-5429 5430 0
-507 -5429 5431 0
-5431 5432 0
-513 -5431 0
-507 5430 0
-513 -5430 5432 0
-514 -5432 0
-467 5433 0
-5433 5434 0
-469 -5433 5435 0
-5435 5436 0
-472 -5435 0
-469 5434 0
-472 -5434 5436 0
-474 -5436 0
-468 5437 0
-5437 5438 0
-473 -5437 5439 0
-5439 5440 0
-476 -5439 0
-473 5438 0
-476 -5438 5440 0
-478 -5440 0
-469 5441 0
-5441 5442 0
-472 -5441 5443 0
-5443 5444 0
-518 -5443 0
-472 5442 0
-518 -5442 5444 0
-519 -5444 0
-469 5445 0
-5445 5446 0
-518 -5445 5447 0
-5447 5448 0
-521 -5447 0
-518 5446 0
-521 -5446 5448 0
-523 -5448 0
-471 5449 0
-5449 5450 0
-477 -5449 5451 0
-5451 5452 0
-480 -5451 0
-477 5450 0
-480 -5450 5452 0
-482 -5452 0
-472 -517 -519 0
-473 5453 0
-5453 5454 0
-476 -5453 5455 0
-5455 5456 0
-520 -5455 0
-476 5454 0
-520 -5454 5456 0
-523 -5456 0
-473 5457 0
-5457 5458 0
-520 -5457 5459 0
-5459 5460 0
-525 -5459 0
-520 5458 0
-525 -5458 5460 0
-527 -5460 0
-475 5461 0
-5461 5462 0
-481 -5461 5463 0
-5463 5464 0
-484 -5463 0
-481 5462 0
-484 -5462 5464 0
-486 -5464 0
-476 5465 0
-5465 5466 0
-518 -5465 5467 0
-5467 5468 0
-522 -5467 0
-518 5466 0
-522 -5466 5468 0
-523 -5468 0
-477 5469 0
-5469 5470 0
-524 -5469 5471 0
-5471 5472 0
-529 -5471 0
-524 5470 0
-529 -5470 5472 0
-531 -5472 0
-477 5473 0
-5473 5474 0
-480 -5473 5475 0
-5475 5476 0
-524 -5475 0
-480 5474 0
-524 -5474 5476 0
-527 -5476 0
-479 5477 0
-5477 5478 0
-485 -5477 5479 0
-5479 5480 0
-488 -5479 0
-485 5478 0
-488 -5478 5480 0
-490 -5480 0
-480 5481 0
-5481 5482 0
-520 -5481 5483 0
-5483 5484 0
-526 -5483 0
-520 5482 0
-526 -5482 5484 0
-527 -5484 0
-481 5485 0
-5485 5486 0
-528 -5485 5487 0
-5487 5488 0
-533 -5487 0
-528 5486 0
-533 -5486 5488 0
-535 -5488 0
-481 5489 0
-5489 5490 0
-484 -5489 5491 0
-5491 5492 0
-528 -5491 0
-484 5490 0
-528 -5490 5492 0
-531 -5492 0
-483 5493 0
-5493 5494 0
-489 -5493 5495 0
-5495 5496 0
-492 -5495 0
-489 5494 0
-492 -5494 5496 0
-494 -5496 0
-484 5497 0
-5497 5498 0
-524 -5497 5499 0
-5499 5500 0
-530 -5499 0
-524 5498 0
-530 -5498 5500 0
-531 -5500 0
-485 5501 0
-5501 5502 0
-488 -5501 5503 0
-5503 5504 0
-532 -5503 0
-488 5502 0
-532 -5502 5504 0
-535 -5504 0
-485 5505 0
-5505 5506 0
-532 -5505 5507 0
-5507 5508 0
-537 -5507 0
-532 5506 0
-537 -5506 5508 0
-539 -5508 0
-487 5509 0
-5509 5510 0
-493 -5509 5511 0
-5511 5512 0
-496 -5511 0
-493 5510 0
-496 -5510 5512 0
-498 -5512 0
-488 5513 0
-5513 5514 0
-528 -5513 5515 0
-5515 5516 0
-534 -5515 0
-528 5514 0
-534 -5514 5516 0
-535 -5516 0
-489 5517 0
-5517 5518 0
-492 -5517 5519 0
-5519 5520 0
-536 -5519 0
-492 5518 0
-536 -5518 5520 0
-539 -5520 0
-489 5521 0
-5521 5522 0
-536 -5521 5523 0
-5523 5524 0
-541 -5523 0
-536 5522 0
-541 -5522 5524 0
-543 -5524 0
-491 5525 0
-5525 5526 0
-497 -5525 5527 0
-5527 5528 0
-500 -5527 0
-497 5526 0
-500 -5526 5528 0
-502 -5528 0
-492 5529 0
-5529 5530 0
-532 -5529 5531 0
-5531 5532 0
-538 -5531 0
-532 5530 0
-538 -5530 5532 0
-539 -5532 0
-493 5533 0
-5533 5534 0
-540 -5533 5535 0
-5535 5536 0
-545 -5535 0
-540 5534 0
-545 -5534 5536 0
-547 -5536 0
-493 5537 0
-5537 5538 0
-496 -5537 5539 0
-5539 5540 0
-540 -5539 0
-496 5538 0
-540 -5538 5540 0
-543 -5540 0
-495 5541 0
-5541 5542 0
-501 -5541 5543 0
-5543 5544 0
-504 -5543 0
-501 5542 0
-504 -5542 5544 0
-506 -5544 0
-496 5545 0
-5545 5546 0
-536 -5545 5547 0
-5547 5548 0
-542 -5547 0
-536 5546 0
-542 -5546 5548 0
-543 -5548 0
-497 5549 0
-5549 5550 0
-544 -5549 5551 0
-5551 5552 0
-549 -5551 0
-544 5550 0
-549 -5550 5552 0
-551 -5552 0
-497 5553 0
-5553 5554 0
-500 -5553 5555 0
-5555 5556 0
-544 -5555 0
-500 5554 0
-544 -5554 5556 0
-547 -5556 0
-499 5557 0
-5557 5558 0
-505 -5557 5559 0
-5559 5560 0
-508 -5559 0
-505 5558 0
-508 -5558 5560 0
-510 -5560 0
-500 5561 0
-5561 5562 0
-540 -5561 5563 0
-5563 5564 0
-546 -5563 0
-540 5562 0
-546 -5562 5564 0
-547 -5564 0
-501 5565 0
-5565 5566 0
-504 -5565 5567 0
-5567 5568 0
-548 -5567 0
-504 5566 0
-548 -5566 5568 0
-551 -5568 0
-501 5569 0
-5569 5570 0
-548 -5569 5571 0
-5571 5572 0
-553 -5571 0
-548 5570 0
-553 -5570 5572 0
-555 -5572 0
-503 5573 0
-5573 5574 0
-509 -5573 5575 0
-5575 5576 0
-512 -5575 0
-509 5574 0
-512 -5574 5576 0
-514 -5576 0
-504 5577 0
-5577 5578 0
-544 -5577 5579 0
-5579 5580 0
-550 -5579 0
-544 5578 0
-550 -5578 5580 0
-551 -5580 0
-505 5581 0
-5581 5582 0
-508 -5581 5583 0
-5583 5584 0
-552 -5583 0
-508 5582 0
-552 -5582 5584 0
-555 -5584 0
-505 5585 0
-5585 5586 0
-552 -5585 5587 0
-5587 5588 0
-557 -5587 0
-552 5586 0
-557 -5586 5588 0
-559 -5588 0
-507 5589 0
-5589 5590 0
-513 -5589 5591 0
-5591 5592 0
-515 -5591 0
-513 5590 0
-515 -5590 5592 0
-516 -5592 0
-508 5593 0
-5593 5594 0
-548 -5593 5595 0
-5595 5596 0
-554 -5595 0
-548 5594 0
-554 -5594 5596 0
-555 -5596 0
-509 5597 0
-5597 5598 0
-512 -5597 5599 0
-5599 5600 0
-556 -5599 0
-512 5598 0
-556 -5598 5600 0
-559 -5600 0
-509 5601 0
-5601 5602 0
-556 -5601 5603 0
-5603 5604 0
-561 -5603 0
-556 5602 0
-561 -5602 5604 0
-563 -5604 0
-512 5605 0
-5605 5606 0
-552 -5605 5607 0
-5607 5608 0
-558 -5607 0
-552 5606 0
-558 -5606 5608 0
-559 -5608 0
-513 5609 0
-5609 5610 0
-515 -5609 5611 0
-5611 5612 0
-560 -5611 0
-515 5610 0
-560 -5610 5612 0
-563 -5612 0
-513 -560 -564 0
-515 5613 0
-5613 5614 0
-556 -5613 5615 0
-5615 5616 0
-562 -5615 0
-556 5614 0
-562 -5614 5616 0
-563 -5616 0
-517 -521 -523 0
-518 5617 0
-5617 5618 0
-522 -5617 5619 0
-5619 5620 0
-525 -5619 0
-522 5618 0
-525 -5618 5620 0
-527 -5620 0
-520 5621 0
-5621 5622 0
-526 -5621 5623 0
-5623 5624 0
-529 -5623 0
-526 5622 0
-529 -5622 5624 0
-531 -5624 0
-522 5625 0
-5625 5626 0
-525 -5625 5627 0
-5627 5628 0
-566 -5627 0
-525 5626 0
-566 -5626 5628 0
-569 -5628 0
-522 5629 0
-5629 5630 0
-566 -5629 5631 0
-5631 5632 0
-571 -5631 0
-566 5630 0
-571 -5630 5632 0
-573 -5632 0
-524 5633 0
-5633 5634 0
-530 -5633 5635 0
-5635 5636 0
-533 -5635 0
-530 5634 0
-533 -5634 5636 0
-535 -5636 0
-525 -568 -569 0
-526 5637 0
-5637 5638 0
-529 -5637 5639 0
-5639 5640 0
-570 -5639 0
-529 5638 0
-570 -5638 5640 0
-573 -5640 0
-526 5641 0
-5641 5642 0
-570 -5641 5643 0
-5643 5644 0
-575 -5643 0
-570 5642 0
-575 -5642 5644 0
-577 -5644 0
-528 5645 0
-5645 5646 0
-534 -5645 5647 0
-5647 5648 0
-537 -5647 0
-534 5646 0
-537 -5646 5648 0
-539 -5648 0
-529 5649 0
-5649 5650 0
-566 -5649 5651 0
-5651 5652 0
-572 -5651 0
-566 5650 0
-572 -5650 5652 0
-573 -5652 0
-530 5653 0
-5653 5654 0
-574 -5653 5655 0
-5655 5656 0
-579 -5655 0
-574 5654 0
-579 -5654 5656 0
-581 -5656 0
-530 5657 0
-5657 5658 0
-533 -5657 5659 0
-5659 5660 0
-574 -5659 0
-533 5658 0
-574 -5658 5660 0
-577 -5660 0
-532 5661 0
-5661 5662 0
-538 -5661 5663 0
-5663 5664 0
-541 -5663 0
-538 5662 0
-541 -5662 5664 0
-543 -5664 0
-533 5665 0
-5665 5666 0
-570 -5665 5667 0
-5667 5668 0
-576 -5667 0
-570 5666 0
-576 -5666 5668 0
-577 -5668 0
-534 5669 0
-5669 5670 0
-578 -5669 5671 0
-5671 5672 0
-583 -5671 0
-578 5670 0
-583 -5670 5672 0
-585 -5672 0
-534 5673 0
-5673 5674 0
-537 -5673 5675 0
-5675 5676 0
-578 -5675 0
-537 5674 0
-578 -5674 5676 0
-581 -5676 0
-536 5677 0
-5677 5678 0
-542 -5677 5679 0
-5679 5680 0
-545 -5679 0
-542 5678 0
-545 -5678 5680 0
-547 -5680 0
-537 5681 0
-5681 5682 0
-574 -5681 5683 0
-5683 5684 0
-580 -5683 0
-574 5682 0
-580 -5682 5684 0
-581 -5684 0
-538 5685 0
-5685 5686 0
-582 -5685 5687 0
-5687 5688 0
-587 -5687 0
-582 5686 0
-587 -5686 5688 0
-589 -5688 0
-538 5689 0
-5689 5690 0
-541 -5689 5691 0
-5691 5692 0
-582 -5691 0
-541 5690 0
-582 -5690 5692 0
-585 -5692 0
-540 5693 0
-5693 5694 0
-546 -5693 5695 0
-5695 5696 0
-549 -5695 0
-546 5694 0
-549 -5694 5696 0
-551 -5696 0
-541 5697 0
-5697 5698 0
-578 -5697 5699 0
-5699 5700 0
-584 -5699 0
-578 5698 0
-584 -5698 5700 0
-585 -5700 0
-542 5701 0
-5701 5702 0
-545 -5701 5703 0
-5703 5704 0
-586 -5703 0
-545 5702 0
-586 -5702 5704 0
-589 -5704 0
-542 5705 0
-5705 5706 0
-586 -5705 5707 0
-5707 5708 0
-591 -5707 0
-586 5706 0
-591 -5706 5708 0
-593 -5708 0
-544 5709 0
-5709 5710 0
-550 -5709 5711 0
-5711 5712 0
-553 -5711 0
-550 5710 0
-553 -5710 5712 0
-555 -5712 0
-545 5713 0
-5713 5714 0
-582 -5713 5715 0
-5715 5716 0
-588 -5715 0
-582 5714 0
-588 -5714 5716 0
-589 -5716 0
-546 5717 0
-5717 5718 0
-590 -5717 5719 0
-5719 5720 0
-595 -5719 0
-590 5718 0
-595 -5718 5720 0
-597 -5720 0
-546 5721 0
-5721 5722 0
-549 -5721 5723 0
-5723 5724 0
-590 -5723 0
-549 5722 0
-590 -5722 5724 0
-593 -5724 0
-548 5725 0
-5725 5726 0
-554 -5725 5727 0
-5727 5728 0
-557 -5727 0
-554 5726 0
-557 -5726 5728 0
-559 -5728 0
-549 5729 0
-5729 5730 0
-586 -5729 5731 0
-5731 5732 0
-592 -5731 0
-586 5730 0
-592 -5730 5732 0
-593 -5732 0
-550 5733 0
-5733 5734 0
-553 -5733 5735 0
-5735 5736 0
-594 -5735 0
-553 5734 0
-594 -5734 5736 0
-597 -5736 0
-550 5737 0
-5737 5738 0
-594 -5737 5739 0
-5739 5740 0
-599 -5739 0
-594 5738 0
-599 -5738 5740 0
-601 -5740 0
-552 5741 0
-5741 5742 0
-558 -5741 5743 0
-5743 5744 0
-561 -5743 0
-558 5742 0
-561 -5742 5744 0
-563 -5744 0
-553 5745 0
-5745 5746 0
-590 -5745 5747 0
-5747 5748 0
-596 -5747 0
-590 5746 0
-596 -5746 5748 0
-597 -5748 0
-554 5749 0
-5749 5750 0
-598 -5749 5751 0
-5751 5752 0
-603 -5751 0
-598 5750 0
-603 -5750 5752 0
-605 -5752 0
-554 5753 0
-5753 5754 0
-557 -5753 5755 0
-5755 5756 0
-598 -5755 0
-557 5754 0
-598 -5754 5756 0
-601 -5756 0
-556 -562 -564 0
-557 5757 0
-5757 5758 0
-594 -5757 5759 0
-5759 5760 0
-600 -5759 0
-594 5758 0
-600 -5758 5760 0
-601 -5760 0
-558 -602 -607 0
-558 5761 0
-5761 5762 0
-561 -5761 5763 0
-5763 5764 0
-602 -5763 0
-561 5762 0
-602 -5762 5764 0
-605 -5764 0
-561 5765 0
-5765 5766 0
-598 -5765 5767 0
-5767 5768 0
-604 -5767 0
-598 5766 0
-604 -5766 5768 0
-605 -5768 0
-566 5769 0
-5769 5770 0
-572 -5769 5771 0
-5771 5772 0
-575 -5771 0
-572 5770 0
-575 -5770 5772 0
-577 -5772 0
-568 -571 -573 0
-570 5773 0
-5773 5774 0
-576 -5773 5775 0
-5775 5776 0
-579 -5775 0
-576 5774 0
-579 -5774 5776 0
-581 -5776 0
-574 5777 0
-5777 5778 0
-580 -5777 5779 0
-5779 5780 0
-583 -5779 0
-580 5778 0
-583 -5778 5780 0
-585 -5780 0
-578 5781 0
-5781 5782 0
-584 -5781 5783 0
-5783 5784 0
-587 -5783 0
-584 5782 0
-587 -5782 5784 0
-589 -5784 0
-582 5785 0
-5785 5786 0
-588 -5785 5787 0
-5787 5788 0
-591 -5787 0
-588 5786 0
-591 -5786 5788 0
-593 -5788 0
-586 5789 0
-5789 5790 0
-592 -5789 5791 0
-5791 5792 0
-595 -5791 0
-592 5790 0
-595 -5790 5792 0
-597 -5792 0
-590 5793 0
-5793 5794 0
-596 -5793 5795 0
-5795 5796 0
-599 -5795 0
-596 5794 0
-599 -5794 5796 0
-601 -5796 0
-594 5797 0
-5797 5798 0
-600 -5797 5799 0
-5799 5800 0
-603 -5799 0
-600 5798 0
-603 -5798 5800 0
-605 -5800 0
-598 -604 -607 0
-5801 296 337 343 344 0
-5801 -296 -337 0
-5801 -296 -343 0
-5801 -296 -344 0
-5801 -337 -343 0
-5801 -337 -344 0
-5801 -343 -344 0
5801 -296 337 343 344 0
5801 -337 296 343 344 0
5801 -343 296 337 344 0
5801 -344 296 337 343 0
-5802 337 343 346 348 0
-5802 -337 -343 0
-5802 -337 -346 0
-5802 -337 -348 0
-5802 -343 -346 0
-5802 -343 -348 0
-5802 -346 -348 0
5802 -337 343 346 348 0
5802 -343 337 346 348 0
5802 -346 337 343 348 0
5802 -348 337 343 346 0
-5803 293 341 346 348 0
-5803 -293 -341 0
-5803 -293 -346 0
-5803 -293 -348 0
-5803 -341 -346 0
-5803 -341 -348 0
-5803 -346 -348 0
5803 -293 341 346 348 0
5803 -341 293 346 348 0
5803 -346 293 341 348 0
5803 -348 293 341 346 0
-5804 293 296 341 344 0
-5804 -293 -296 0
-5804 -293 -341 0
-5804 -293 -344 0
-5804 -296 -341 0
-5804 -296 -344 0
-5804 -341 -344 0
5804 -293 296 341 344 0
5804 -296 293 341 344 0
5804 -341 293 296 344 0
5804 -344 293 296 341 0
5801 5805 0
-5805 5806 0
5802 -5805 5807 0
-5807 5808 0
5803 -5807 0
5802 5806 0
5803 -5806 5808 0
5804 -5808 0
-5801 5809 0
-5809 5810 0
-5802 -5809 5811 0
-5811 5812 0
-5803 -5811 0
-5802 5810 0
-5803 -5810 5812 0
-5804 -5812 0
