p cnf 272 4277
-113 -120 -145 0
-113 -120 -156 0
-113 -120 -182 0
-113 -120 -183 0
-113 -120 -184 0
-113 -120 -185 0
-113 -145 -156 0
-113 -145 -182 0
-113 -145 -183 0
-113 -145 -184 0
-113 -145 -185 0
-113 -156 -182 0
-113 -156 -183 0
-113 -156 -184 0
-113 -156 -185 0
-113 -182 -183 0
-113 -182 -184 0
-113 -182 -185 0
-113 -183 -184 0
-113 -183 -185 0
-113 -184 -185 0
-120 -145 -156 0
-120 -145 -182 0
-120 -145 -183 0
-120 -145 -184 0
-120 -145 -185 0
-120 -156 -182 0
-120 -156 -183 0
-120 -156 -184 0
-120 -156 -185 0
-120 -182 -183 0
-120 -182 -184 0
-120 -182 -185 0
-120 -183 -184 0
-120 -183 -185 0
-120 -184 -185 0
-145 -156 -182 0
-145 -156 -183 0
-145 -156 -184 0
-145 -156 -185 0
-145 -182 -183 0
-145 -182 -184 0
-145 -182 -185 0
-145 -183 -184 0
-145 -183 -185 0
-145 -184 -185 0
-156 -182 -183 0
-156 -182 -184 0
-156 -182 -185 0
-156 -183 -184 0
-156 -183 -185 0
-156 -184 -185 0
-182 -183 -184 0
-182 -183 -185 0
-182 -184 -185 0
-183 -184 -185 0
113 120 145 156 182 183 184 0
113 120 145 156 182 183 185 0
113 120 145 156 182 184 185 0
113 120 145 156 183 184 185 0
113 120 145 182 183 184 185 0
113 120 156 182 183 184 185 0
113 145 156 182 183 184 185 0
120 145 156 182 183 184 185 0
-82 -118 -146 0
-82 -118 -147 0
-82 -146 -147 0
-118 -146 -147 0
-107 -135 -176 0
-107 -135 -177 0
-107 -176 -177 0
-135 -176 -177 0
-163 -170 -191 0
-163 -170 -206 0
-163 -170 -231 0
-163 -170 -232 0
-163 -170 -233 0
-163 -170 -234 0
-163 -191 -206 0
-163 -191 -231 0
-163 -191 -232 0
-163 -191 -233 0
-163 -191 -234 0
-163 -206 -231 0
-163 -206 -232 0
-163 -206 -233 0
-163 -206 -234 0
-163 -231 -232 0
-163 -231 -233 0
-163 -231 -234 0
-163 -232 -233 0
-163 -232 -234 0
-163 -233 -234 0
-170 -191 -206 0
-170 -191 -231 0
-170 -191 -232 0
-170 -191 -233 0
-170 -191 -234 0
-170 -206 -231 0
-170 -206 -232 0
-170 -206 -233 0
-170 -206 -234 0
-170 -231 -232 0
-170 -231 -233 0
-170 -231 -234 0
-170 -232 -233 0
-170 -232 -234 0
-170 -233 -234 0
-191 -206 -231 0
-191 -206 -232 0
-191 -206 -233 0
-191 -206 -234 0
-191 -231 -232 0
-191 -231 -233 0
-191 -231 -234 0
-191 -232 -233 0
-191 -232 -234 0
-191 -233 -234 0
-206 -231 -232 0
-206 -231 -233 0
-206 -231 -234 0
-206 -232 -233 0
-206 -232 -234 0
-206 -233 -234 0
-231 -232 -233 0
-231 -232 -234 0
-231 -233 -234 0
-232 -233 -234 0
163 170 191 206 231 232 233 0
163 170 191 206 231 232 234 0
163 170 191 206 231 233 234 0
163 170 191 206 232 233 234 0
163 170 191 231 232 233 234 0
163 170 206 231 232 233 234 0
163 191 206 231 232 233 234 0
170 191 206 231 232 233 234 0
-137 -143 -165 0
-137 -143 -178 0
-137 -143 -206 0
-137 -143 -207 0
-137 -143 -208 0
-137 -143 -209 0
-137 -165 -178 0
-137 -165 -206 0
-137 -165 -207 0
-137 -165 -208 0
-137 -165 -209 0
-137 -178 -206 0
-137 -178 -207 0
-137 -178 -208 0
-137 -178 -209 0
-137 -206 -207 0
-137 -206 -208 0
-137 -206 -209 0
-137 -207 -208 0
-137 -207 -209 0
-137 -208 -209 0
-143 -165 -178 0
-143 -165 -206 0
-143 -165 -207 0
-143 -165 -208 0
-143 -165 -209 0
-143 -178 -206 0
-143 -178 -207 0
-143 -178 -208 0
-143 -178 -209 0
-143 -206 -207 0
-143 -206 -208 0
-143 -206 -209 0
-143 -207 -208 0
-143 -207 -209 0
-143 -208 -209 0
-165 -178 -206 0
-165 -178 -207 0
-165 -178 -208 0
-165 -178 -209 0
-165 -206 -207 0
-165 -206 -208 0
-165 -206 -209 0
-165 -207 -208 0
-165 -207 -209 0
-165 -208 -209 0
-178 -206 -207 0
-178 -206 -208 0
-178 -206 -209 0
-178 -207 -208 0
-178 -207 -209 0
-178 -208 -209 0
-206 -207 -208 0
-206 -207 -209 0
-206 -208 -209 0
-207 -208 -209 0
137 143 165 178 206 207 208 0
137 143 165 178 206 207 209 0
137 143 165 178 206 208 209 0
137 143 165 178 207 208 209 0
137 143 165 206 207 208 209 0
137 143 178 206 207 208 209 0
137 165 178 206 207 208 209 0
143 165 178 206 207 208 209 0
-151 -158 -180 0
-151 -158 -194 0
-151 -158 -219 0
-151 -158 -220 0
-151 -158 -221 0
-151 -158 -222 0
-151 -180 -194 0
-151 -180 -219 0
-151 -180 -220 0
-151 -180 -221 0
-151 -180 -222 0
-151 -194 -219 0
-151 -194 -220 0
-151 -194 -221 0
-151 -194 -222 0
-151 -219 -220 0
-151 -219 -221 0
-151 -219 -222 0
-151 -220 -221 0
-151 -220 -222 0
-151 -221 -222 0
-158 -180 -194 0
-158 -180 -219 0
-158 -180 -220 0
-158 -180 -221 0
-158 -180 -222 0
-158 -194 -219 0
-158 -194 -220 0
-158 -194 -221 0
-158 -194 -222 0
-158 -219 -220 0
-158 -219 -221 0
-158 -219 -222 0
-158 -220 -221 0
-158 -220 -222 0
-158 -221 -222 0
-180 -194 -219 0
-180 -194 -220 0
-180 -194 -221 0
-180 -194 -222 0
-180 -219 -220 0
-180 -219 -221 0
-180 -219 -222 0
-180 -220 -221 0
-180 -220 -222 0
-180 -221 -222 0
-194 -219 -220 0
-194 -219 -221 0
-194 -219 -222 0
-194 -220 -221 0
-194 -220 -222 0
-194 -221 -222 0
-219 -220 -221 0
-219 -220 -222 0
-219 -221 -222 0
-220 -221 -222 0
151 158 180 194 219 220 221 0
151 158 180 194 219 220 222 0
151 158 180 194 219 221 222 0
151 158 180 194 220 221 222 0
151 158 180 219 220 221 222 0
151 158 194 219 220 221 222 0
151 180 194 219 220 221 222 0
158 180 194 219 220 221 222 0
-10 -13 -28 0
-10 -13 -40 0
-10 -13 -66 0
-10 -13 -67 0
-10 -13 -68 0
-10 -13 -69 0
-10 -28 -40 0
-10 -28 -66 0
-10 -28 -67 0
-10 -28 -68 0
-10 -28 -69 0
-10 -40 -66 0
-10 -40 -67 0
-10 -40 -68 0
-10 -40 -69 0
-10 -66 -67 0
-10 -66 -68 0
-10 -66 -69 0
-10 -67 -68 0
-10 -67 -69 0
-10 -68 -69 0
-13 -28 -40 0
-13 -28 -66 0
-13 -28 -67 0
-13 -28 -68 0
-13 -28 -69 0
-13 -40 -66 0
-13 -40 -67 0
-13 -40 -68 0
-13 -40 -69 0
-13 -66 -67 0
-13 -66 -68 0
-13 -66 -69 0
-13 -67 -68 0
-13 -67 -69 0
-13 -68 -69 0
-28 -40 -66 0
-28 -40 -67 0
-28 -40 -68 0
-28 -40 -69 0
-28 -66 -67 0
-28 -66 -68 0
-28 -66 -69 0
-28 -67 -68 0
-28 -67 -69 0
-28 -68 -69 0
-40 -66 -67 0
-40 -66 -68 0
-40 -66 -69 0
-40 -67 -68 0
-40 -67 -69 0
-40 -68 -69 0
-66 -67 -68 0
-66 -67 -69 0
-66 -68 -69 0
-67 -68 -69 0
10 13 28 40 66 67 68 0
10 13 28 40 66 67 69 0
10 13 28 40 66 68 69 0
10 13 28 40 67 68 69 0
10 13 28 66 67 68 69 0
10 13 40 66 67 68 69 0
10 28 40 66 67 68 69 0
13 28 40 66 67 68 69 0
-53 -60 -81 0
-53 -60 -96 0
-53 -60 -122 0
-53 -60 -123 0
-53 -60 -124 0
-53 -60 -125 0
-53 -81 -96 0
-53 -81 -122 0
-53 -81 -123 0
-53 -81 -124 0
-53 -81 -125 0
-53 -96 -122 0
-53 -96 -123 0
-53 -96 -124 0
-53 -96 -125 0
-53 -122 -123 0
-53 -122 -124 0
-53 -122 -125 0
-53 -123 -124 0
-53 -123 -125 0
-53 -124 -125 0
-60 -81 -96 0
-60 -81 -122 0
-60 -81 -123 0
-60 -81 -124 0
-60 -81 -125 0
-60 -96 -122 0
-60 -96 -123 0
-60 -96 -124 0
-60 -96 -125 0
-60 -122 -123 0
-60 -122 -124 0
-60 -122 -125 0
-60 -123 -124 0
-60 -123 -125 0
-60 -124 -125 0
-81 -96 -122 0
-81 -96 -123 0
-81 -96 -124 0
-81 -96 -125 0
-81 -122 -123 0
-81 -122 -124 0
-81 -122 -125 0
-81 -123 -124 0
-81 -123 -125 0
-81 -124 -125 0
-96 -122 -123 0
-96 -122 -124 0
-96 -122 -125 0
-96 -123 -124 0
-96 -123 -125 0
-96 -124 -125 0
-122 -123 -124 0
-122 -123 -125 0
-122 -124 -125 0
-123 -124 -125 0
53 60 81 96 122 123 124 0
53 60 81 96 122 123 125 0
53 60 81 96 122 124 125 0
53 60 81 96 123 124 125 0
53 60 81 122 123 124 125 0
53 60 96 122 123 124 125 0
53 81 96 122 123 124 125 0
60 81 96 122 123 124 125 0
-17 -21 -43 0
-17 -21 -54 0
-17 -21 -80 0
-17 -21 -81 0
-17 -21 -82 0
-17 -21 -83 0
-17 -43 -54 0
-17 -43 -80 0
-17 -43 -81 0
-17 -43 -82 0
-17 -43 -83 0
-17 -54 -80 0
-17 -54 -81 0
-17 -54 -82 0
-17 -54 -83 0
-17 -80 -81 0
-17 -80 -82 0
-17 -80 -83 0
-17 -81 -82 0
-17 -81 -83 0
-17 -82 -83 0
-21 -43 -54 0
-21 -43 -80 0
-21 -43 -81 0
-21 -43 -82 0
-21 -43 -83 0
-21 -54 -80 0
-21 -54 -81 0
-21 -54 -82 0
-21 -54 -83 0
-21 -80 -81 0
-21 -80 -82 0
-21 -80 -83 0
-21 -81 -82 0
-21 -81 -83 0
-21 -82 -83 0
-43 -54 -80 0
-43 -54 -81 0
-43 -54 -82 0
-43 -54 -83 0
-43 -80 -81 0
-43 -80 -82 0
-43 -80 -83 0
-43 -81 -82 0
-43 -81 -83 0
-43 -82 -83 0
-54 -80 -81 0
-54 -80 -82 0
-54 -80 -83 0
-54 -81 -82 0
-54 -81 -83 0
-54 -82 -83 0
-80 -81 -82 0
-80 -81 -83 0
-80 -82 -83 0
-81 -82 -83 0
17 21 43 54 80 81 82 0
17 21 43 54 80 81 83 0
17 21 43 54 80 82 83 0
17 21 43 54 81 82 83 0
17 21 43 80 81 82 83 0
17 21 54 80 81 82 83 0
17 43 54 80 81 82 83 0
21 43 54 80 81 82 83 0
-230 -237 -254 0
-230 -237 -269 0
-230 -254 -269 0
-237 -254 -269 0
-189 -196 -216 0
-189 -196 -231 0
-189 -196 -253 0
-189 -196 -254 0
-189 -196 -255 0
-189 -196 -256 0
-189 -216 -231 0
-189 -216 -253 0
-189 -216 -254 0
-189 -216 -255 0
-189 -216 -256 0
-189 -231 -253 0
-189 -231 -254 0
-189 -231 -255 0
-189 -231 -256 0
-189 -253 -254 0
-189 -253 -255 0
-189 -253 -256 0
-189 -254 -255 0
-189 -254 -256 0
-189 -255 -256 0
-196 -216 -231 0
-196 -216 -253 0
-196 -216 -254 0
-196 -216 -255 0
-196 -216 -256 0
-196 -231 -253 0
-196 -231 -254 0
-196 -231 -255 0
-196 -231 -256 0
-196 -253 -254 0
-196 -253 -255 0
-196 -253 -256 0
-196 -254 -255 0
-196 -254 -256 0
-196 -255 -256 0
-216 -231 -253 0
-216 -231 -254 0
-216 -231 -255 0
-216 -231 -256 0
-216 -253 -254 0
-216 -253 -255 0
-216 -253 -256 0
-216 -254 -255 0
-216 -254 -256 0
-216 -255 -256 0
-231 -253 -254 0
-231 -253 -255 0
-231 -253 -256 0
-231 -254 -255 0
-231 -254 -256 0
-231 -255 -256 0
-253 -254 -255 0
-253 -254 -256 0
-253 -255 -256 0
-254 -255 -256 0
189 196 216 231 253 254 255 0
189 196 216 231 253 254 256 0
189 196 216 231 253 255 256 0
189 196 216 231 254 255 256 0
189 196 216 253 254 255 256 0
189 196 231 253 254 255 256 0
189 216 231 253 254 255 256 0
196 216 231 253 254 255 256 0
-218 -225 -257 0
-121 -128 -149 0
-121 -128 -164 0
-121 -128 -190 0
-121 -128 -191 0
-121 -128 -192 0
-121 -128 -193 0
-121 -149 -164 0
-121 -149 -190 0
-121 -149 -191 0
-121 -149 -192 0
-121 -149 -193 0
-121 -164 -190 0
-121 -164 -191 0
-121 -164 -192 0
-121 -164 -193 0
-121 -190 -191 0
-121 -190 -192 0
-121 -190 -193 0
-121 -191 -192 0
-121 -191 -193 0
-121 -192 -193 0
-128 -149 -164 0
-128 -149 -190 0
-128 -149 -191 0
-128 -149 -192 0
-128 -149 -193 0
-128 -164 -190 0
-128 -164 -191 0
-128 -164 -192 0
-128 -164 -193 0
-128 -190 -191 0
-128 -190 -192 0
-128 -190 -193 0
-128 -191 -192 0
-128 -191 -193 0
-128 -192 -193 0
-149 -164 -190 0
-149 -164 -191 0
-149 -164 -192 0
-149 -164 -193 0
-149 -190 -191 0
-149 -190 -192 0
-149 -190 -193 0
-149 -191 -192 0
-149 -191 -193 0
-149 -192 -193 0
-164 -190 -191 0
-164 -190 -192 0
-164 -190 -193 0
-164 -191 -192 0
-164 -191 -193 0
-164 -192 -193 0
-190 -191 -192 0
-190 -191 -193 0
-190 -192 -193 0
-191 -192 -193 0
121 128 149 164 190 191 192 0
121 128 149 164 190 191 193 0
121 128 149 164 190 192 193 0
121 128 149 164 191 192 193 0
121 128 149 190 191 192 193 0
121 128 164 190 191 192 193 0
121 149 164 190 191 192 193 0
128 149 164 190 191 192 193 0
-79 -86 -111 0
-79 -86 -122 0
-79 -86 -148 0
-79 -86 -149 0
-79 -86 -150 0
-79 -86 -151 0
-79 -111 -122 0
-79 -111 -148 0
-79 -111 -149 0
-79 -111 -150 0
-79 -111 -151 0
-79 -122 -148 0
-79 -122 -149 0
-79 -122 -150 0
-79 -122 -151 0
-79 -148 -149 0
-79 -148 -150 0
-79 -148 -151 0
-79 -149 -150 0
-79 -149 -151 0
-79 -150 -151 0
-86 -111 -122 0
-86 -111 -148 0
-86 -111 -149 0
-86 -111 -150 0
-86 -111 -151 0
-86 -122 -148 0
-86 -122 -149 0
-86 -122 -150 0
-86 -122 -151 0
-86 -148 -149 0
-86 -148 -150 0
-86 -148 -151 0
-86 -149 -150 0
-86 -149 -151 0
-86 -150 -151 0
-111 -122 -148 0
-111 -122 -149 0
-111 -122 -150 0
-111 -122 -151 0
-111 -148 -149 0
-111 -148 -150 0
-111 -148 -151 0
-111 -149 -150 0
-111 -149 -151 0
-111 -150 -151 0
-122 -148 -149 0
-122 -148 -150 0
-122 -148 -151 0
-122 -149 -150 0
-122 -149 -151 0
-122 -150 -151 0
-148 -149 -150 0
-148 -149 -151 0
-148 -150 -151 0
-149 -150 -151 0
79 86 111 122 148 149 150 0
79 86 111 122 148 149 151 0
79 86 111 122 148 150 151 0
79 86 111 122 149 150 151 0
79 86 111 148 149 150 151 0
79 86 122 148 149 150 151 0
79 111 122 148 149 150 151 0
86 111 122 148 149 150 151 0
-171 -177 -199 0
-171 -177 -212 0
-171 -177 -239 0
-171 -177 -240 0
-171 -177 -241 0
-171 -177 -242 0
-171 -199 -212 0
-171 -199 -239 0
-171 -199 -240 0
-171 -199 -241 0
-171 -199 -242 0
-171 -212 -239 0
-171 -212 -240 0
-171 -212 -241 0
-171 -212 -242 0
-171 -239 -240 0
-171 -239 -241 0
-171 -239 -242 0
-171 -240 -241 0
-171 -240 -242 0
-171 -241 -242 0
-177 -199 -212 0
-177 -199 -239 0
-177 -199 -240 0
-177 -199 -241 0
-177 -199 -242 0
-177 -212 -239 0
-177 -212 -240 0
-177 -212 -241 0
-177 -212 -242 0
-177 -239 -240 0
-177 -239 -241 0
-177 -239 -242 0
-177 -240 -241 0
-177 -240 -242 0
-177 -241 -242 0
-199 -212 -239 0
-199 -212 -240 0
-199 -212 -241 0
-199 -212 -242 0
-199 -239 -240 0
-199 -239 -241 0
-199 -239 -242 0
-199 -240 -241 0
-199 -240 -242 0
-199 -241 -242 0
-212 -239 -240 0
-212 -239 -241 0
-212 -239 -242 0
-212 -240 -241 0
-212 -240 -242 0
-212 -241 -242 0
-239 -240 -241 0
-239 -240 -242 0
-239 -241 -242 0
-240 -241 -242 0
171 177 199 212 239 240 241 0
171 177 199 212 239 240 242 0
171 177 199 212 239 241 242 0
171 177 199 212 240 241 242 0
171 177 199 239 240 241 242 0
171 177 212 239 240 241 242 0
171 199 212 239 240 241 242 0
177 199 212 239 240 241 242 0
-103 -109 -131 0
-103 -109 -144 0
-103 -109 -172 0
-103 -109 -173 0
-103 -109 -174 0
-103 -109 -175 0
-103 -131 -144 0
-103 -131 -172 0
-103 -131 -173 0
-103 -131 -174 0
-103 -131 -175 0
-103 -144 -172 0
-103 -144 -173 0
-103 -144 -174 0
-103 -144 -175 0
-103 -172 -173 0
-103 -172 -174 0
-103 -172 -175 0
-103 -173 -174 0
-103 -173 -175 0
-103 -174 -175 0
-109 -131 -144 0
-109 -131 -172 0
-109 -131 -173 0
-109 -131 -174 0
-109 -131 -175 0
-109 -144 -172 0
-109 -144 -173 0
-109 -144 -174 0
-109 -144 -175 0
-109 -172 -173 0
-109 -172 -174 0
-109 -172 -175 0
-109 -173 -174 0
-109 -173 -175 0
-109 -174 -175 0
-131 -144 -172 0
-131 -144 -173 0
-131 -144 -174 0
-131 -144 -175 0
-131 -172 -173 0
-131 -172 -174 0
-131 -172 -175 0
-131 -173 -174 0
-131 -173 -175 0
-131 -174 -175 0
-144 -172 -173 0
-144 -172 -174 0
-144 -172 -175 0
-144 -173 -174 0
-144 -173 -175 0
-144 -174 -175 0
-172 -173 -174 0
-172 -173 -175 0
-172 -174 -175 0
-173 -174 -175 0
103 109 131 144 172 173 174 0
103 109 131 144 172 173 175 0
103 109 131 144 172 174 175 0
103 109 131 144 173 174 175 0
103 109 131 172 173 174 175 0
103 109 144 172 173 174 175 0
103 131 144 172 173 174 175 0
109 131 144 172 173 174 175 0
-159 -166 -187 0
-159 -166 -202 0
-159 -166 -227 0
-159 -166 -228 0
-159 -166 -229 0
-159 -166 -230 0
-159 -187 -202 0
-159 -187 -227 0
-159 -187 -228 0
-159 -187 -229 0
-159 -187 -230 0
-159 -202 -227 0
-159 -202 -228 0
-159 -202 -229 0
-159 -202 -230 0
-159 -227 -228 0
-159 -227 -229 0
-159 -227 -230 0
-159 -228 -229 0
-159 -228 -230 0
-159 -229 -230 0
-166 -187 -202 0
-166 -187 -227 0
-166 -187 -228 0
-166 -187 -229 0
-166 -187 -230 0
-166 -202 -227 0
-166 -202 -228 0
-166 -202 -229 0
-166 -202 -230 0
-166 -227 -228 0
-166 -227 -229 0
-166 -227 -230 0
-166 -228 -229 0
-166 -228 -230 0
-166 -229 -230 0
-187 -202 -227 0
-187 -202 -228 0
-187 -202 -229 0
-187 -202 -230 0
-187 -227 -228 0
-187 -227 -229 0
-187 -227 -230 0
-187 -228 -229 0
-187 -228 -230 0
-187 -229 -230 0
-202 -227 -228 0
-202 -227 -229 0
-202 -227 -230 0
-202 -228 -229 0
-202 -228 -230 0
-202 -229 -230 0
-227 -228 -229 0
-227 -228 -230 0
-227 -229 -230 0
-228 -229 -230 0
159 166 187 202 227 228 229 0
159 166 187 202 227 228 230 0
159 166 187 202 227 229 230 0
159 166 187 202 228 229 230 0
159 166 187 227 228 229 230 0
159 166 202 227 228 229 230 0
159 187 202 227 228 229 230 0
166 187 202 227 228 229 230 0
-61 -68 -89 0
-61 -68 -104 0
-61 -68 -130 0
-61 -68 -131 0
-61 -68 -132 0
-61 -68 -133 0
-61 -89 -104 0
-61 -89 -130 0
-61 -89 -131 0
-61 -89 -132 0
-61 -89 -133 0
-61 -104 -130 0
-61 -104 -131 0
-61 -104 -132 0
-61 -104 -133 0
-61 -130 -131 0
-61 -130 -132 0
-61 -130 -133 0
-61 -131 -132 0
-61 -131 -133 0
-61 -132 -133 0
-68 -89 -104 0
-68 -89 -130 0
-68 -89 -131 0
-68 -89 -132 0
-68 -89 -133 0
-68 -104 -130 0
-68 -104 -131 0
-68 -104 -132 0
-68 -104 -133 0
-68 -130 -131 0
-68 -130 -132 0
-68 -130 -133 0
-68 -131 -132 0
-68 -131 -133 0
-68 -132 -133 0
-89 -104 -130 0
-89 -104 -131 0
-89 -104 -132 0
-89 -104 -133 0
-89 -130 -131 0
-89 -130 -132 0
-89 -130 -133 0
-89 -131 -132 0
-89 -131 -133 0
-89 -132 -133 0
-104 -130 -131 0
-104 -130 -132 0
-104 -130 -133 0
-104 -131 -132 0
-104 -131 -133 0
-104 -132 -133 0
-130 -131 -132 0
-130 -131 -133 0
-130 -132 -133 0
-131 -132 -133 0
61 68 89 104 130 131 132 0
61 68 89 104 130 131 133 0
61 68 89 104 130 132 133 0
61 68 89 104 131 132 133 0
61 68 89 130 131 132 133 0
61 68 104 130 131 132 133 0
61 89 104 130 131 132 133 0
68 89 104 130 131 132 133 0
-22 -29 -47 0
-22 -29 -62 0
-22 -29 -88 0
-22 -29 -89 0
-22 -29 -90 0
-22 -29 -91 0
-22 -47 -62 0
-22 -47 -88 0
-22 -47 -89 0
-22 -47 -90 0
-22 -47 -91 0
-22 -62 -88 0
-22 -62 -89 0
-22 -62 -90 0
-22 -62 -91 0
-22 -88 -89 0
-22 -88 -90 0
-22 -88 -91 0
-22 -89 -90 0
-22 -89 -91 0
-22 -90 -91 0
-29 -47 -62 0
-29 -47 -88 0
-29 -47 -89 0
-29 -47 -90 0
-29 -47 -91 0
-29 -62 -88 0
-29 -62 -89 0
-29 -62 -90 0
-29 -62 -91 0
-29 -88 -89 0
-29 -88 -90 0
-29 -88 -91 0
-29 -89 -90 0
-29 -89 -91 0
-29 -90 -91 0
-47 -62 -88 0
-47 -62 -89 0
-47 -62 -90 0
-47 -62 -91 0
-47 -88 -89 0
-47 -88 -90 0
-47 -88 -91 0
-47 -89 -90 0
-47 -89 -91 0
-47 -90 -91 0
-62 -88 -89 0
-62 -88 -90 0
-62 -88 -91 0
-62 -89 -90 0
-62 -89 -91 0
-62 -90 -91 0
-88 -89 -90 0
-88 -89 -91 0
-88 -90 -91 0
-89 -90 -91 0
22 29 47 62 88 89 90 0
22 29 47 62 88 89 91 0
22 29 47 62 88 90 91 0
22 29 47 62 89 90 91 0
22 29 47 88 89 90 91 0
22 29 62 88 89 90 91 0
22 47 62 88 89 90 91 0
29 47 62 88 89 90 91 0
-8 -11 -24 0
-8 -11 -38 0
-8 -11 -62 0
-8 -11 -63 0
-8 -11 -64 0
-8 -11 -65 0
-8 -24 -38 0
-8 -24 -62 0
-8 -24 -63 0
-8 -24 -64 0
-8 -24 -65 0
-8 -38 -62 0
-8 -38 -63 0
-8 -38 -64 0
-8 -38 -65 0
-8 -62 -63 0
-8 -62 -64 0
-8 -62 -65 0
-8 -63 -64 0
-8 -63 -65 0
-8 -64 -65 0
-11 -24 -38 0
-11 -24 -62 0
-11 -24 -63 0
-11 -24 -64 0
-11 -24 -65 0
-11 -38 -62 0
-11 -38 -63 0
-11 -38 -64 0
-11 -38 -65 0
-11 -62 -63 0
-11 -62 -64 0
-11 -62 -65 0
-11 -63 -64 0
-11 -63 -65 0
-11 -64 -65 0
-24 -38 -62 0
-24 -38 -63 0
-24 -38 -64 0
-24 -38 -65 0
-24 -62 -63 0
-24 -62 -64 0
-24 -62 -65 0
-24 -63 -64 0
-24 -63 -65 0
-24 -64 -65 0
-38 -62 -63 0
-38 -62 -64 0
-38 -62 -65 0
-38 -63 -64 0
-38 -63 -65 0
-38 -64 -65 0
-62 -63 -64 0
-62 -63 -65 0
-62 -64 -65 0
-63 -64 -65 0
8 11 24 38 62 63 64 0
8 11 24 38 62 63 65 0
8 11 24 38 62 64 65 0
8 11 24 38 63 64 65 0
8 11 24 62 63 64 65 0
8 11 38 62 63 64 65 0
8 24 38 62 63 64 65 0
11 24 38 62 63 64 65 0
-49 -56 -78 0
-49 -56 -92 0
-49 -56 -118 0
-49 -56 -119 0
-49 -56 -120 0
-49 -56 -121 0
-49 -78 -92 0
-49 -78 -118 0
-49 -78 -119 0
-49 -78 -120 0
-49 -78 -121 0
-49 -92 -118 0
-49 -92 -119 0
-49 -92 -120 0
-49 -92 -121 0
-49 -118 -119 0
-49 -118 -120 0
-49 -118 -121 0
-49 -119 -120 0
-49 -119 -121 0
-49 -120 -121 0
-56 -78 -92 0
-56 -78 -118 0
-56 -78 -119 0
-56 -78 -120 0
-56 -78 -121 0
-56 -92 -118 0
-56 -92 -119 0
-56 -92 -120 0
-56 -92 -121 0
-56 -118 -119 0
-56 -118 -120 0
-56 -118 -121 0
-56 -119 -120 0
-56 -119 -121 0
-56 -120 -121 0
-78 -92 -118 0
-78 -92 -119 0
-78 -92 -120 0
-78 -92 -121 0
-78 -118 -119 0
-78 -118 -120 0
-78 -118 -121 0
-78 -119 -120 0
-78 -119 -121 0
-78 -120 -121 0
-92 -118 -119 0
-92 -118 -120 0
-92 -118 -121 0
-92 -119 -120 0
-92 -119 -121 0
-92 -120 -121 0
-118 -119 -120 0
-118 -119 -121 0
-118 -120 -121 0
-119 -120 -121 0
49 56 78 92 118 119 120 0
49 56 78 92 118 119 121 0
49 56 78 92 118 120 121 0
49 56 78 92 119 120 121 0
49 56 78 118 119 120 121 0
49 56 92 118 119 120 121 0
49 78 92 118 119 120 121 0
56 78 92 118 119 120 121 0
-197 -204 -224 0
-197 -204 -239 0
-197 -204 -261 0
-197 -204 -262 0
-197 -204 -263 0
-197 -204 -264 0
-197 -224 -239 0
-197 -224 -261 0
-197 -224 -262 0
-197 -224 -263 0
-197 -224 -264 0
-197 -239 -261 0
-197 -239 -262 0
-197 -239 -263 0
-197 -239 -264 0
-197 -261 -262 0
-197 -261 -263 0
-197 -261 -264 0
-197 -262 -263 0
-197 -262 -264 0
-197 -263 -264 0
-204 -224 -239 0
-204 -224 -261 0
-204 -224 -262 0
-204 -224 -263 0
-204 -224 -264 0
-204 -239 -261 0
-204 -239 -262 0
-204 -239 -263 0
-204 -239 -264 0
-204 -261 -262 0
-204 -261 -263 0
-204 -261 -264 0
-204 -262 -263 0
-204 -262 -264 0
-204 -263 -264 0
-224 -239 -261 0
-224 -239 -262 0
-224 -239 -263 0
-224 -239 -264 0
-224 -261 -262 0
-224 -261 -263 0
-224 -261 -264 0
-224 -262 -263 0
-224 -262 -264 0
-224 -263 -264 0
-239 -261 -262 0
-239 -261 -263 0
-239 -261 -264 0
-239 -262 -263 0
-239 -262 -264 0
-239 -263 -264 0
-261 -262 -263 0
-261 -262 -264 0
-261 -263 -264 0
-262 -263 -264 0
197 204 224 239 261 262 263 0
197 204 224 239 261 262 264 0
197 204 224 239 261 263 264 0
197 204 224 239 262 263 264 0
197 204 224 261 262 263 264 0
197 204 239 261 262 263 264 0
197 224 239 261 262 263 264 0
204 224 239 261 262 263 264 0
-226 -233 -250 0
-226 -233 -265 0
-226 -250 -265 0
-233 -250 -265 0
-87 -94 -115 0
-87 -94 -130 0
-87 -94 -156 0
-87 -94 -157 0
-87 -94 -158 0
-87 -94 -159 0
-87 -115 -130 0
-87 -115 -156 0
-87 -115 -157 0
-87 -115 -158 0
-87 -115 -159 0
-87 -130 -156 0
-87 -130 -157 0
-87 -130 -158 0
-87 -130 -159 0
-87 -156 -157 0
-87 -156 -158 0
-87 -156 -159 0
-87 -157 -158 0
-87 -157 -159 0
-87 -158 -159 0
-94 -115 -130 0
-94 -115 -156 0
-94 -115 -157 0
-94 -115 -158 0
-94 -115 -159 0
-94 -130 -156 0
-94 -130 -157 0
-94 -130 -158 0
-94 -130 -159 0
-94 -156 -157 0
-94 -156 -158 0
-94 -156 -159 0
-94 -157 -158 0
-94 -157 -159 0
-94 -158 -159 0
-115 -130 -156 0
-115 -130 -157 0
-115 -130 -158 0
-115 -130 -159 0
-115 -156 -157 0
-115 -156 -158 0
-115 -156 -159 0
-115 -157 -158 0
-115 -157 -159 0
-115 -158 -159 0
-130 -156 -157 0
-130 -156 -158 0
-130 -156 -159 0
-130 -157 -158 0
-130 -157 -159 0
-130 -158 -159 0
-156 -157 -158 0
-156 -157 -159 0
-156 -158 -159 0
-157 -158 -159 0
87 94 115 130 156 157 158 0
87 94 115 130 156 157 159 0
87 94 115 130 156 158 159 0
87 94 115 130 157 158 159 0
87 94 115 156 157 158 159 0
87 94 130 156 157 158 159 0
87 115 130 156 157 158 159 0
94 115 130 156 157 158 159 0
-117 -124 -146 0
-117 -124 -160 0
-117 -124 -186 0
-117 -124 -187 0
-117 -124 -188 0
-117 -124 -189 0
-117 -146 -160 0
-117 -146 -186 0
-117 -146 -187 0
-117 -146 -188 0
-117 -146 -189 0
-117 -160 -186 0
-117 -160 -187 0
-117 -160 -188 0
-117 -160 -189 0
-117 -186 -187 0
-117 -186 -188 0
-117 -186 -189 0
-117 -187 -188 0
-117 -187 -189 0
-117 -188 -189 0
-124 -146 -160 0
-124 -146 -186 0
-124 -146 -187 0
-124 -146 -188 0
-124 -146 -189 0
-124 -160 -186 0
-124 -160 -187 0
-124 -160 -188 0
-124 -160 -189 0
-124 -186 -187 0
-124 -186 -188 0
-124 -186 -189 0
-124 -187 -188 0
-124 -187 -189 0
-124 -188 -189 0
-146 -160 -186 0
-146 -160 -187 0
-146 -160 -188 0
-146 -160 -189 0
-146 -186 -187 0
-146 -186 -188 0
-146 -186 -189 0
-146 -187 -188 0
-146 -187 -189 0
-146 -188 -189 0
-160 -186 -187 0
-160 -186 -188 0
-160 -186 -189 0
-160 -187 -188 0
-160 -187 -189 0
-160 -188 -189 0
-186 -187 -188 0
-186 -187 -189 0
-186 -188 -189 0
-187 -188 -189 0
117 124 146 160 186 187 188 0
117 124 146 160 186 187 189 0
117 124 146 160 186 188 189 0
117 124 146 160 187 188 189 0
117 124 146 186 187 188 189 0
117 124 160 186 187 188 189 0
117 146 160 186 187 188 189 0
124 146 160 186 187 188 189 0
-167 -174 -195 0
-167 -174 -210 0
-167 -174 -235 0
-167 -174 -236 0
-167 -174 -237 0
-167 -174 -238 0
-167 -195 -210 0
-167 -195 -235 0
-167 -195 -236 0
-167 -195 -237 0
-167 -195 -238 0
-167 -210 -235 0
-167 -210 -236 0
-167 -210 -237 0
-167 -210 -238 0
-167 -235 -236 0
-167 -235 -237 0
-167 -235 -238 0
-167 -236 -237 0
-167 -236 -238 0
-167 -237 -238 0
-174 -195 -210 0
-174 -195 -235 0
-174 -195 -236 0
-174 -195 -237 0
-174 -195 -238 0
-174 -210 -235 0
-174 -210 -236 0
-174 -210 -237 0
-174 -210 -238 0
-174 -235 -236 0
-174 -235 -237 0
-174 -235 -238 0
-174 -236 -237 0
-174 -236 -238 0
-174 -237 -238 0
-195 -210 -235 0
-195 -210 -236 0
-195 -210 -237 0
-195 -210 -238 0
-195 -235 -236 0
-195 -235 -237 0
-195 -235 -238 0
-195 -236 -237 0
-195 -236 -238 0
-195 -237 -238 0
-210 -235 -236 0
-210 -235 -237 0
-210 -235 -238 0
-210 -236 -237 0
-210 -236 -238 0
-210 -237 -238 0
-235 -236 -237 0
-235 -236 -238 0
-235 -237 -238 0
-236 -237 -238 0
167 174 195 210 235 236 237 0
167 174 195 210 235 236 238 0
167 174 195 210 235 237 238 0
167 174 195 210 236 237 238 0
167 174 195 235 236 237 238 0
167 174 210 235 236 237 238 0
167 195 210 235 236 237 238 0
174 195 210 235 236 237 238 0
-1 -3 -15 0
-1 -3 -23 0
-1 -3 -46 0
-1 -3 -47 0
-1 -3 -48 0
-1 -3 -49 0
-1 -15 -23 0
-1 -15 -46 0
-1 -15 -47 0
-1 -15 -48 0
-1 -15 -49 0
-1 -23 -46 0
-1 -23 -47 0
-1 -23 -48 0
-1 -23 -49 0
-1 -46 -47 0
-1 -46 -48 0
-1 -46 -49 0
-1 -47 -48 0
-1 -47 -49 0
-1 -48 -49 0
-3 -15 -23 0
-3 -15 -46 0
-3 -15 -47 0
-3 -15 -48 0
-3 -15 -49 0
-3 -23 -46 0
-3 -23 -47 0
-3 -23 -48 0
-3 -23 -49 0
-3 -46 -47 0
-3 -46 -48 0
-3 -46 -49 0
-3 -47 -48 0
-3 -47 -49 0
-3 -48 -49 0
-15 -23 -46 0
-15 -23 -47 0
-15 -23 -48 0
-15 -23 -49 0
-15 -46 -47 0
-15 -46 -48 0
-15 -46 -49 0
-15 -47 -48 0
-15 -47 -49 0
-15 -48 -49 0
-23 -46 -47 0
-23 -46 -48 0
-23 -46 -49 0
-23 -47 -48 0
-23 -47 -49 0
-23 -48 -49 0
-46 -47 -48 0
-46 -47 -49 0
-46 -48 -49 0
-47 -48 -49 0
1 3 15 23 46 47 48 0
1 3 15 23 46 47 49 0
1 3 15 23 46 48 49 0
1 3 15 23 47 48 49 0
1 3 15 46 47 48 49 0
1 3 23 46 47 48 49 0
1 15 23 46 47 48 49 0
3 15 23 46 47 48 49 0
-30 -36 -55 0
-30 -36 -70 0
-30 -36 -96 0
-30 -36 -97 0
-30 -36 -98 0
-30 -36 -99 0
-30 -55 -70 0
-30 -55 -96 0
-30 -55 -97 0
-30 -55 -98 0
-30 -55 -99 0
-30 -70 -96 0
-30 -70 -97 0
-30 -70 -98 0
-30 -70 -99 0
-30 -96 -97 0
-30 -96 -98 0
-30 -96 -99 0
-30 -97 -98 0
-30 -97 -99 0
-30 -98 -99 0
-36 -55 -70 0
-36 -55 -96 0
-36 -55 -97 0
-36 -55 -98 0
-36 -55 -99 0
-36 -70 -96 0
-36 -70 -97 0
-36 -70 -98 0
-36 -70 -99 0
-36 -96 -97 0
-36 -96 -98 0
-36 -96 -99 0
-36 -97 -98 0
-36 -97 -99 0
-36 -98 -99 0
-55 -70 -96 0
-55 -70 -97 0
-55 -70 -98 0
-55 -70 -99 0
-55 -96 -97 0
-55 -96 -98 0
-55 -96 -99 0
-55 -97 -98 0
-55 -97 -99 0
-55 -98 -99 0
-70 -96 -97 0
-70 -96 -98 0
-70 -96 -99 0
-70 -97 -98 0
-70 -97 -99 0
-70 -98 -99 0
-96 -97 -98 0
-96 -97 -99 0
-96 -98 -99 0
-97 -98 -99 0
30 36 55 70 96 97 98 0
30 36 55 70 96 97 99 0
30 36 55 70 96 98 99 0
30 36 55 70 97 98 99 0
30 36 55 96 97 98 99 0
30 36 70 96 97 98 99 0
30 55 70 96 97 98 99 0
36 55 70 96 97 98 99 0
-12 -14 -32 0
-12 -14 -42 0
-12 -14 -70 0
-12 -14 -71 0
-12 -14 -72 0
-12 -14 -73 0
-12 -32 -42 0
-12 -32 -70 0
-12 -32 -71 0
-12 -32 -72 0
-12 -32 -73 0
-12 -42 -70 0
-12 -42 -71 0
-12 -42 -72 0
-12 -42 -73 0
-12 -70 -71 0
-12 -70 -72 0
-12 -70 -73 0
-12 -71 -72 0
-12 -71 -73 0
-12 -72 -73 0
-14 -32 -42 0
-14 -32 -70 0
-14 -32 -71 0
-14 -32 -72 0
-14 -32 -73 0
-14 -42 -70 0
-14 -42 -71 0
-14 -42 -72 0
-14 -42 -73 0
-14 -70 -71 0
-14 -70 -72 0
-14 -70 -73 0
-14 -71 -72 0
-14 -71 -73 0
-14 -72 -73 0
-32 -42 -70 0
-32 -42 -71 0
-32 -42 -72 0
-32 -42 -73 0
-32 -70 -71 0
-32 -70 -72 0
-32 -70 -73 0
-32 -71 -72 0
-32 -71 -73 0
-32 -72 -73 0
-42 -70 -71 0
-42 -70 -72 0
-42 -70 -73 0
-42 -71 -72 0
-42 -71 -73 0
-42 -72 -73 0
-70 -71 -72 0
-70 -71 -73 0
-70 -72 -73 0
-71 -72 -73 0
12 14 32 42 70 71 72 0
12 14 32 42 70 71 73 0
12 14 32 42 70 72 73 0
12 14 32 42 71 72 73 0
12 14 32 70 71 72 73 0
12 14 42 70 71 72 73 0
12 32 42 70 71 72 73 0
14 32 42 70 71 72 73 0
-57 -64 -85 0
-57 -64 -100 0
-57 -64 -126 0
-57 -64 -127 0
-57 -64 -128 0
-57 -64 -129 0
-57 -85 -100 0
-57 -85 -126 0
-57 -85 -127 0
-57 -85 -128 0
-57 -85 -129 0
-57 -100 -126 0
-57 -100 -127 0
-57 -100 -128 0
-57 -100 -129 0
-57 -126 -127 0
-57 -126 -128 0
-57 -126 -129 0
-57 -127 -128 0
-57 -127 -129 0
-57 -128 -129 0
-64 -85 -100 0
-64 -85 -126 0
-64 -85 -127 0
-64 -85 -128 0
-64 -85 -129 0
-64 -100 -126 0
-64 -100 -127 0
-64 -100 -128 0
-64 -100 -129 0
-64 -126 -127 0
-64 -126 -128 0
-64 -126 -129 0
-64 -127 -128 0
-64 -127 -129 0
-64 -128 -129 0
-85 -100 -126 0
-85 -100 -127 0
-85 -100 -128 0
-85 -100 -129 0
-85 -126 -127 0
-85 -126 -128 0
-85 -126 -129 0
-85 -127 -128 0
-85 -127 -129 0
-85 -128 -129 0
-100 -126 -127 0
-100 -126 -128 0
-100 -126 -129 0
-100 -127 -128 0
-100 -127 -129 0
-100 -128 -129 0
-126 -127 -128 0
-126 -127 -129 0
-126 -128 -129 0
-127 -128 -129 0
57 64 85 100 126 127 128 0
57 64 85 100 126 127 129 0
57 64 85 100 126 128 129 0
57 64 85 100 127 128 129 0
57 64 85 126 127 128 129 0
57 64 100 126 127 128 129 0
57 85 100 126 127 128 129 0
64 85 100 126 127 128 129 0
-205 -211 -232 0
-205 -211 -244 0
-205 -211 -269 0
-205 -211 -270 0
-205 -211 -271 0
-205 -211 -272 0
-205 -232 -244 0
-205 -232 -269 0
-205 -232 -270 0
-205 -232 -271 0
-205 -232 -272 0
-205 -244 -269 0
-205 -244 -270 0
-205 -244 -271 0
-205 -244 -272 0
-205 -269 -270 0
-205 -269 -271 0
-205 -269 -272 0
-205 -270 -271 0
-205 -270 -272 0
-205 -271 -272 0
-211 -232 -244 0
-211 -232 -269 0
-211 -232 -270 0
-211 -232 -271 0
-211 -232 -272 0
-211 -244 -269 0
-211 -244 -270 0
-211 -244 -271 0
-211 -244 -272 0
-211 -269 -270 0
-211 -269 -271 0
-211 -269 -272 0
-211 -270 -271 0
-211 -270 -272 0
-211 -271 -272 0
-232 -244 -269 0
-232 -244 -270 0
-232 -244 -271 0
-232 -244 -272 0
-232 -269 -270 0
-232 -269 -271 0
-232 -269 -272 0
-232 -270 -271 0
-232 -270 -272 0
-232 -271 -272 0
-244 -269 -270 0
-244 -269 -271 0
-244 -269 -272 0
-244 -270 -271 0
-244 -270 -272 0
-244 -271 -272 0
-269 -270 -271 0
-269 -270 -272 0
-269 -271 -272 0
-270 -271 -272 0
205 211 232 244 269 270 271 0
205 211 232 244 269 270 272 0
205 211 232 244 269 271 272 0
205 211 232 244 270 271 272 0
205 211 232 269 270 271 272 0
205 211 244 269 270 271 272 0
205 232 244 269 270 271 272 0
211 232 244 269 270 271 272 0
-234 -241 -258 0
-193 -200 -220 0
-193 -200 -235 0
-193 -200 -257 0
-193 -200 -258 0
-193 -200 -259 0
-193 -200 -260 0
-193 -220 -235 0
-193 -220 -257 0
-193 -220 -258 0
-193 -220 -259 0
-193 -220 -260 0
-193 -235 -257 0
-193 -235 -258 0
-193 -235 -259 0
-193 -235 -260 0
-193 -257 -258 0
-193 -257 -259 0
-193 -257 -260 0
-193 -258 -259 0
-193 -258 -260 0
-193 -259 -260 0
-200 -220 -235 0
-200 -220 -257 0
-200 -220 -258 0
-200 -220 -259 0
-200 -220 -260 0
-200 -235 -257 0
-200 -235 -258 0
-200 -235 -259 0
-200 -235 -260 0
-200 -257 -258 0
-200 -257 -259 0
-200 -257 -260 0
-200 -258 -259 0
-200 -258 -260 0
-200 -259 -260 0
-220 -235 -257 0
-220 -235 -258 0
-220 -235 -259 0
-220 -235 -260 0
-220 -257 -258 0
-220 -257 -259 0
-220 -257 -260 0
-220 -258 -259 0
-220 -258 -260 0
-220 -259 -260 0
-235 -257 -258 0
-235 -257 -259 0
-235 -257 -260 0
-235 -258 -259 0
-235 -258 -260 0
-235 -259 -260 0
-257 -258 -259 0
-257 -258 -260 0
-257 -259 -260 0
-258 -259 -260 0
193 200 220 235 257 258 259 0
193 200 220 235 257 258 260 0
193 200 220 235 257 259 260 0
193 200 220 235 258 259 260 0
193 200 220 257 258 259 260 0
193 200 235 257 258 259 260 0
193 220 235 257 258 259 260 0
200 220 235 257 258 259 260 0
-23 -24 -25 0
-23 -24 -26 0
-23 -25 -26 0
-24 -25 -26 0
-95 -102 -123 0
-95 -102 -138 0
-95 -102 -164 0
-95 -102 -165 0
-95 -102 -166 0
-95 -102 -167 0
-95 -123 -138 0
-95 -123 -164 0
-95 -123 -165 0
-95 -123 -166 0
-95 -123 -167 0
-95 -138 -164 0
-95 -138 -165 0
-95 -138 -166 0
-95 -138 -167 0
-95 -164 -165 0
-95 -164 -166 0
-95 -164 -167 0
-95 -165 -166 0
-95 -165 -167 0
-95 -166 -167 0
-102 -123 -138 0
-102 -123 -164 0
-102 -123 -165 0
-102 -123 -166 0
-102 -123 -167 0
-102 -138 -164 0
-102 -138 -165 0
-102 -138 -166 0
-102 -138 -167 0
-102 -164 -165 0
-102 -164 -166 0
-102 -164 -167 0
-102 -165 -166 0
-102 -165 -167 0
-102 -166 -167 0
-123 -138 -164 0
-123 -138 -165 0
-123 -138 -166 0
-123 -138 -167 0
-123 -164 -165 0
-123 -164 -166 0
-123 -164 -167 0
-123 -165 -166 0
-123 -165 -167 0
-123 -166 -167 0
-138 -164 -165 0
-138 -164 -166 0
-138 -164 -167 0
-138 -165 -166 0
-138 -165 -167 0
-138 -166 -167 0
-164 -165 -166 0
-164 -165 -167 0
-164 -166 -167 0
-165 -166 -167 0
95 102 123 138 164 165 166 0
95 102 123 138 164 165 167 0
95 102 123 138 164 166 167 0
95 102 123 138 165 166 167 0
95 102 123 164 165 166 167 0
95 102 138 164 165 166 167 0
95 123 138 164 165 166 167 0
102 123 138 164 165 166 167 0
-125 -132 -153 0
-125 -132 -168 0
-125 -132 -194 0
-125 -132 -195 0
-125 -132 -196 0
-125 -132 -197 0
-125 -153 -168 0
-125 -153 -194 0
-125 -153 -195 0
-125 -153 -196 0
-125 -153 -197 0
-125 -168 -194 0
-125 -168 -195 0
-125 -168 -196 0
-125 -168 -197 0
-125 -194 -195 0
-125 -194 -196 0
-125 -194 -197 0
-125 -195 -196 0
-125 -195 -197 0
-125 -196 -197 0
-132 -153 -168 0
-132 -153 -194 0
-132 -153 -195 0
-132 -153 -196 0
-132 -153 -197 0
-132 -168 -194 0
-132 -168 -195 0
-132 -168 -196 0
-132 -168 -197 0
-132 -194 -195 0
-132 -194 -196 0
-132 -194 -197 0
-132 -195 -196 0
-132 -195 -197 0
-132 -196 -197 0
-153 -168 -194 0
-153 -168 -195 0
-153 -168 -196 0
-153 -168 -197 0
-153 -194 -195 0
-153 -194 -196 0
-153 -194 -197 0
-153 -195 -196 0
-153 -195 -197 0
-153 -196 -197 0
-168 -194 -195 0
-168 -194 -196 0
-168 -194 -197 0
-168 -195 -196 0
-168 -195 -197 0
-168 -196 -197 0
-194 -195 -196 0
-194 -195 -197 0
-194 -196 -197 0
-195 -196 -197 0
125 132 153 168 194 195 196 0
125 132 153 168 194 195 197 0
125 132 153 168 194 196 197 0
125 132 153 168 195 196 197 0
125 132 153 194 195 196 197 0
125 132 168 194 195 196 197 0
125 153 168 194 195 196 197 0
132 153 168 194 195 196 197 0
-83 -90 -112 0
-83 -90 -126 0
-83 -90 -152 0
-83 -90 -153 0
-83 -90 -154 0
-83 -90 -155 0
-83 -112 -126 0
-83 -112 -152 0
-83 -112 -153 0
-83 -112 -154 0
-83 -112 -155 0
-83 -126 -152 0
-83 -126 -153 0
-83 -126 -154 0
-83 -126 -155 0
-83 -152 -153 0
-83 -152 -154 0
-83 -152 -155 0
-83 -153 -154 0
-83 -153 -155 0
-83 -154 -155 0
-90 -112 -126 0
-90 -112 -152 0
-90 -112 -153 0
-90 -112 -154 0
-90 -112 -155 0
-90 -126 -152 0
-90 -126 -153 0
-90 -126 -154 0
-90 -126 -155 0
-90 -152 -153 0
-90 -152 -154 0
-90 -152 -155 0
-90 -153 -154 0
-90 -153 -155 0
-90 -154 -155 0
-112 -126 -152 0
-112 -126 -153 0
-112 -126 -154 0
-112 -126 -155 0
-112 -152 -153 0
-112 -152 -154 0
-112 -152 -155 0
-112 -153 -154 0
-112 -153 -155 0
-112 -154 -155 0
-126 -152 -153 0
-126 -152 -154 0
-126 -152 -155 0
-126 -153 -154 0
-126 -153 -155 0
-126 -154 -155 0
-152 -153 -154 0
-152 -153 -155 0
-152 -154 -155 0
-153 -154 -155 0
83 90 112 126 152 153 154 0
83 90 112 126 152 153 155 0
83 90 112 126 152 154 155 0
83 90 112 126 153 154 155 0
83 90 112 152 153 154 155 0
83 90 126 152 153 154 155 0
83 112 126 152 153 154 155 0
90 112 126 152 153 154 155 0
-150 -186 -214 0
-175 -203 -243 0
-4 -7 -18 0
-4 -7 -31 0
-4 -7 -54 0
-4 -7 -55 0
-4 -7 -56 0
-4 -7 -57 0
-4 -18 -31 0
-4 -18 -54 0
-4 -18 -55 0
-4 -18 -56 0
-4 -18 -57 0
-4 -31 -54 0
-4 -31 -55 0
-4 -31 -56 0
-4 -31 -57 0
-4 -54 -55 0
-4 -54 -56 0
-4 -54 -57 0
-4 -55 -56 0
-4 -55 -57 0
-4 -56 -57 0
-7 -18 -31 0
-7 -18 -54 0
-7 -18 -55 0
-7 -18 -56 0
-7 -18 -57 0
-7 -31 -54 0
-7 -31 -55 0
-7 -31 -56 0
-7 -31 -57 0
-7 -54 -55 0
-7 -54 -56 0
-7 -54 -57 0
-7 -55 -56 0
-7 -55 -57 0
-7 -56 -57 0
-18 -31 -54 0
-18 -31 -55 0
-18 -31 -56 0
-18 -31 -57 0
-18 -54 -55 0
-18 -54 -56 0
-18 -54 -57 0
-18 -55 -56 0
-18 -55 -57 0
-18 -56 -57 0
-31 -54 -55 0
-31 -54 -56 0
-31 -54 -57 0
-31 -55 -56 0
-31 -55 -57 0
-31 -56 -57 0
-54 -55 -56 0
-54 -55 -57 0
-54 -56 -57 0
-55 -56 -57 0
4 7 18 31 54 55 56 0
4 7 18 31 54 55 57 0
4 7 18 31 54 56 57 0
4 7 18 31 55 56 57 0
4 7 18 54 55 56 57 0
4 7 31 54 55 56 57 0
4 18 31 54 55 56 57 0
7 18 31 54 55 56 57 0
-37 -41 -63 0
-37 -41 -76 0
-37 -41 -104 0
-37 -41 -105 0
-37 -41 -106 0
-37 -41 -107 0
-37 -63 -76 0
-37 -63 -104 0
-37 -63 -105 0
-37 -63 -106 0
-37 -63 -107 0
-37 -76 -104 0
-37 -76 -105 0
-37 -76 -106 0
-37 -76 -107 0
-37 -104 -105 0
-37 -104 -106 0
-37 -104 -107 0
-37 -105 -106 0
-37 -105 -107 0
-37 -106 -107 0
-41 -63 -76 0
-41 -63 -104 0
-41 -63 -105 0
-41 -63 -106 0
-41 -63 -107 0
-41 -76 -104 0
-41 -76 -105 0
-41 -76 -106 0
-41 -76 -107 0
-41 -104 -105 0
-41 -104 -106 0
-41 -104 -107 0
-41 -105 -106 0
-41 -105 -107 0
-41 -106 -107 0
-63 -76 -104 0
-63 -76 -105 0
-63 -76 -106 0
-63 -76 -107 0
-63 -104 -105 0
-63 -104 -106 0
-63 -104 -107 0
-63 -105 -106 0
-63 -105 -107 0
-63 -106 -107 0
-76 -104 -105 0
-76 -104 -106 0
-76 -104 -107 0
-76 -105 -106 0
-76 -105 -107 0
-76 -106 -107 0
-104 -105 -106 0
-104 -105 -107 0
-104 -106 -107 0
-105 -106 -107 0
37 41 63 76 104 105 106 0
37 41 63 76 104 105 107 0
37 41 63 76 104 106 107 0
37 41 63 76 105 106 107 0
37 41 63 104 105 106 107 0
37 41 76 104 105 106 107 0
37 63 76 104 105 106 107 0
41 63 76 104 105 106 107 0
-65 -72 -93 0
-65 -72 -108 0
-65 -72 -134 0
-65 -72 -135 0
-65 -72 -136 0
-65 -72 -137 0
-65 -93 -108 0
-65 -93 -134 0
-65 -93 -135 0
-65 -93 -136 0
-65 -93 -137 0
-65 -108 -134 0
-65 -108 -135 0
-65 -108 -136 0
-65 -108 -137 0
-65 -134 -135 0
-65 -134 -136 0
-65 -134 -137 0
-65 -135 -136 0
-65 -135 -137 0
-65 -136 -137 0
-72 -93 -108 0
-72 -93 -134 0
-72 -93 -135 0
-72 -93 -136 0
-72 -93 -137 0
-72 -108 -134 0
-72 -108 -135 0
-72 -108 -136 0
-72 -108 -137 0
-72 -134 -135 0
-72 -134 -136 0
-72 -134 -137 0
-72 -135 -136 0
-72 -135 -137 0
-72 -136 -137 0
-93 -108 -134 0
-93 -108 -135 0
-93 -108 -136 0
-93 -108 -137 0
-93 -134 -135 0
-93 -134 -136 0
-93 -134 -137 0
-93 -135 -136 0
-93 -135 -137 0
-93 -136 -137 0
-108 -134 -135 0
-108 -134 -136 0
-108 -134 -137 0
-108 -135 -136 0
-108 -135 -137 0
-108 -136 -137 0
-134 -135 -136 0
-134 -135 -137 0
-134 -136 -137 0
-135 -136 -137 0
65 72 93 108 134 135 136 0
65 72 93 108 134 135 137 0
65 72 93 108 134 136 137 0
65 72 93 108 135 136 137 0
65 72 93 134 135 136 137 0
65 72 108 134 135 136 137 0
65 93 108 134 135 136 137 0
72 93 108 134 135 136 137 0
-26 -33 -51 0
-26 -33 -66 0
-26 -33 -92 0
-26 -33 -93 0
-26 -33 -94 0
-26 -33 -95 0
-26 -51 -66 0
-26 -51 -92 0
-26 -51 -93 0
-26 -51 -94 0
-26 -51 -95 0
-26 -66 -92 0
-26 -66 -93 0
-26 -66 -94 0
-26 -66 -95 0
-26 -92 -93 0
-26 -92 -94 0
-26 -92 -95 0
-26 -93 -94 0
-26 -93 -95 0
-26 -94 -95 0
-33 -51 -66 0
-33 -51 -92 0
-33 -51 -93 0
-33 -51 -94 0
-33 -51 -95 0
-33 -66 -92 0
-33 -66 -93 0
-33 -66 -94 0
-33 -66 -95 0
-33 -92 -93 0
-33 -92 -94 0
-33 -92 -95 0
-33 -93 -94 0
-33 -93 -95 0
-33 -94 -95 0
-51 -66 -92 0
-51 -66 -93 0
-51 -66 -94 0
-51 -66 -95 0
-51 -92 -93 0
-51 -92 -94 0
-51 -92 -95 0
-51 -93 -94 0
-51 -93 -95 0
-51 -94 -95 0
-66 -92 -93 0
-66 -92 -94 0
-66 -92 -95 0
-66 -93 -94 0
-66 -93 -95 0
-66 -94 -95 0
-92 -93 -94 0
-92 -93 -95 0
-92 -94 -95 0
-93 -94 -95 0
26 33 51 66 92 93 94 0
26 33 51 66 92 93 95 0
26 33 51 66 92 94 95 0
26 33 51 66 93 94 95 0
26 33 51 92 93 94 95 0
26 33 66 92 93 94 95 0
26 51 66 92 93 94 95 0
33 51 66 92 93 94 95 0
-201 -208 -228 0
-201 -208 -243 0
-201 -208 -265 0
-201 -208 -266 0
-201 -208 -267 0
-201 -208 -268 0
-201 -228 -243 0
-201 -228 -265 0
-201 -228 -266 0
-201 -228 -267 0
-201 -228 -268 0
-201 -243 -265 0
-201 -243 -266 0
-201 -243 -267 0
-201 -243 -268 0
-201 -265 -266 0
-201 -265 -267 0
-201 -265 -268 0
-201 -266 -267 0
-201 -266 -268 0
-201 -267 -268 0
-208 -228 -243 0
-208 -228 -265 0
-208 -228 -266 0
-208 -228 -267 0
-208 -228 -268 0
-208 -243 -265 0
-208 -243 -266 0
-208 -243 -267 0
-208 -243 -268 0
-208 -265 -266 0
-208 -265 -267 0
-208 -265 -268 0
-208 -266 -267 0
-208 -266 -268 0
-208 -267 -268 0
-228 -243 -265 0
-228 -243 -266 0
-228 -243 -267 0
-228 -243 -268 0
-228 -265 -266 0
-228 -265 -267 0
-228 -265 -268 0
-228 -266 -267 0
-228 -266 -268 0
-228 -267 -268 0
-243 -265 -266 0
-243 -265 -267 0
-243 -265 -268 0
-243 -266 -267 0
-243 -266 -268 0
-243 -267 -268 0
-265 -266 -267 0
-265 -266 -268 0
-265 -267 -268 0
-266 -267 -268 0
201 208 228 243 265 266 267 0
201 208 228 243 265 266 268 0
201 208 228 243 265 267 268 0
201 208 228 243 266 267 268 0
201 208 228 265 266 267 268 0
201 208 243 265 266 267 268 0
201 228 243 265 266 267 268 0
208 228 243 265 266 267 268 0
-31 -32 -33 0
-31 -32 -34 0
-31 -33 -34 0
-32 -33 -34 0
-20 -21 -22 0
-133 -140 -161 0
-133 -140 -176 0
-133 -140 -202 0
-133 -140 -203 0
-133 -140 -204 0
-133 -140 -205 0
-133 -161 -176 0
-133 -161 -202 0
-133 -161 -203 0
-133 -161 -204 0
-133 -161 -205 0
-133 -176 -202 0
-133 -176 -203 0
-133 -176 -204 0
-133 -176 -205 0
-133 -202 -203 0
-133 -202 -204 0
-133 -202 -205 0
-133 -203 -204 0
-133 -203 -205 0
-133 -204 -205 0
-140 -161 -176 0
-140 -161 -202 0
-140 -161 -203 0
-140 -161 -204 0
-140 -161 -205 0
-140 -176 -202 0
-140 -176 -203 0
-140 -176 -204 0
-140 -176 -205 0
-140 -202 -203 0
-140 -202 -204 0
-140 -202 -205 0
-140 -203 -204 0
-140 -203 -205 0
-140 -204 -205 0
-161 -176 -202 0
-161 -176 -203 0
-161 -176 -204 0
-161 -176 -205 0
-161 -202 -203 0
-161 -202 -204 0
-161 -202 -205 0
-161 -203 -204 0
-161 -203 -205 0
-161 -204 -205 0
-176 -202 -203 0
-176 -202 -204 0
-176 -202 -205 0
-176 -203 -204 0
-176 -203 -205 0
-176 -204 -205 0
-202 -203 -204 0
-202 -203 -205 0
-202 -204 -205 0
-203 -204 -205 0
133 140 161 176 202 203 204 0
133 140 161 176 202 203 205 0
133 140 161 176 202 204 205 0
133 140 161 176 203 204 205 0
133 140 161 202 203 204 205 0
133 140 176 202 203 204 205 0
133 161 176 202 203 204 205 0
140 161 176 202 203 204 205 0
-91 -98 -119 0
-91 -98 -134 0
-91 -98 -160 0
-91 -98 -161 0
-91 -98 -162 0
-91 -98 -163 0
-91 -119 -134 0
-91 -119 -160 0
-91 -119 -161 0
-91 -119 -162 0
-91 -119 -163 0
-91 -134 -160 0
-91 -134 -161 0
-91 -134 -162 0
-91 -134 -163 0
-91 -160 -161 0
-91 -160 -162 0
-91 -160 -163 0
-91 -161 -162 0
-91 -161 -163 0
-91 -162 -163 0
-98 -119 -134 0
-98 -119 -160 0
-98 -119 -161 0
-98 -119 -162 0
-98 -119 -163 0
-98 -134 -160 0
-98 -134 -161 0
-98 -134 -162 0
-98 -134 -163 0
-98 -160 -161 0
-98 -160 -162 0
-98 -160 -163 0
-98 -161 -162 0
-98 -161 -163 0
-98 -162 -163 0
-119 -134 -160 0
-119 -134 -161 0
-119 -134 -162 0
-119 -134 -163 0
-119 -160 -161 0
-119 -160 -162 0
-119 -160 -163 0
-119 -161 -162 0
-119 -161 -163 0
-119 -162 -163 0
-134 -160 -161 0
-134 -160 -162 0
-134 -160 -163 0
-134 -161 -162 0
-134 -161 -163 0
-134 -162 -163 0
-160 -161 -162 0
-160 -161 -163 0
-160 -162 -163 0
-161 -162 -163 0
91 98 119 134 160 161 162 0
91 98 119 134 160 161 163 0
91 98 119 134 160 162 163 0
91 98 119 134 161 162 163 0
91 98 119 160 161 162 163 0
91 98 134 160 161 162 163 0
91 119 134 160 161 162 163 0
98 119 134 160 161 162 163 0
-147 -154 -179 0
-147 -154 -190 0
-147 -154 -215 0
-147 -154 -216 0
-147 -154 -217 0
-147 -154 -218 0
-147 -179 -190 0
-147 -179 -215 0
-147 -179 -216 0
-147 -179 -217 0
-147 -179 -218 0
-147 -190 -215 0
-147 -190 -216 0
-147 -190 -217 0
-147 -190 -218 0
-147 -215 -216 0
-147 -215 -217 0
-147 -215 -218 0
-147 -216 -217 0
-147 -216 -218 0
-147 -217 -218 0
-154 -179 -190 0
-154 -179 -215 0
-154 -179 -216 0
-154 -179 -217 0
-154 -179 -218 0
-154 -190 -215 0
-154 -190 -216 0
-154 -190 -217 0
-154 -190 -218 0
-154 -215 -216 0
-154 -215 -217 0
-154 -215 -218 0
-154 -216 -217 0
-154 -216 -218 0
-154 -217 -218 0
-179 -190 -215 0
-179 -190 -216 0
-179 -190 -217 0
-179 -190 -218 0
-179 -215 -216 0
-179 -215 -217 0
-179 -215 -218 0
-179 -216 -217 0
-179 -216 -218 0
-179 -217 -218 0
-190 -215 -216 0
-190 -215 -217 0
-190 -215 -218 0
-190 -216 -217 0
-190 -216 -218 0
-190 -217 -218 0
-215 -216 -217 0
-215 -216 -218 0
-215 -217 -218 0
-216 -217 -218 0
147 154 179 190 215 216 217 0
147 154 179 190 215 216 218 0
147 154 179 190 215 217 218 0
147 154 179 190 216 217 218 0
147 154 179 215 216 217 218 0
147 154 190 215 216 217 218 0
147 179 190 215 216 217 218 0
154 179 190 215 216 217 218 0
-2 -5 -16 0
-2 -5 -27 0
-2 -5 -50 0
-2 -5 -51 0
-2 -5 -52 0
-2 -5 -53 0
-2 -16 -27 0
-2 -16 -50 0
-2 -16 -51 0
-2 -16 -52 0
-2 -16 -53 0
-2 -27 -50 0
-2 -27 -51 0
-2 -27 -52 0
-2 -27 -53 0
-2 -50 -51 0
-2 -50 -52 0
-2 -50 -53 0
-2 -51 -52 0
-2 -51 -53 0
-2 -52 -53 0
-5 -16 -27 0
-5 -16 -50 0
-5 -16 -51 0
-5 -16 -52 0
-5 -16 -53 0
-5 -27 -50 0
-5 -27 -51 0
-5 -27 -52 0
-5 -27 -53 0
-5 -50 -51 0
-5 -50 -52 0
-5 -50 -53 0
-5 -51 -52 0
-5 -51 -53 0
-5 -52 -53 0
-16 -27 -50 0
-16 -27 -51 0
-16 -27 -52 0
-16 -27 -53 0
-16 -50 -51 0
-16 -50 -52 0
-16 -50 -53 0
-16 -51 -52 0
-16 -51 -53 0
-16 -52 -53 0
-27 -50 -51 0
-27 -50 -52 0
-27 -50 -53 0
-27 -51 -52 0
-27 -51 -53 0
-27 -52 -53 0
-50 -51 -52 0
-50 -51 -53 0
-50 -52 -53 0
-51 -52 -53 0
2 5 16 27 50 51 52 0
2 5 16 27 50 51 53 0
2 5 16 27 50 52 53 0
2 5 16 27 51 52 53 0
2 5 16 50 51 52 53 0
2 5 27 50 51 52 53 0
2 16 27 50 51 52 53 0
5 16 27 50 51 52 53 0
-48 -84 -112 0
-48 -84 -113 0
-48 -112 -113 0
-84 -112 -113 0
-73 -101 -142 0
-73 -101 -143 0
-73 -142 -143 0
-101 -142 -143 0
-34 -39 -59 0
-34 -39 -74 0
-34 -39 -100 0
-34 -39 -101 0
-34 -39 -102 0
-34 -39 -103 0
-34 -59 -74 0
-34 -59 -100 0
-34 -59 -101 0
-34 -59 -102 0
-34 -59 -103 0
-34 -74 -100 0
-34 -74 -101 0
-34 -74 -102 0
-34 -74 -103 0
-34 -100 -101 0
-34 -100 -102 0
-34 -100 -103 0
-34 -101 -102 0
-34 -101 -103 0
-34 -102 -103 0
-39 -59 -74 0
-39 -59 -100 0
-39 -59 -101 0
-39 -59 -102 0
-39 -59 -103 0
-39 -74 -100 0
-39 -74 -101 0
-39 -74 -102 0
-39 -74 -103 0
-39 -100 -101 0
-39 -100 -102 0
-39 -100 -103 0
-39 -101 -102 0
-39 -101 -103 0
-39 -102 -103 0
-59 -74 -100 0
-59 -74 -101 0
-59 -74 -102 0
-59 -74 -103 0
-59 -100 -101 0
-59 -100 -102 0
-59 -100 -103 0
-59 -101 -102 0
-59 -101 -103 0
-59 -102 -103 0
-74 -100 -101 0
-74 -100 -102 0
-74 -100 -103 0
-74 -101 -102 0
-74 -101 -103 0
-74 -102 -103 0
-100 -101 -102 0
-100 -101 -103 0
-100 -102 -103 0
-101 -102 -103 0
34 39 59 74 100 101 102 0
34 39 59 74 100 101 103 0
34 39 59 74 100 102 103 0
34 39 59 74 101 102 103 0
34 39 59 100 101 102 103 0
34 39 74 100 101 102 103 0
34 59 74 100 101 102 103 0
39 59 74 100 101 102 103 0
-185 -192 -214 0
-185 -192 -227 0
-185 -192 -249 0
-185 -192 -250 0
-185 -192 -251 0
-185 -192 -252 0
-185 -214 -227 0
-185 -214 -249 0
-185 -214 -250 0
-185 -214 -251 0
-185 -214 -252 0
-185 -227 -249 0
-185 -227 -250 0
-185 -227 -251 0
-185 -227 -252 0
-185 -249 -250 0
-185 -249 -251 0
-185 -249 -252 0
-185 -250 -251 0
-185 -250 -252 0
-185 -251 -252 0
-192 -214 -227 0
-192 -214 -249 0
-192 -214 -250 0
-192 -214 -251 0
-192 -214 -252 0
-192 -227 -249 0
-192 -227 -250 0
-192 -227 -251 0
-192 -227 -252 0
-192 -249 -250 0
-192 -249 -251 0
-192 -249 -252 0
-192 -250 -251 0
-192 -250 -252 0
-192 -251 -252 0
-214 -227 -249 0
-214 -227 -250 0
-214 -227 -251 0
-214 -227 -252 0
-214 -249 -250 0
-214 -249 -251 0
-214 -249 -252 0
-214 -250 -251 0
-214 -250 -252 0
-214 -251 -252 0
-227 -249 -250 0
-227 -249 -251 0
-227 -249 -252 0
-227 -250 -251 0
-227 -250 -252 0
-227 -251 -252 0
-249 -250 -251 0
-249 -250 -252 0
-249 -251 -252 0
-250 -251 -252 0
185 192 214 227 249 250 251 0
185 192 214 227 249 250 252 0
185 192 214 227 249 251 252 0
185 192 214 227 250 251 252 0
185 192 214 249 250 251 252 0
185 192 227 249 250 251 252 0
185 214 227 249 250 251 252 0
192 214 227 249 250 251 252 0
-27 -28 -29 0
-27 -28 -30 0
-27 -29 -30 0
-28 -29 -30 0
-116 -152 -180 0
-116 -152 -181 0
-116 -180 -181 0
-152 -180 -181 0
-141 -169 -210 0
-141 -169 -211 0
-141 -210 -211 0
-169 -210 -211 0
-99 -106 -127 0
-99 -106 -142 0
-99 -106 -168 0
-99 -106 -169 0
-99 -106 -170 0
-99 -106 -171 0
-99 -127 -142 0
-99 -127 -168 0
-99 -127 -169 0
-99 -127 -170 0
-99 -127 -171 0
-99 -142 -168 0
-99 -142 -169 0
-99 -142 -170 0
-99 -142 -171 0
-99 -168 -169 0
-99 -168 -170 0
-99 -168 -171 0
-99 -169 -170 0
-99 -169 -171 0
-99 -170 -171 0
-106 -127 -142 0
-106 -127 -168 0
-106 -127 -169 0
-106 -127 -170 0
-106 -127 -171 0
-106 -142 -168 0
-106 -142 -169 0
-106 -142 -170 0
-106 -142 -171 0
-106 -168 -169 0
-106 -168 -170 0
-106 -168 -171 0
-106 -169 -170 0
-106 -169 -171 0
-106 -170 -171 0
-127 -142 -168 0
-127 -142 -169 0
-127 -142 -170 0
-127 -142 -171 0
-127 -168 -169 0
-127 -168 -170 0
-127 -168 -171 0
-127 -169 -170 0
-127 -169 -171 0
-127 -170 -171 0
-142 -168 -169 0
-142 -168 -170 0
-142 -168 -171 0
-142 -169 -170 0
-142 -169 -171 0
-142 -170 -171 0
-168 -169 -170 0
-168 -169 -171 0
-168 -170 -171 0
-169 -170 -171 0
99 106 127 142 168 169 170 0
99 106 127 142 168 169 171 0
99 106 127 142 168 170 171 0
99 106 127 142 169 170 171 0
99 106 127 168 169 170 171 0
99 106 142 168 169 170 171 0
99 127 142 168 169 170 171 0
106 127 142 168 169 170 171 0
-155 -162 -183 0
-155 -162 -198 0
-155 -162 -223 0
-155 -162 -224 0
-155 -162 -225 0
-155 -162 -226 0
-155 -183 -198 0
-155 -183 -223 0
-155 -183 -224 0
-155 -183 -225 0
-155 -183 -226 0
-155 -198 -223 0
-155 -198 -224 0
-155 -198 -225 0
-155 -198 -226 0
-155 -223 -224 0
-155 -223 -225 0
-155 -223 -226 0
-155 -224 -225 0
-155 -224 -226 0
-155 -225 -226 0
-162 -183 -198 0
-162 -183 -223 0
-162 -183 -224 0
-162 -183 -225 0
-162 -183 -226 0
-162 -198 -223 0
-162 -198 -224 0
-162 -198 -225 0
-162 -198 -226 0
-162 -223 -224 0
-162 -223 -225 0
-162 -223 -226 0
-162 -224 -225 0
-162 -224 -226 0
-162 -225 -226 0
-183 -198 -223 0
-183 -198 -224 0
-183 -198 -225 0
-183 -198 -226 0
-183 -223 -224 0
-183 -223 -225 0
-183 -223 -226 0
-183 -224 -225 0
-183 -224 -226 0
-183 -225 -226 0
-198 -223 -224 0
-198 -223 -225 0
-198 -223 -226 0
-198 -224 -225 0
-198 -224 -226 0
-198 -225 -226 0
-223 -224 -225 0
-223 -224 -226 0
-223 -225 -226 0
-224 -225 -226 0
155 162 183 198 223 224 225 0
155 162 183 198 223 224 226 0
155 162 183 198 223 225 226 0
155 162 183 198 224 225 226 0
155 162 183 223 224 225 226 0
155 162 198 223 224 225 226 0
155 183 198 223 224 225 226 0
162 183 198 223 224 225 226 0
-129 -136 -157 0
-129 -136 -172 0
-129 -136 -198 0
-129 -136 -199 0
-129 -136 -200 0
-129 -136 -201 0
-129 -157 -172 0
-129 -157 -198 0
-129 -157 -199 0
-129 -157 -200 0
-129 -157 -201 0
-129 -172 -198 0
-129 -172 -199 0
-129 -172 -200 0
-129 -172 -201 0
-129 -198 -199 0
-129 -198 -200 0
-129 -198 -201 0
-129 -199 -200 0
-129 -199 -201 0
-129 -200 -201 0
-136 -157 -172 0
-136 -157 -198 0
-136 -157 -199 0
-136 -157 -200 0
-136 -157 -201 0
-136 -172 -198 0
-136 -172 -199 0
-136 -172 -200 0
-136 -172 -201 0
-136 -198 -199 0
-136 -198 -200 0
-136 -198 -201 0
-136 -199 -200 0
-136 -199 -201 0
-136 -200 -201 0
-157 -172 -198 0
-157 -172 -199 0
-157 -172 -200 0
-157 -172 -201 0
-157 -198 -199 0
-157 -198 -200 0
-157 -198 -201 0
-157 -199 -200 0
-157 -199 -201 0
-157 -200 -201 0
-172 -198 -199 0
-172 -198 -200 0
-172 -198 -201 0
-172 -199 -200 0
-172 -199 -201 0
-172 -200 -201 0
-198 -199 -200 0
-198 -199 -201 0
-198 -200 -201 0
-199 -200 -201 0
129 136 157 172 198 199 200 0
129 136 157 172 198 199 201 0
129 136 157 172 198 200 201 0
129 136 157 172 199 200 201 0
129 136 157 198 199 200 201 0
129 136 172 198 199 200 201 0
129 157 172 198 199 200 201 0
136 157 172 198 199 200 201 0
-19 -25 -44 0
-19 -25 -58 0
-19 -25 -84 0
-19 -25 -85 0
-19 -25 -86 0
-19 -25 -87 0
-19 -44 -58 0
-19 -44 -84 0
-19 -44 -85 0
-19 -44 -86 0
-19 -44 -87 0
-19 -58 -84 0
-19 -58 -85 0
-19 -58 -86 0
-19 -58 -87 0
-19 -84 -85 0
-19 -84 -86 0
-19 -84 -87 0
-19 -85 -86 0
-19 -85 -87 0
-19 -86 -87 0
-25 -44 -58 0
-25 -44 -84 0
-25 -44 -85 0
-25 -44 -86 0
-25 -44 -87 0
-25 -58 -84 0
-25 -58 -85 0
-25 -58 -86 0
-25 -58 -87 0
-25 -84 -85 0
-25 -84 -86 0
-25 -84 -87 0
-25 -85 -86 0
-25 -85 -87 0
-25 -86 -87 0
-44 -58 -84 0
-44 -58 -85 0
-44 -58 -86 0
-44 -58 -87 0
-44 -84 -85 0
-44 -84 -86 0
-44 -84 -87 0
-44 -85 -86 0
-44 -85 -87 0
-44 -86 -87 0
-58 -84 -85 0
-58 -84 -86 0
-58 -84 -87 0
-58 -85 -86 0
-58 -85 -87 0
-58 -86 -87 0
-84 -85 -86 0
-84 -85 -87 0
-84 -86 -87 0
-85 -86 -87 0
19 25 44 58 84 85 86 0
19 25 44 58 84 85 87 0
19 25 44 58 84 86 87 0
19 25 44 58 85 86 87 0
19 25 44 84 85 86 87 0
19 25 58 84 85 86 87 0
19 44 58 84 85 86 87 0
25 44 58 84 85 86 87 0
-6 -9 -20 0
-6 -9 -35 0
-6 -9 -58 0
-6 -9 -59 0
-6 -9 -60 0
-6 -9 -61 0
-6 -20 -35 0
-6 -20 -58 0
-6 -20 -59 0
-6 -20 -60 0
-6 -20 -61 0
-6 -35 -58 0
-6 -35 -59 0
-6 -35 -60 0
-6 -35 -61 0
-6 -58 -59 0
-6 -58 -60 0
-6 -58 -61 0
-6 -59 -60 0
-6 -59 -61 0
-6 -60 -61 0
-9 -20 -35 0
-9 -20 -58 0
-9 -20 -59 0
-9 -20 -60 0
-9 -20 -61 0
-9 -35 -58 0
-9 -35 -59 0
-9 -35 -60 0
-9 -35 -61 0
-9 -58 -59 0
-9 -58 -60 0
-9 -58 -61 0
-9 -59 -60 0
-9 -59 -61 0
-9 -60 -61 0
-20 -35 -58 0
-20 -35 -59 0
-20 -35 -60 0
-20 -35 -61 0
-20 -58 -59 0
-20 -58 -60 0
-20 -58 -61 0
-20 -59 -60 0
-20 -59 -61 0
-20 -60 -61 0
-35 -58 -59 0
-35 -58 -60 0
-35 -58 -61 0
-35 -59 -60 0
-35 -59 -61 0
-35 -60 -61 0
-58 -59 -60 0
-58 -59 -61 0
-58 -60 -61 0
-59 -60 -61 0
6 9 20 35 58 59 60 0
6 9 20 35 58 59 61 0
6 9 20 35 58 60 61 0
6 9 20 35 59 60 61 0
6 9 20 58 59 60 61 0
6 9 35 58 59 60 61 0
6 20 35 58 59 60 61 0
9 20 35 58 59 60 61 0
-45 -52 -77 0
-45 -52 -88 0
-45 -52 -114 0
-45 -52 -115 0
-45 -52 -116 0
-45 -52 -117 0
-45 -77 -88 0
-45 -77 -114 0
-45 -77 -115 0
-45 -77 -116 0
-45 -77 -117 0
-45 -88 -114 0
-45 -88 -115 0
-45 -88 -116 0
-45 -88 -117 0
-45 -114 -115 0
-45 -114 -116 0
-45 -114 -117 0
-45 -115 -116 0
-45 -115 -117 0
-45 -116 -117 0
-52 -77 -88 0
-52 -77 -114 0
-52 -77 -115 0
-52 -77 -116 0
-52 -77 -117 0
-52 -88 -114 0
-52 -88 -115 0
-52 -88 -116 0
-52 -88 -117 0
-52 -114 -115 0
-52 -114 -116 0
-52 -114 -117 0
-52 -115 -116 0
-52 -115 -117 0
-52 -116 -117 0
-77 -88 -114 0
-77 -88 -115 0
-77 -88 -116 0
-77 -88 -117 0
-77 -114 -115 0
-77 -114 -116 0
-77 -114 -117 0
-77 -115 -116 0
-77 -115 -117 0
-77 -116 -117 0
-88 -114 -115 0
-88 -114 -116 0
-88 -114 -117 0
-88 -115 -116 0
-88 -115 -117 0
-88 -116 -117 0
-114 -115 -116 0
-114 -115 -117 0
-114 -116 -117 0
-115 -116 -117 0
45 52 77 88 114 115 116 0
45 52 77 88 114 115 117 0
45 52 77 88 114 116 117 0
45 52 77 88 115 116 117 0
45 52 77 114 115 116 117 0
45 52 88 114 115 116 117 0
45 77 88 114 115 116 117 0
52 77 88 114 115 116 117 0
-50 -78 -79 0
-67 -108 -109 0
-69 -75 -97 0
-69 -75 -110 0
-69 -75 -138 0
-69 -75 -139 0
-69 -75 -140 0
-69 -75 -141 0
-69 -97 -110 0
-69 -97 -138 0
-69 -97 -139 0
-69 -97 -140 0
-69 -97 -141 0
-69 -110 -138 0
-69 -110 -139 0
-69 -110 -140 0
-69 -110 -141 0
-69 -138 -139 0
-69 -138 -140 0
-69 -138 -141 0
-69 -139 -140 0
-69 -139 -141 0
-69 -140 -141 0
-75 -97 -110 0
-75 -97 -138 0
-75 -97 -139 0
-75 -97 -140 0
-75 -97 -141 0
-75 -110 -138 0
-75 -110 -139 0
-75 -110 -140 0
-75 -110 -141 0
-75 -138 -139 0
-75 -138 -140 0
-75 -138 -141 0
-75 -139 -140 0
-75 -139 -141 0
-75 -140 -141 0
-97 -110 -138 0
-97 -110 -139 0
-97 -110 -140 0
-97 -110 -141 0
-97 -138 -139 0
-97 -138 -140 0
-97 -138 -141 0
-97 -139 -140 0
-97 -139 -141 0
-97 -140 -141 0
-110 -138 -139 0
-110 -138 -140 0
-110 -138 -141 0
-110 -139 -140 0
-110 -139 -141 0
-110 -140 -141 0
-138 -139 -140 0
-138 -139 -141 0
-138 -140 -141 0
-139 -140 -141 0
69 75 97 110 138 139 140 0
69 75 97 110 138 139 141 0
69 75 97 110 138 140 141 0
69 75 97 110 139 140 141 0
69 75 97 138 139 140 141 0
69 75 110 138 139 140 141 0
69 97 110 138 139 140 141 0
75 97 110 138 139 140 141 0
-222 -229 -246 0
-222 -229 -261 0
-222 -246 -261 0
-229 -246 -261 0
-181 -188 -213 0
-181 -188 -223 0
-181 -188 -245 0
-181 -188 -246 0
-181 -188 -247 0
-181 -188 -248 0
-181 -213 -223 0
-181 -213 -245 0
-181 -213 -246 0
-181 -213 -247 0
-181 -213 -248 0
-181 -223 -245 0
-181 -223 -246 0
-181 -223 -247 0
-181 -223 -248 0
-181 -245 -246 0
-181 -245 -247 0
-181 -245 -248 0
-181 -246 -247 0
-181 -246 -248 0
-181 -247 -248 0
-188 -213 -223 0
-188 -213 -245 0
-188 -213 -246 0
-188 -213 -247 0
-188 -213 -248 0
-188 -223 -245 0
-188 -223 -246 0
-188 -223 -247 0
-188 -223 -248 0
-188 -245 -246 0
-188 -245 -247 0
-188 -245 -248 0
-188 -246 -247 0
-188 -246 -248 0
-188 -247 -248 0
-213 -223 -245 0
-213 -223 -246 0
-213 -223 -247 0
-213 -223 -248 0
-213 -245 -246 0
-213 -245 -247 0
-213 -245 -248 0
-213 -246 -247 0
-213 -246 -248 0
-213 -247 -248 0
-223 -245 -246 0
-223 -245 -247 0
-223 -245 -248 0
-223 -246 -247 0
-223 -246 -248 0
-223 -247 -248 0
-245 -246 -247 0
-245 -246 -248 0
-245 -247 -248 0
-246 -247 -248 0
181 188 213 223 245 246 247 0
181 188 213 223 245 246 248 0
181 188 213 223 245 247 248 0
181 188 213 223 246 247 248 0
181 188 213 245 246 247 248 0
181 188 223 245 246 247 248 0
181 213 223 245 246 247 248 0
188 213 223 245 246 247 248 0
-35 -36 -37 0
-1 -16 0
-2 -3 0
-2 -18 0
-2 -21 0
-2 -23 0
-3 -16 0
-3 -18 0
-3 -19 0
-4 -5 0
-4 -20 0
-4 -23 0
-4 -25 0
-4 -27 0
-5 -18 0
-5 -20 0
-5 -22 0
-5 -23 0
-6 -7 0
-6 -24 0
-6 -27 0
-6 -29 0
-6 -31 0
-7 -20 0
-7 -24 0
-7 -26 0
-7 -27 0
-8 -9 0
-8 -28 0
-8 -31 0
-8 -33 0
-8 -35 0
-9 -24 0
-9 -28 0
-9 -30 0
-9 -31 0
-10 -11 0
-10 -32 0
-10 -35 0
-10 -36 0
-10 -38 0
-11 -28 0
-11 -32 0
-11 -34 0
-11 -35 0
-12 -13 0
-12 -38 0
-12 -39 0
-12 -40 0
-13 -32 0
-13 -37 0
-13 -38 0
-14 -40 0
-15 -17 0
-16 -19 0
-16 -21 0
-16 -23 0
-17 -44 0
-17 -46 0
-17 -48 0
-17 -50 0
-18 -21 0
-18 -22 0
-18 -23 0
-18 -25 0
-18 -27 0
-19 -21 0
-19 -23 0
-19 -47 0
-19 -50 0
-19 -52 0
-19 -54 0
-20 -23 0
-20 -25 0
-20 -26 0
-20 -27 0
-20 -29 0
-20 -31 0
-21 -23 0
-21 -44 0
-21 -47 0
-21 -49 0
-21 -50 0
-22 -23 0
-22 -25 0
-22 -27 0
-22 -51 0
-22 -54 0
-22 -56 0
-22 -58 0
-24 -27 0
-24 -29 0
-24 -30 0
-24 -31 0
-24 -33 0
-24 -35 0
-25 -27 0
-25 -47 0
-25 -51 0
-25 -53 0
-25 -54 0
-26 -27 0
-26 -29 0
-26 -31 0
-26 -55 0
-26 -58 0
-26 -60 0
-26 -62 0
-28 -31 0
-28 -33 0
-28 -34 0
-28 -35 0
-28 -36 0
-28 -38 0
-29 -31 0
-29 -51 0
-29 -55 0
-29 -57 0
-29 -58 0
-30 -31 0
-30 -33 0
-30 -35 0
-30 -59 0
-30 -62 0
-30 -64 0
-30 -66 0
-32 -35 0
-32 -36 0
-32 -37 0
-32 -38 0
-32 -39 0
-32 -40 0
-33 -35 0
-33 -55 0
-33 -59 0
-33 -61 0
-33 -62 0
-34 -35 0
-34 -36 0
-34 -38 0
-34 -63 0
-34 -66 0
-34 -68 0
-34 -70 0
-36 -38 0
-36 -59 0
-36 -63 0
-36 -65 0
-36 -66 0
-37 -38 0
-37 -39 0
-37 -40 0
-37 -67 0
-37 -70 0
-37 -72 0
-37 -74 0
-39 -40 0
-39 -63 0
-39 -67 0
-39 -69 0
-39 -70 0
-41 -42 0
-41 -67 0
-41 -71 0
-41 -73 0
-41 -74 0
-43 -45 0
-43 -46 0
-43 -48 0
-43 -50 0
-44 -46 0
-44 -48 0
-44 -49 0
-44 -50 0
-44 -52 0
-44 -54 0
-45 -46 0
-45 -48 0
-45 -50 0
-45 -78 0
-45 -80 0
-45 -82 0
-45 -84 0
-47 -50 0
-47 -52 0
-47 -53 0
-47 -54 0
-47 -56 0
-47 -58 0
-48 -50 0
-48 -77 0
-48 -78 0
-48 -79 0
-48 -80 0
-49 -50 0
-49 -52 0
-49 -54 0
-49 -81 0
-49 -84 0
-49 -86 0
-49 -88 0
-51 -54 0
-51 -56 0
-51 -57 0
-51 -58 0
-51 -60 0
-51 -62 0
-52 -54 0
-52 -78 0
-52 -81 0
-52 -83 0
-52 -84 0
-53 -54 0
-53 -56 0
-53 -58 0
-53 -85 0
-53 -88 0
-53 -90 0
-53 -92 0
-55 -58 0
-55 -60 0
-55 -61 0
-55 -62 0
-55 -64 0
-55 -66 0
-56 -58 0
-56 -81 0
-56 -85 0
-56 -87 0
-56 -88 0
-57 -58 0
-57 -60 0
-57 -62 0
-57 -89 0
-57 -92 0
-57 -94 0
-57 -96 0
-59 -62 0
-59 -64 0
-59 -65 0
-59 -66 0
-59 -68 0
-59 -70 0
-60 -62 0
-60 -85 0
-60 -89 0
-60 -91 0
-60 -92 0
-61 -62 0
-61 -64 0
-61 -66 0
-61 -93 0
-61 -96 0
-61 -98 0
-61 -100 0
-63 -66 0
-63 -68 0
-63 -69 0
-63 -70 0
-63 -72 0
-63 -74 0
-64 -66 0
-64 -89 0
-64 -93 0
-64 -95 0
-64 -96 0
-65 -66 0
-65 -68 0
-65 -70 0
-65 -97 0
-65 -100 0
-65 -102 0
-65 -104 0
-67 -70 0
-67 -72 0
-67 -73 0
-67 -74 0
-67 -75 0
-67 -76 0
-68 -70 0
-68 -93 0
-68 -97 0
-68 -99 0
-68 -100 0
-69 -70 0
-69 -72 0
-69 -74 0
-69 -101 0
-69 -104 0
-69 -106 0
-69 -108 0
-71 -74 0
-71 -75 0
-71 -76 0
-72 -74 0
-72 -97 0
-72 -101 0
-72 -103 0
-72 -104 0
-73 -74 0
-73 -75 0
-73 -76 0
-73 -105 0
-73 -108 0
-73 -109 0
-73 -110 0
-75 -76 0
-75 -101 0
-75 -105 0
-75 -107 0
-75 -108 0
-77 -79 0
-77 -80 0
-77 -82 0
-77 -84 0
-78 -80 0
-78 -82 0
-78 -83 0
-78 -84 0
-78 -86 0
-78 -88 0
-79 -80 0
-79 -82 0
-79 -84 0
-79 -112 0
-79 -114 0
-79 -116 0
-79 -118 0
-81 -84 0
-81 -86 0
-81 -87 0
-81 -88 0
-81 -90 0
-81 -92 0
-82 -84 0
-82 -111 0
-82 -112 0
-82 -113 0
-82 -114 0
-83 -84 0
-83 -86 0
-83 -88 0
-83 -115 0
-83 -118 0
-83 -120 0
-83 -122 0
-85 -88 0
-85 -90 0
-85 -91 0
-85 -92 0
-85 -94 0
-85 -96 0
-86 -88 0
-86 -112 0
-86 -115 0
-86 -117 0
-86 -118 0
-87 -88 0
-87 -90 0
-87 -92 0
-87 -119 0
-87 -122 0
-87 -124 0
-87 -126 0
-89 -92 0
-89 -94 0
-89 -95 0
-89 -96 0
-89 -98 0
-89 -100 0
-90 -92 0
-90 -115 0
-90 -119 0
-90 -121 0
-90 -122 0
-91 -92 0
-91 -94 0
-91 -96 0
-91 -123 0
-91 -126 0
-91 -128 0
-91 -130 0
-93 -96 0
-93 -98 0
-93 -99 0
-93 -100 0
-93 -102 0
-93 -104 0
-94 -96 0
-94 -119 0
-94 -123 0
-94 -125 0
-94 -126 0
-95 -96 0
-95 -98 0
-95 -100 0
-95 -127 0
-95 -130 0
-95 -132 0
-95 -134 0
-97 -100 0
-97 -102 0
-97 -103 0
-97 -104 0
-97 -106 0
-97 -108 0
-98 -100 0
-98 -123 0
-98 -127 0
-98 -129 0
-98 -130 0
-99 -100 0
-99 -102 0
-99 -104 0
-99 -131 0
-99 -134 0
-99 -136 0
-99 -138 0
-101 -104 0
-101 -106 0
-101 -107 0
-101 -108 0
-101 -109 0
-101 -110 0
-102 -104 0
-102 -127 0
-102 -131 0
-102 -133 0
-102 -134 0
-103 -104 0
-103 -106 0
-103 -108 0
-103 -135 0
-103 -138 0
-103 -140 0
-103 -142 0
-105 -108 0
-105 -109 0
-105 -110 0
-106 -108 0
-106 -131 0
-106 -135 0
-106 -137 0
-106 -138 0
-107 -108 0
-107 -109 0
-107 -110 0
-107 -139 0
-107 -142 0
-107 -143 0
-107 -144 0
-109 -110 0
-109 -135 0
-109 -139 0
-109 -141 0
-109 -142 0
-111 -113 0
-111 -114 0
-111 -116 0
-111 -118 0
-112 -114 0
-112 -116 0
-112 -117 0
-112 -118 0
-112 -120 0
-112 -122 0
-113 -114 0
-113 -116 0
-113 -118 0
-113 -146 0
-113 -148 0
-113 -150 0
-113 -152 0
-115 -118 0
-115 -120 0
-115 -121 0
-115 -122 0
-115 -124 0
-115 -126 0
-116 -118 0
-116 -145 0
-116 -146 0
-116 -147 0
-116 -148 0
-117 -118 0
-117 -120 0
-117 -122 0
-117 -149 0
-117 -152 0
-117 -154 0
-117 -156 0
-119 -122 0
-119 -124 0
-119 -125 0
-119 -126 0
-119 -128 0
-119 -130 0
-120 -122 0
-120 -146 0
-120 -149 0
-120 -151 0
-120 -152 0
-121 -122 0
-121 -124 0
-121 -126 0
-121 -153 0
-121 -156 0
-121 -158 0
-121 -160 0
-123 -126 0
-123 -128 0
-123 -129 0
-123 -130 0
-123 -132 0
-123 -134 0
-124 -126 0
-124 -149 0
-124 -153 0
-124 -155 0
-124 -156 0
-125 -126 0
-125 -128 0
-125 -130 0
-125 -157 0
-125 -160 0
-125 -162 0
-125 -164 0
-127 -130 0
-127 -132 0
-127 -133 0
-127 -134 0
-127 -136 0
-127 -138 0
-128 -130 0
-128 -153 0
-128 -157 0
-128 -159 0
-128 -160 0
-129 -130 0
-129 -132 0
-129 -134 0
-129 -161 0
-129 -164 0
-129 -166 0
-129 -168 0
-131 -134 0
-131 -136 0
-131 -137 0
-131 -138 0
-131 -140 0
-131 -142 0
-132 -134 0
-132 -157 0
-132 -161 0
-132 -163 0
-132 -164 0
-133 -134 0
-133 -136 0
-133 -138 0
-133 -165 0
-133 -168 0
-133 -170 0
-133 -172 0
-135 -138 0
-135 -140 0
-135 -141 0
-135 -142 0
-135 -143 0
-135 -144 0
-136 -138 0
-136 -161 0
-136 -165 0
-136 -167 0
-136 -168 0
-137 -138 0
-137 -140 0
-137 -142 0
-137 -169 0
-137 -172 0
-137 -174 0
-137 -176 0
-139 -142 0
-139 -143 0
-139 -144 0
-140 -142 0
-140 -165 0
-140 -169 0
-140 -171 0
-140 -172 0
-141 -142 0
-141 -143 0
-141 -144 0
-141 -173 0
-141 -176 0
-141 -177 0
-141 -178 0
-143 -144 0
-143 -169 0
-143 -173 0
-143 -175 0
-143 -176 0
-145 -147 0
-145 -148 0
-145 -150 0
-145 -152 0
-146 -148 0
-146 -150 0
-146 -151 0
-146 -152 0
-146 -154 0
-146 -156 0
-147 -148 0
-147 -150 0
-147 -152 0
-147 -180 0
-147 -182 0
-147 -184 0
-147 -186 0
-149 -152 0
-149 -154 0
-149 -155 0
-149 -156 0
-149 -158 0
-149 -160 0
-150 -152 0
-150 -179 0
-150 -180 0
-150 -181 0
-150 -182 0
-151 -152 0
-151 -154 0
-151 -156 0
-151 -183 0
-151 -186 0
-151 -188 0
-151 -190 0
-153 -156 0
-153 -158 0
-153 -159 0
-153 -160 0
-153 -162 0
-153 -164 0
-154 -156 0
-154 -180 0
-154 -183 0
-154 -185 0
-154 -186 0
-155 -156 0
-155 -158 0
-155 -160 0
-155 -187 0
-155 -190 0
-155 -192 0
-155 -194 0
-157 -160 0
-157 -162 0
-157 -163 0
-157 -164 0
-157 -166 0
-157 -168 0
-158 -160 0
-158 -183 0
-158 -187 0
-158 -189 0
-158 -190 0
-159 -160 0
-159 -162 0
-159 -164 0
-159 -191 0
-159 -194 0
-159 -196 0
-159 -198 0
-161 -164 0
-161 -166 0
-161 -167 0
-161 -168 0
-161 -170 0
-161 -172 0
-162 -164 0
-162 -187 0
-162 -191 0
-162 -193 0
-162 -194 0
-163 -164 0
-163 -166 0
-163 -168 0
-163 -195 0
-163 -198 0
-163 -200 0
-163 -202 0
-165 -168 0
-165 -170 0
-165 -171 0
-165 -172 0
-165 -174 0
-165 -176 0
-166 -168 0
-166 -191 0
-166 -195 0
-166 -197 0
-166 -198 0
-167 -168 0
-167 -170 0
-167 -172 0
-167 -199 0
-167 -202 0
-167 -204 0
-167 -206 0
-169 -172 0
-169 -174 0
-169 -175 0
-169 -176 0
-169 -177 0
-169 -178 0
-170 -172 0
-170 -195 0
-170 -199 0
-170 -201 0
-170 -202 0
-171 -172 0
-171 -174 0
-171 -176 0
-171 -203 0
-171 -206 0
-171 -208 0
-171 -210 0
-173 -176 0
-173 -177 0
-173 -178 0
-174 -176 0
-174 -199 0
-174 -203 0
-174 -205 0
-174 -206 0
-175 -176 0
-175 -177 0
-175 -178 0
-175 -207 0
-175 -210 0
-175 -211 0
-175 -212 0
-177 -178 0
-177 -203 0
-177 -207 0
-177 -209 0
-177 -210 0
-179 -181 0
-179 -182 0
-179 -184 0
-179 -186 0
-180 -182 0
-180 -184 0
-180 -185 0
-180 -186 0
-180 -188 0
-180 -190 0
-181 -182 0
-181 -184 0
-181 -186 0
-181 -214 0
-181 -215 0
-181 -217 0
-181 -219 0
-183 -186 0
-183 -188 0
-183 -189 0
-183 -190 0
-183 -192 0
-183 -194 0
-184 -186 0
-184 -213 0
-184 -214 0
-184 -215 0
-185 -186 0
-185 -188 0
-185 -190 0
-185 -216 0
-185 -219 0
-185 -221 0
-185 -223 0
-187 -190 0
-187 -192 0
-187 -193 0
-187 -194 0
-187 -196 0
-187 -198 0
-188 -190 0
-188 -214 0
-188 -216 0
-188 -218 0
-188 -219 0
-189 -190 0
-189 -192 0
-189 -194 0
-189 -220 0
-189 -223 0
-189 -225 0
-189 -227 0
-191 -194 0
-191 -196 0
-191 -197 0
-191 -198 0
-191 -200 0
-191 -202 0
-192 -194 0
-192 -216 0
-192 -220 0
-192 -222 0
-192 -223 0
-193 -194 0
-193 -196 0
-193 -198 0
-193 -224 0
-193 -227 0
-193 -229 0
-193 -231 0
-195 -198 0
-195 -200 0
-195 -201 0
-195 -202 0
-195 -204 0
-195 -206 0
-196 -198 0
-196 -220 0
-196 -224 0
-196 -226 0
-196 -227 0
-197 -198 0
-197 -200 0
-197 -202 0
-197 -228 0
-197 -231 0
-197 -233 0
-197 -235 0
-199 -202 0
-199 -204 0
-199 -205 0
-199 -206 0
-199 -208 0
-199 -210 0
-200 -202 0
-200 -224 0
-200 -228 0
-200 -230 0
-200 -231 0
-201 -202 0
-201 -204 0
-201 -206 0
-201 -232 0
-201 -235 0
-201 -237 0
-201 -239 0
-203 -206 0
-203 -208 0
-203 -209 0
-203 -210 0
-203 -211 0
-203 -212 0
-204 -206 0
-204 -228 0
-204 -232 0
-204 -234 0
-204 -235 0
-205 -206 0
-205 -208 0
-205 -210 0
-205 -236 0
-205 -239 0
-205 -241 0
-205 -243 0
-207 -210 0
-207 -211 0
-207 -212 0
-208 -210 0
-208 -232 0
-208 -236 0
-208 -238 0
-208 -239 0
-209 -210 0
-209 -211 0
-209 -212 0
-209 -240 0
-209 -243 0
-209 -244 0
-211 -212 0
-211 -236 0
-211 -240 0
-211 -242 0
-211 -243 0
-213 -215 0
-213 -217 0
-213 -219 0
-214 -215 0
-214 -217 0
-214 -218 0
-214 -219 0
-214 -221 0
-214 -223 0
-216 -219 0
-216 -221 0
-216 -222 0
-216 -223 0
-216 -225 0
-216 -227 0
-217 -219 0
-217 -245 0
-218 -219 0
-218 -221 0
-218 -223 0
-218 -246 0
-218 -249 0
-218 -251 0
-218 -253 0
-220 -223 0
-220 -225 0
-220 -226 0
-220 -227 0
-220 -229 0
-220 -231 0
-221 -223 0
-221 -246 0
-221 -248 0
-221 -249 0
-222 -223 0
-222 -225 0
-222 -227 0
-222 -250 0
-222 -253 0
-222 -255 0
-222 -257 0
-224 -227 0
-224 -229 0
-224 -230 0
-224 -231 0
-224 -233 0
-224 -235 0
-225 -227 0
-225 -246 0
-225 -250 0
-225 -252 0
-225 -253 0
-226 -227 0
-226 -229 0
-226 -231 0
-226 -254 0
-226 -257 0
-226 -259 0
-226 -261 0
-228 -231 0
-228 -233 0
-228 -234 0
-228 -235 0
-228 -237 0
-228 -239 0
-229 -231 0
-229 -250 0
-229 -254 0
-229 -256 0
-229 -257 0
-230 -231 0
-230 -233 0
-230 -235 0
-230 -258 0
-230 -261 0
-230 -263 0
-230 -265 0
-232 -235 0
-232 -237 0
-232 -238 0
-232 -239 0
-232 -241 0
-232 -243 0
-233 -235 0
-233 -254 0
-233 -258 0
-233 -260 0
-233 -261 0
-234 -235 0
-234 -237 0
-234 -239 0
-234 -262 0
-234 -265 0
-234 -267 0
-234 -269 0
-236 -239 0
-236 -241 0
-236 -242 0
-236 -243 0
-236 -244 0
-237 -239 0
-237 -258 0
-237 -262 0
-237 -264 0
-237 -265 0
-238 -239 0
-238 -241 0
-238 -243 0
-238 -266 0
-238 -269 0
-238 -271 0
-240 -243 0
-240 -244 0
-241 -243 0
-241 -262 0
-241 -266 0
-241 -268 0
-241 -269 0
-242 -243 0
-242 -244 0
-242 -270 0
-246 -249 0
-246 -251 0
-246 -252 0
-246 -253 0
-246 -255 0
-246 -257 0
-247 -249 0
-248 -249 0
-248 -251 0
-248 -253 0
-250 -253 0
-250 -255 0
-250 -256 0
-250 -257 0
-250 -259 0
-250 -261 0
-251 -253 0
-252 -253 0
-252 -255 0
-252 -257 0
-254 -257 0
-254 -259 0
-254 -260 0
-254 -261 0
-254 -263 0
-254 -265 0
-255 -257 0
-256 -257 0
-256 -259 0
-256 -261 0
-258 -261 0
-258 -263 0
-258 -264 0
-258 -265 0
-258 -267 0
-258 -269 0
-259 -261 0
-260 -261 0
-260 -263 0
-260 -265 0
-262 -265 0
-262 -267 0
-262 -268 0
-262 -269 0
-262 -271 0
-263 -265 0
-264 -265 0
-264 -267 0
-264 -269 0
-266 -269 0
-266 -271 0
-266 -272 0
-267 -269 0
-268 -269 0
-268 -271 0
91 98 123 128 129 -130 0
91 98 123 -128 -129 130 0
91 98 -123 128 129 130 0
91 98 -123 128 -129 -130 0
91 98 -123 -128 129 -130 0
91 -98 123 128 -129 130 0
91 -98 123 -128 129 130 0
91 -98 123 -128 -129 -130 0
91 -98 -123 128 129 -130 0
91 -98 -123 -128 -129 130 0
-91 98 123 128 -129 130 0
-91 98 123 -128 129 130 0
-91 98 123 -128 -129 -130 0
-91 98 -123 128 129 -130 0
-91 98 -123 -128 -129 130 0
-91 -98 123 128 129 130 0
-91 -98 123 128 -129 -130 0
-91 -98 123 -128 129 -130 0
-91 -98 -123 128 -129 130 0
-91 -98 -123 -128 129 130 0
-91 -98 -123 -128 -129 -130 0
