p cnf 736 12756
-626 -633 -693 0
-369 -425 -494 0
-369 -425 -495 0
-369 -494 -495 0
-425 -494 -495 0
-151 -158 -207 0
-151 -158 -222 0
-151 -158 -276 0
-151 -158 -277 0
-151 -158 -278 0
-151 -158 -279 0
-151 -207 -222 0
-151 -207 -276 0
-151 -207 -277 0
-151 -207 -278 0
-151 -207 -279 0
-151 -222 -276 0
-151 -222 -277 0
-151 -222 -278 0
-151 -222 -279 0
-151 -276 -277 0
-151 -276 -278 0
-151 -276 -279 0
-151 -277 -278 0
-151 -277 -279 0
-151 -278 -279 0
-158 -207 -222 0
-158 -207 -276 0
-158 -207 -277 0
-158 -207 -278 0
-158 -207 -279 0
-158 -222 -276 0
-158 -222 -277 0
-158 -222 -278 0
-158 -222 -279 0
-158 -276 -277 0
-158 -276 -278 0
-158 -276 -279 0
-158 -277 -278 0
-158 -277 -279 0
-158 -278 -279 0
-207 -222 -276 0
-207 -222 -277 0
-207 -222 -278 0
-207 -222 -279 0
-207 -276 -277 0
-207 -276 -278 0
-207 -276 -279 0
-207 -277 -278 0
-207 -277 -279 0
-207 -278 -279 0
-222 -276 -277 0
-222 -276 -278 0
-222 -276 -279 0
-222 -277 -278 0
-222 -277 -279 0
-222 -278 -279 0
-276 -277 -278 0
-276 -277 -279 0
-276 -278 -279 0
-277 -278 -279 0
151 158 207 222 276 277 278 0
151 158 207 222 276 277 279 0
151 158 207 222 276 278 279 0
151 158 207 222 277 278 279 0
151 158 207 276 277 278 279 0
151 158 222 276 277 278 279 0
151 207 222 276 277 278 279 0
158 207 222 276 277 278 279 0
-105 -112 -161 0
-105 -112 -176 0
-105 -112 -230 0
-105 -112 -231 0
-105 -112 -232 0
-105 -112 -233 0
-105 -161 -176 0
-105 -161 -230 0
-105 -161 -231 0
-105 -161 -232 0
-105 -161 -233 0
-105 -176 -230 0
-105 -176 -231 0
-105 -176 -232 0
-105 -176 -233 0
-105 -230 -231 0
-105 -230 -232 0
-105 -230 -233 0
-105 -231 -232 0
-105 -231 -233 0
-105 -232 -233 0
-112 -161 -176 0
-112 -161 -230 0
-112 -161 -231 0
-112 -161 -232 0
-112 -161 -233 0
-112 -176 -230 0
-112 -176 -231 0
-112 -176 -232 0
-112 -176 -233 0
-112 -230 -231 0
-112 -230 -232 0
-112 -230 -233 0
-112 -231 -232 0
-112 -231 -233 0
-112 -232 -233 0
-161 -176 -230 0
-161 -176 -231 0
-161 -176 -232 0
-161 -176 -233 0
-161 -230 -231 0
-161 -230 -232 0
-161 -230 -233 0
-161 -231 -232 0
-161 -231 -233 0
-161 -232 -233 0
-176 -230 -231 0
-176 -230 -232 0
-176 -230 -233 0
-176 -231 -232 0
-176 -231 -233 0
-176 -232 -233 0
-230 -231 -232 0
-230 -231 -233 0
-230 -232 -233 0
-231 -232 -233 0
105 112 161 176 230 231 232 0
105 112 161 176 230 231 233 0
105 112 161 176 230 232 233 0
105 112 161 176 231 232 233 0
105 112 161 230 231 232 233 0
105 112 176 230 231 232 233 0
105 161 176 230 231 232 233 0
112 161 176 230 231 232 233 0
-217 -224 -273 0
-217 -224 -288 0
-217 -224 -342 0
-217 -224 -343 0
-217 -224 -344 0
-217 -224 -345 0
-217 -273 -288 0
-217 -273 -342 0
-217 -273 -343 0
-217 -273 -344 0
-217 -273 -345 0
-217 -288 -342 0
-217 -288 -343 0
-217 -288 -344 0
-217 -288 -345 0
-217 -342 -343 0
-217 -342 -344 0
-217 -342 -345 0
-217 -343 -344 0
-217 -343 -345 0
-217 -344 -345 0
-224 -273 -288 0
-224 -273 -342 0
-224 -273 -343 0
-224 -273 -344 0
-224 -273 -345 0
-224 -288 -342 0
-224 -288 -343 0
-224 -288 -344 0
-224 -288 -345 0
-224 -342 -343 0
-224 -342 -344 0
-224 -342 -345 0
-224 -343 -344 0
-224 -343 -345 0
-224 -344 -345 0
-273 -288 -342 0
-273 -288 -343 0
-273 -288 -344 0
-273 -288 -345 0
-273 -342 -343 0
-273 -342 -344 0
-273 -342 -345 0
-273 -343 -344 0
-273 -343 -345 0
-273 -344 -345 0
-288 -342 -343 0
-288 -342 -344 0
-288 -342 -345 0
-288 -343 -344 0
-288 -343 -345 0
-288 -344 -345 0
-342 -343 -344 0
-342 -343 -345 0
-342 -344 -345 0
-343 -344 -345 0
217 224 273 288 342 343 344 0
217 224 273 288 342 343 345 0
217 224 273 288 342 344 345 0
217 224 273 288 343 344 345 0
217 224 273 342 343 344 345 0
217 224 288 342 343 344 345 0
217 273 288 342 343 344 345 0
224 273 288 342 343 344 345 0
-399 -406 -455 0
-399 -406 -470 0
-399 -406 -524 0
-399 -406 -525 0
-399 -406 -526 0
-399 -406 -527 0
-399 -455 -470 0
-399 -455 -524 0
-399 -455 -525 0
-399 -455 -526 0
-399 -455 -527 0
-399 -470 -524 0
-399 -470 -525 0
-399 -470 -526 0
-399 -470 -527 0
-399 -524 -525 0
-399 -524 -526 0
-399 -524 -527 0
-399 -525 -526 0
-399 -525 -527 0
-399 -526 -527 0
-406 -455 -470 0
-406 -455 -524 0
-406 -455 -525 0
-406 -455 -526 0
-406 -455 -527 0
-406 -470 -524 0
-406 -470 -525 0
-406 -470 -526 0
-406 -470 -527 0
-406 -524 -525 0
-406 -524 -526 0
-406 -524 -527 0
-406 -525 -526 0
-406 -525 -527 0
-406 -526 -527 0
-455 -470 -524 0
-455 -470 -525 0
-455 -470 -526 0
-455 -470 -527 0
-455 -524 -525 0
-455 -524 -526 0
-455 -524 -527 0
-455 -525 -526 0
-455 -525 -527 0
-455 -526 -527 0
-470 -524 -525 0
-470 -524 -526 0
-470 -524 -527 0
-470 -525 -526 0
-470 -525 -527 0
-470 -526 -527 0
-524 -525 -526 0
-524 -525 -527 0
-524 -526 -527 0
-525 -526 -527 0
399 406 455 470 524 525 526 0
399 406 455 470 524 525 527 0
399 406 455 470 524 526 527 0
399 406 455 470 525 526 527 0
399 406 455 524 525 526 527 0
399 406 470 524 525 526 527 0
399 455 470 524 525 526 527 0
406 455 470 524 525 526 527 0
-511 -518 -567 0
-511 -518 -582 0
-511 -518 -635 0
-511 -518 -636 0
-511 -518 -637 0
-511 -518 -638 0
-511 -567 -582 0
-511 -567 -635 0
-511 -567 -636 0
-511 -567 -637 0
-511 -567 -638 0
-511 -582 -635 0
-511 -582 -636 0
-511 -582 -637 0
-511 -582 -638 0
-511 -635 -636 0
-511 -635 -637 0
-511 -635 -638 0
-511 -636 -637 0
-511 -636 -638 0
-511 -637 -638 0
-518 -567 -582 0
-518 -567 -635 0
-518 -567 -636 0
-518 -567 -637 0
-518 -567 -638 0
-518 -582 -635 0
-518 -582 -636 0
-518 -582 -637 0
-518 -582 -638 0
-518 -635 -636 0
-518 -635 -637 0
-518 -635 -638 0
-518 -636 -637 0
-518 -636 -638 0
-518 -637 -638 0
-567 -582 -635 0
-567 -582 -636 0
-567 -582 -637 0
-567 -582 -638 0
-567 -635 -636 0
-567 -635 -637 0
-567 -635 -638 0
-567 -636 -637 0
-567 -636 -638 0
-567 -637 -638 0
-582 -635 -636 0
-582 -635 -637 0
-582 -635 -638 0
-582 -636 -637 0
-582 -636 -638 0
-582 -637 -638 0
-635 -636 -637 0
-635 -636 -638 0
-635 -637 -638 0
-636 -637 -638 0
511 518 567 582 635 636 637 0
511 518 567 582 635 636 638 0
511 518 567 582 635 637 638 0
511 518 567 582 636 637 638 0
511 518 567 635 636 637 638 0
511 518 582 635 636 637 638 0
511 567 582 635 636 637 638 0
518 567 582 635 636 637 638 0
-457 -464 -513 0
-457 -464 -528 0
-457 -464 -582 0
-457 -464 -583 0
-457 -464 -584 0
-457 -464 -585 0
-457 -513 -528 0
-457 -513 -582 0
-457 -513 -583 0
-457 -513 -584 0
-457 -513 -585 0
-457 -528 -582 0
-457 -528 -583 0
-457 -528 -584 0
-457 -528 -585 0
-457 -582 -583 0
-457 -582 -584 0
-457 -582 -585 0
-457 -583 -584 0
-457 -583 -585 0
-457 -584 -585 0
-464 -513 -528 0
-464 -513 -582 0
-464 -513 -583 0
-464 -513 -584 0
-464 -513 -585 0
-464 -528 -582 0
-464 -528 -583 0
-464 -528 -584 0
-464 -528 -585 0
-464 -582 -583 0
-464 -582 -584 0
-464 -582 -585 0
-464 -583 -584 0
-464 -583 -585 0
-464 -584 -585 0
-513 -528 -582 0
-513 -528 -583 0
-513 -528 -584 0
-513 -528 -585 0
-513 -582 -583 0
-513 -582 -584 0
-513 -582 -585 0
-513 -583 -584 0
-513 -583 -585 0
-513 -584 -585 0
-528 -582 -583 0
-528 -582 -584 0
-528 -582 -585 0
-528 -583 -584 0
-528 -583 -585 0
-528 -584 -585 0
-582 -583 -584 0
-582 -583 -585 0
-582 -584 -585 0
-583 -584 -585 0
457 464 513 528 582 583 584 0
457 464 513 528 582 583 585 0
457 464 513 528 582 584 585 0
457 464 513 528 583 584 585 0
457 464 513 582 583 584 585 0
457 464 528 582 583 584 585 0
457 513 528 582 583 584 585 0
464 513 528 582 583 584 585 0
-12 -13 -14 0
-12 -13 -15 0
-12 -14 -15 0
-13 -14 -15 0
12 13 14 0
12 13 15 0
12 14 15 0
13 14 15 0
-569 -576 -624 0
-569 -576 -639 0
-569 -576 -689 0
-569 -576 -690 0
-569 -576 -691 0
-569 -576 -692 0
-569 -624 -639 0
-569 -624 -689 0
-569 -624 -690 0
-569 -624 -691 0
-569 -624 -692 0
-569 -639 -689 0
-569 -639 -690 0
-569 -639 -691 0
-569 -639 -692 0
-569 -689 -690 0
-569 -689 -691 0
-569 -689 -692 0
-569 -690 -691 0
-569 -690 -692 0
-569 -691 -692 0
-576 -624 -639 0
-576 -624 -689 0
-576 -624 -690 0
-576 -624 -691 0
-576 -624 -692 0
-576 -639 -689 0
-576 -639 -690 0
-576 -639 -691 0
-576 -639 -692 0
-576 -689 -690 0
-576 -689 -691 0
-576 -689 -692 0
-576 -690 -691 0
-576 -690 -692 0
-576 -691 -692 0
-624 -639 -689 0
-624 -639 -690 0
-624 -639 -691 0
-624 -639 -692 0
-624 -689 -690 0
-624 -689 -691 0
-624 -689 -692 0
-624 -690 -691 0
-624 -690 -692 0
-624 -691 -692 0
-639 -689 -690 0
-639 -689 -691 0
-639 -689 -692 0
-639 -690 -691 0
-639 -690 -692 0
-639 -691 -692 0
-689 -690 -691 0
-689 -690 -692 0
-689 -691 -692 0
-690 -691 -692 0
569 576 624 639 689 690 691 0
569 576 624 639 689 690 692 0
569 576 624 639 689 691 692 0
569 576 624 639 690 691 692 0
569 576 624 689 690 691 692 0
569 576 639 689 690 691 692 0
569 624 639 689 690 691 692 0
576 624 639 689 690 691 692 0
-6 -70 -126 0
-6 -70 -127 0
-6 -126 -127 0
-70 -126 -127 0
-493 -549 -618 0
-493 -549 -619 0
-493 -618 -619 0
-549 -618 -619 0
-48 -49 -50 0
-48 -49 -51 0
-48 -50 -51 0
-49 -50 -51 0
48 49 50 0
48 49 51 0
48 50 51 0
49 50 51 0
-35 -42 -91 0
-35 -42 -106 0
-35 -42 -160 0
-35 -42 -161 0
-35 -42 -162 0
-35 -42 -163 0
-35 -91 -106 0
-35 -91 -160 0
-35 -91 -161 0
-35 -91 -162 0
-35 -91 -163 0
-35 -106 -160 0
-35 -106 -161 0
-35 -106 -162 0
-35 -106 -163 0
-35 -160 -161 0
-35 -160 -162 0
-35 -160 -163 0
-35 -161 -162 0
-35 -161 -163 0
-35 -162 -163 0
-42 -91 -106 0
-42 -91 -160 0
-42 -91 -161 0
-42 -91 -162 0
-42 -91 -163 0
-42 -106 -160 0
-42 -106 -161 0
-42 -106 -162 0
-42 -106 -163 0
-42 -160 -161 0
-42 -160 -162 0
-42 -160 -163 0
-42 -161 -162 0
-42 -161 -163 0
-42 -162 -163 0
-91 -106 -160 0
-91 -106 -161 0
-91 -106 -162 0
-91 -106 -163 0
-91 -160 -161 0
-91 -160 -162 0
-91 -160 -163 0
-91 -161 -162 0
-91 -161 -163 0
-91 -162 -163 0
-106 -160 -161 0
-106 -160 -162 0
-106 -160 -163 0
-106 -161 -162 0
-106 -161 -163 0
-106 -162 -163 0
-160 -161 -162 0
-160 -161 -163 0
-160 -162 -163 0
-161 -162 -163 0
35 42 91 106 160 161 162 0
35 42 91 106 160 161 163 0
35 42 91 106 160 162 163 0
35 42 91 106 161 162 163 0
35 42 91 160 161 162 163 0
35 42 106 160 161 162 163 0
35 91 106 160 161 162 163 0
42 91 106 160 161 162 163 0
-605 -612 -660 0
-605 -612 -675 0
-605 -612 -725 0
-605 -612 -726 0
-605 -612 -727 0
-605 -612 -728 0
-605 -660 -675 0
-605 -660 -725 0
-605 -660 -726 0
-605 -660 -727 0
-605 -660 -728 0
-605 -675 -725 0
-605 -675 -726 0
-605 -675 -727 0
-605 -675 -728 0
-605 -725 -726 0
-605 -725 -727 0
-605 -725 -728 0
-605 -726 -727 0
-605 -726 -728 0
-605 -727 -728 0
-612 -660 -675 0
-612 -660 -725 0
-612 -660 -726 0
-612 -660 -727 0
-612 -660 -728 0
-612 -675 -725 0
-612 -675 -726 0
-612 -675 -727 0
-612 -675 -728 0
-612 -725 -726 0
-612 -725 -727 0
-612 -725 -728 0
-612 -726 -727 0
-612 -726 -728 0
-612 -727 -728 0
-660 -675 -725 0
-660 -675 -726 0
-660 -675 -727 0
-660 -675 -728 0
-660 -725 -726 0
-660 -725 -727 0
-660 -725 -728 0
-660 -726 -727 0
-660 -726 -728 0
-660 -727 -728 0
-675 -725 -726 0
-675 -725 -727 0
-675 -725 -728 0
-675 -726 -727 0
-675 -726 -728 0
-675 -727 -728 0
-725 -726 -727 0
-725 -726 -728 0
-725 -727 -728 0
-726 -727 -728 0
605 612 660 675 725 726 727 0
605 612 660 675 725 726 728 0
605 612 660 675 725 727 728 0
605 612 660 675 726 727 728 0
605 612 660 725 726 727 728 0
605 612 675 725 726 727 728 0
605 660 675 725 726 727 728 0
612 660 675 725 726 727 728 0
-254 -318 -374 0
-254 -318 -375 0
-254 -374 -375 0
-318 -374 -375 0
-45 -60 -114 0
-45 -60 -115 0
-45 -60 -116 0
-45 -60 -117 0
-45 -114 -115 0
-45 -114 -116 0
-45 -114 -117 0
-45 -115 -116 0
-45 -115 -117 0
-45 -116 -117 0
-60 -114 -115 0
-60 -114 -116 0
-60 -114 -117 0
-60 -115 -116 0
-60 -115 -117 0
-60 -116 -117 0
-114 -115 -116 0
-114 -115 -117 0
-114 -116 -117 0
-115 -116 -117 0
45 60 114 115 116 0
45 60 114 115 117 0
45 60 114 116 117 0
45 60 115 116 117 0
45 114 115 116 117 0
60 114 115 116 117 0
-283 -290 -339 0
-283 -290 -354 0
-283 -290 -408 0
-283 -290 -409 0
-283 -290 -410 0
-283 -290 -411 0
-283 -339 -354 0
-283 -339 -408 0
-283 -339 -409 0
-283 -339 -410 0
-283 -339 -411 0
-283 -354 -408 0
-283 -354 -409 0
-283 -354 -410 0
-283 -354 -411 0
-283 -408 -409 0
-283 -408 -410 0
-283 -408 -411 0
-283 -409 -410 0
-283 -409 -411 0
-283 -410 -411 0
-290 -339 -354 0
-290 -339 -408 0
-290 -339 -409 0
-290 -339 -410 0
-290 -339 -411 0
-290 -354 -408 0
-290 -354 -409 0
-290 -354 -410 0
-290 -354 -411 0
-290 -408 -409 0
-290 -408 -410 0
-290 -408 -411 0
-290 -409 -410 0
-290 -409 -411 0
-290 -410 -411 0
-339 -354 -408 0
-339 -354 -409 0
-339 -354 -410 0
-339 -354 -411 0
-339 -408 -409 0
-339 -408 -410 0
-339 -408 -411 0
-339 -409 -410 0
-339 -409 -411 0
-339 -410 -411 0
-354 -408 -409 0
-354 -408 -410 0
-354 -408 -411 0
-354 -409 -410 0
-354 -409 -411 0
-354 -410 -411 0
-408 -409 -410 0
-408 -409 -411 0
-408 -410 -411 0
-409 -410 -411 0
283 290 339 354 408 409 410 0
283 290 339 354 408 409 411 0
283 290 339 354 408 410 411 0
283 290 339 354 409 410 411 0
283 290 339 408 409 410 411 0
283 290 354 408 409 410 411 0
283 339 354 408 409 410 411 0
290 339 354 408 409 410 411 0
-341 -348 -397 0
-341 -348 -412 0
-341 -348 -466 0
-341 -348 -467 0
-341 -348 -468 0
-341 -348 -469 0
-341 -397 -412 0
-341 -397 -466 0
-341 -397 -467 0
-341 -397 -468 0
-341 -397 -469 0
-341 -412 -466 0
-341 -412 -467 0
-341 -412 -468 0
-341 -412 -469 0
-341 -466 -467 0
-341 -466 -468 0
-341 -466 -469 0
-341 -467 -468 0
-341 -467 -469 0
-341 -468 -469 0
-348 -397 -412 0
-348 -397 -466 0
-348 -397 -467 0
-348 -397 -468 0
-348 -397 -469 0
-348 -412 -466 0
-348 -412 -467 0
-348 -412 -468 0
-348 -412 -469 0
-348 -466 -467 0
-348 -466 -468 0
-348 -466 -469 0
-348 -467 -468 0
-348 -467 -469 0
-348 -468 -469 0
-397 -412 -466 0
-397 -412 -467 0
-397 -412 -468 0
-397 -412 -469 0
-397 -466 -467 0
-397 -466 -468 0
-397 -466 -469 0
-397 -467 -468 0
-397 -467 -469 0
-397 -468 -469 0
-412 -466 -467 0
-412 -466 -468 0
-412 -466 -469 0
-412 -467 -468 0
-412 -467 -469 0
-412 -468 -469 0
-466 -467 -468 0
-466 -467 -469 0
-466 -468 -469 0
-467 -468 -469 0
341 348 397 412 466 467 468 0
341 348 397 412 466 467 469 0
341 348 397 412 466 468 469 0
341 348 397 412 467 468 469 0
341 348 397 466 467 468 469 0
341 348 412 466 467 468 469 0
341 397 412 466 467 468 469 0
348 397 412 466 467 468 469 0
-130 -194 -250 0
-130 -194 -251 0
-130 -250 -251 0
-194 -250 -251 0
-77 -84 -133 0
-77 -84 -148 0
-77 -84 -202 0
-77 -84 -203 0
-77 -84 -204 0
-77 -84 -205 0
-77 -133 -148 0
-77 -133 -202 0
-77 -133 -203 0
-77 -133 -204 0
-77 -133 -205 0
-77 -148 -202 0
-77 -148 -203 0
-77 -148 -204 0
-77 -148 -205 0
-77 -202 -203 0
-77 -202 -204 0
-77 -202 -205 0
-77 -203 -204 0
-77 -203 -205 0
-77 -204 -205 0
-84 -133 -148 0
-84 -133 -202 0
-84 -133 -203 0
-84 -133 -204 0
-84 -133 -205 0
-84 -148 -202 0
-84 -148 -203 0
-84 -148 -204 0
-84 -148 -205 0
-84 -202 -203 0
-84 -202 -204 0
-84 -202 -205 0
-84 -203 -204 0
-84 -203 -205 0
-84 -204 -205 0
-133 -148 -202 0
-133 -148 -203 0
-133 -148 -204 0
-133 -148 -205 0
-133 -202 -203 0
-133 -202 -204 0
-133 -202 -205 0
-133 -203 -204 0
-133 -203 -205 0
-133 -204 -205 0
-148 -202 -203 0
-148 -202 -204 0
-148 -202 -205 0
-148 -203 -204 0
-148 -203 -205 0
-148 -204 -205 0
-202 -203 -204 0
-202 -203 -205 0
-202 -204 -205 0
-203 -204 -205 0
77 84 133 148 202 203 204 0
77 84 133 148 202 203 205 0
77 84 133 148 202 204 205 0
77 84 133 148 203 204 205 0
77 84 133 202 203 204 205 0
77 84 148 202 203 204 205 0
77 133 148 202 203 204 205 0
84 133 148 202 203 204 205 0
-189 -196 -249 0
-189 -196 -260 0
-189 -196 -314 0
-189 -196 -315 0
-189 -196 -316 0
-189 -196 -317 0
-189 -249 -260 0
-189 -249 -314 0
-189 -249 -315 0
-189 -249 -316 0
-189 -249 -317 0
-189 -260 -314 0
-189 -260 -315 0
-189 -260 -316 0
-189 -260 -317 0
-189 -314 -315 0
-189 -314 -316 0
-189 -314 -317 0
-189 -315 -316 0
-189 -315 -317 0
-189 -316 -317 0
-196 -249 -260 0
-196 -249 -314 0
-196 -249 -315 0
-196 -249 -316 0
-196 -249 -317 0
-196 -260 -314 0
-196 -260 -315 0
-196 -260 -316 0
-196 -260 -317 0
-196 -314 -315 0
-196 -314 -316 0
-196 -314 -317 0
-196 -315 -316 0
-196 -315 -317 0
-196 -316 -317 0
-249 -260 -314 0
-249 -260 -315 0
-249 -260 -316 0
-249 -260 -317 0
-249 -314 -315 0
-249 -314 -316 0
-249 -314 -317 0
-249 -315 -316 0
-249 -315 -317 0
-249 -316 -317 0
-260 -314 -315 0
-260 -314 -316 0
-260 -314 -317 0
-260 -315 -316 0
-260 -315 -317 0
-260 -316 -317 0
-314 -315 -316 0
-314 -315 -317 0
-314 -316 -317 0
-315 -316 -317 0
189 196 249 260 314 315 316 0
189 196 249 260 314 315 317 0
189 196 249 260 314 316 317 0
189 196 249 260 315 316 317 0
189 196 249 314 315 316 317 0
189 196 260 314 315 316 317 0
189 249 260 314 315 316 317 0
196 249 260 314 315 316 317 0
-378 -442 -498 0
-378 -442 -499 0
-378 -498 -499 0
-442 -498 -499 0
-113 -120 -169 0
-113 -120 -184 0
-113 -120 -238 0
-113 -120 -239 0
-113 -120 -240 0
-113 -120 -241 0
-113 -169 -184 0
-113 -169 -238 0
-113 -169 -239 0
-113 -169 -240 0
-113 -169 -241 0
-113 -184 -238 0
-113 -184 -239 0
-113 -184 -240 0
-113 -184 -241 0
-113 -238 -239 0
-113 -238 -240 0
-113 -238 -241 0
-113 -239 -240 0
-113 -239 -241 0
-113 -240 -241 0
-120 -169 -184 0
-120 -169 -238 0
-120 -169 -239 0
-120 -169 -240 0
-120 -169 -241 0
-120 -184 -238 0
-120 -184 -239 0
-120 -184 -240 0
-120 -184 -241 0
-120 -238 -239 0
-120 -238 -240 0
-120 -238 -241 0
-120 -239 -240 0
-120 -239 -241 0
-120 -240 -241 0
-169 -184 -238 0
-169 -184 -239 0
-169 -184 -240 0
-169 -184 -241 0
-169 -238 -239 0
-169 -238 -240 0
-169 -238 -241 0
-169 -239 -240 0
-169 -239 -241 0
-169 -240 -241 0
-184 -238 -239 0
-184 -238 -240 0
-184 -238 -241 0
-184 -239 -240 0
-184 -239 -241 0
-184 -240 -241 0
-238 -239 -240 0
-238 -239 -241 0
-238 -240 -241 0
-239 -240 -241 0
113 120 169 184 238 239 240 0
113 120 169 184 238 239 241 0
113 120 169 184 238 240 241 0
113 120 169 184 239 240 241 0
113 120 169 238 239 240 241 0
113 120 184 238 239 240 241 0
113 169 184 238 239 240 241 0
120 169 184 238 239 240 241 0
-225 -232 -281 0
-225 -232 -296 0
-225 -232 -350 0
-225 -232 -351 0
-225 -232 -352 0
-225 -232 -353 0
-225 -281 -296 0
-225 -281 -350 0
-225 -281 -351 0
-225 -281 -352 0
-225 -281 -353 0
-225 -296 -350 0
-225 -296 -351 0
-225 -296 -352 0
-225 -296 -353 0
-225 -350 -351 0
-225 -350 -352 0
-225 -350 -353 0
-225 -351 -352 0
-225 -351 -353 0
-225 -352 -353 0
-232 -281 -296 0
-232 -281 -350 0
-232 -281 -351 0
-232 -281 -352 0
-232 -281 -353 0
-232 -296 -350 0
-232 -296 -351 0
-232 -296 -352 0
-232 -296 -353 0
-232 -350 -351 0
-232 -350 -352 0
-232 -350 -353 0
-232 -351 -352 0
-232 -351 -353 0
-232 -352 -353 0
-281 -296 -350 0
-281 -296 -351 0
-281 -296 -352 0
-281 -296 -353 0
-281 -350 -351 0
-281 -350 -352 0
-281 -350 -353 0
-281 -351 -352 0
-281 -351 -353 0
-281 -352 -353 0
-296 -350 -351 0
-296 -350 -352 0
-296 -350 -353 0
-296 -351 -352 0
-296 -351 -353 0
-296 -352 -353 0
-350 -351 -352 0
-350 -351 -353 0
-350 -352 -353 0
-351 -352 -353 0
225 232 281 296 350 351 352 0
225 232 281 296 350 351 353 0
225 232 281 296 350 352 353 0
225 232 281 296 351 352 353 0
225 232 281 350 351 352 353 0
225 232 296 350 351 352 353 0
225 281 296 350 351 352 353 0
232 281 296 350 351 352 353 0
-407 -414 -463 0
-407 -414 -478 0
-407 -414 -532 0
-407 -414 -533 0
-407 -414 -534 0
-407 -414 -535 0
-407 -463 -478 0
-407 -463 -532 0
-407 -463 -533 0
-407 -463 -534 0
-407 -463 -535 0
-407 -478 -532 0
-407 -478 -533 0
-407 -478 -534 0
-407 -478 -535 0
-407 -532 -533 0
-407 -532 -534 0
-407 -532 -535 0
-407 -533 -534 0
-407 -533 -535 0
-407 -534 -535 0
-414 -463 -478 0
-414 -463 -532 0
-414 -463 -533 0
-414 -463 -534 0
-414 -463 -535 0
-414 -478 -532 0
-414 -478 -533 0
-414 -478 -534 0
-414 -478 -535 0
-414 -532 -533 0
-414 -532 -534 0
-414 -532 -535 0
-414 -533 -534 0
-414 -533 -535 0
-414 -534 -535 0
-463 -478 -532 0
-463 -478 -533 0
-463 -478 -534 0
-463 -478 -535 0
-463 -532 -533 0
-463 -532 -534 0
-463 -532 -535 0
-463 -533 -534 0
-463 -533 -535 0
-463 -534 -535 0
-478 -532 -533 0
-478 -532 -534 0
-478 -532 -535 0
-478 -533 -534 0
-478 -533 -535 0
-478 -534 -535 0
-532 -533 -534 0
-532 -533 -535 0
-532 -534 -535 0
-533 -534 -535 0
407 414 463 478 532 533 534 0
407 414 463 478 532 533 535 0
407 414 463 478 532 534 535 0
407 414 463 478 533 534 535 0
407 414 463 532 533 534 535 0
407 414 478 532 533 534 535 0
407 463 478 532 533 534 535 0
414 463 478 532 533 534 535 0
-465 -472 -521 0
-465 -472 -536 0
-465 -472 -590 0
-465 -472 -591 0
-465 -472 -592 0
-465 -472 -593 0
-465 -521 -536 0
-465 -521 -590 0
-465 -521 -591 0
-465 -521 -592 0
-465 -521 -593 0
-465 -536 -590 0
-465 -536 -591 0
-465 -536 -592 0
-465 -536 -593 0
-465 -590 -591 0
-465 -590 -592 0
-465 -590 -593 0
-465 -591 -592 0
-465 -591 -593 0
-465 -592 -593 0
-472 -521 -536 0
-472 -521 -590 0
-472 -521 -591 0
-472 -521 -592 0
-472 -521 -593 0
-472 -536 -590 0
-472 -536 -591 0
-472 -536 -592 0
-472 -536 -593 0
-472 -590 -591 0
-472 -590 -592 0
-472 -590 -593 0
-472 -591 -592 0
-472 -591 -593 0
-472 -592 -593 0
-521 -536 -590 0
-521 -536 -591 0
-521 -536 -592 0
-521 -536 -593 0
-521 -590 -591 0
-521 -590 -592 0
-521 -590 -593 0
-521 -591 -592 0
-521 -591 -593 0
-521 -592 -593 0
-536 -590 -591 0
-536 -590 -592 0
-536 -590 -593 0
-536 -591 -592 0
-536 -591 -593 0
-536 -592 -593 0
-590 -591 -592 0
-590 -591 -593 0
-590 -592 -593 0
-591 -592 -593 0
465 472 521 536 590 591 592 0
465 472 521 536 590 591 593 0
465 472 521 536 590 592 593 0
465 472 521 536 591 592 593 0
465 472 521 590 591 592 593 0
465 472 536 590 591 592 593 0
465 521 536 590 591 592 593 0
472 521 536 590 591 592 593 0
-20 -21 -22 0
-20 -21 -23 0
-20 -22 -23 0
-21 -22 -23 0
20 21 22 0
20 21 23 0
20 22 23 0
21 22 23 0
-7 -14 -64 0
-7 -14 -78 0
-7 -14 -132 0
-7 -14 -133 0
-7 -14 -134 0
-7 -14 -135 0
-7 -64 -78 0
-7 -64 -132 0
-7 -64 -133 0
-7 -64 -134 0
-7 -64 -135 0
-7 -78 -132 0
-7 -78 -133 0
-7 -78 -134 0
-7 -78 -135 0
-7 -132 -133 0
-7 -132 -134 0
-7 -132 -135 0
-7 -133 -134 0
-7 -133 -135 0
-7 -134 -135 0
-14 -64 -78 0
-14 -64 -132 0
-14 -64 -133 0
-14 -64 -134 0
-14 -64 -135 0
-14 -78 -132 0
-14 -78 -133 0
-14 -78 -134 0
-14 -78 -135 0
-14 -132 -133 0
-14 -132 -134 0
-14 -132 -135 0
-14 -133 -134 0
-14 -133 -135 0
-14 -134 -135 0
-64 -78 -132 0
-64 -78 -133 0
-64 -78 -134 0
-64 -78 -135 0
-64 -132 -133 0
-64 -132 -134 0
-64 -132 -135 0
-64 -133 -134 0
-64 -133 -135 0
-64 -134 -135 0
-78 -132 -133 0
-78 -132 -134 0
-78 -132 -135 0
-78 -133 -134 0
-78 -133 -135 0
-78 -134 -135 0
-132 -133 -134 0
-132 -133 -135 0
-132 -134 -135 0
-133 -134 -135 0
7 14 64 78 132 133 134 0
7 14 64 78 132 133 135 0
7 14 64 78 132 134 135 0
7 14 64 78 133 134 135 0
7 14 64 132 133 134 135 0
7 14 78 132 133 134 135 0
7 64 78 132 133 134 135 0
14 64 78 132 133 134 135 0
-577 -584 -632 0
-577 -584 -647 0
-577 -584 -697 0
-577 -584 -698 0
-577 -584 -699 0
-577 -584 -700 0
-577 -632 -647 0
-577 -632 -697 0
-577 -632 -698 0
-577 -632 -699 0
-577 -632 -700 0
-577 -647 -697 0
-577 -647 -698 0
-577 -647 -699 0
-577 -647 -700 0
-577 -697 -698 0
-577 -697 -699 0
-577 -697 -700 0
-577 -698 -699 0
-577 -698 -700 0
-577 -699 -700 0
-584 -632 -647 0
-584 -632 -697 0
-584 -632 -698 0
-584 -632 -699 0
-584 -632 -700 0
-584 -647 -697 0
-584 -647 -698 0
-584 -647 -699 0
-584 -647 -700 0
-584 -697 -698 0
-584 -697 -699 0
-584 -697 -700 0
-584 -698 -699 0
-584 -698 -700 0
-584 -699 -700 0
-632 -647 -697 0
-632 -647 -698 0
-632 -647 -699 0
-632 -647 -700 0
-632 -697 -698 0
-632 -697 -699 0
-632 -697 -700 0
-632 -698 -699 0
-632 -698 -700 0
-632 -699 -700 0
-647 -697 -698 0
-647 -697 -699 0
-647 -697 -700 0
-647 -698 -699 0
-647 -698 -700 0
-647 -699 -700 0
-697 -698 -699 0
-697 -698 -700 0
-697 -699 -700 0
-698 -699 -700 0
577 584 632 647 697 698 699 0
577 584 632 647 697 698 700 0
577 584 632 647 697 699 700 0
577 584 632 647 698 699 700 0
577 584 632 697 698 699 700 0
577 584 647 697 698 699 700 0
577 632 647 697 698 699 700 0
584 632 647 697 698 699 700 0
-56 -57 -58 0
-56 -57 -59 0
-56 -58 -59 0
-57 -58 -59 0
56 57 58 0
56 57 59 0
56 58 59 0
57 58 59 0
-613 -619 -668 0
-613 -619 -680 0
-613 -619 -733 0
-613 -619 -734 0
-613 -619 -735 0
-613 -619 -736 0
-613 -668 -680 0
-613 -668 -733 0
-613 -668 -734 0
-613 -668 -735 0
-613 -668 -736 0
-613 -680 -733 0
-613 -680 -734 0
-613 -680 -735 0
-613 -680 -736 0
-613 -733 -734 0
-613 -733 -735 0
-613 -733 -736 0
-613 -734 -735 0
-613 -734 -736 0
-613 -735 -736 0
-619 -668 -680 0
-619 -668 -733 0
-619 -668 -734 0
-619 -668 -735 0
-619 -668 -736 0
-619 -680 -733 0
-619 -680 -734 0
-619 -680 -735 0
-619 -680 -736 0
-619 -733 -734 0
-619 -733 -735 0
-619 -733 -736 0
-619 -734 -735 0
-619 -734 -736 0
-619 -735 -736 0
-668 -680 -733 0
-668 -680 -734 0
-668 -680 -735 0
-668 -680 -736 0
-668 -733 -734 0
-668 -733 -735 0
-668 -733 -736 0
-668 -734 -735 0
-668 -734 -736 0
-668 -735 -736 0
-680 -733 -734 0
-680 -733 -735 0
-680 -733 -736 0
-680 -734 -735 0
-680 -734 -736 0
-680 -735 -736 0
-733 -734 -735 0
-733 -734 -736 0
-733 -735 -736 0
-734 -735 -736 0
613 619 668 680 733 734 735 0
613 619 668 680 733 734 736 0
613 619 668 680 733 735 736 0
613 619 668 680 734 735 736 0
613 619 668 733 734 735 736 0
613 619 680 733 734 735 736 0
613 668 680 733 734 735 736 0
619 668 680 733 734 735 736 0
-17 -32 -86 0
-17 -32 -87 0
-17 -32 -88 0
-17 -32 -89 0
-17 -86 -87 0
-17 -86 -88 0
-17 -86 -89 0
-17 -87 -88 0
-17 -87 -89 0
-17 -88 -89 0
-32 -86 -87 0
-32 -86 -88 0
-32 -86 -89 0
-32 -87 -88 0
-32 -87 -89 0
-32 -88 -89 0
-86 -87 -88 0
-86 -87 -89 0
-86 -88 -89 0
-87 -88 -89 0
17 32 86 87 88 0
17 32 86 87 89 0
17 32 86 88 89 0
17 32 87 88 89 0
17 86 87 88 89 0
32 86 87 88 89 0
-255 -262 -312 0
-255 -262 -326 0
-255 -262 -380 0
-255 -262 -381 0
-255 -262 -382 0
-255 -262 -383 0
-255 -312 -326 0
-255 -312 -380 0
-255 -312 -381 0
-255 -312 -382 0
-255 -312 -383 0
-255 -326 -380 0
-255 -326 -381 0
-255 -326 -382 0
-255 -326 -383 0
-255 -380 -381 0
-255 -380 -382 0
-255 -380 -383 0
-255 -381 -382 0
-255 -381 -383 0
-255 -382 -383 0
-262 -312 -326 0
-262 -312 -380 0
-262 -312 -381 0
-262 -312 -382 0
-262 -312 -383 0
-262 -326 -380 0
-262 -326 -381 0
-262 -326 -382 0
-262 -326 -383 0
-262 -380 -381 0
-262 -380 -382 0
-262 -380 -383 0
-262 -381 -382 0
-262 -381 -383 0
-262 -382 -383 0
-312 -326 -380 0
-312 -326 -381 0
-312 -326 -382 0
-312 -326 -383 0
-312 -380 -381 0
-312 -380 -382 0
-312 -380 -383 0
-312 -381 -382 0
-312 -381 -383 0
-312 -382 -383 0
-326 -380 -381 0
-326 -380 -382 0
-326 -380 -383 0
-326 -381 -382 0
-326 -381 -383 0
-326 -382 -383 0
-380 -381 -382 0
-380 -381 -383 0
-380 -382 -383 0
-381 -382 -383 0
255 262 312 326 380 381 382 0
255 262 312 326 380 381 383 0
255 262 312 326 380 382 383 0
255 262 312 326 381 382 383 0
255 262 312 380 381 382 383 0
255 262 326 380 381 382 383 0
255 312 326 380 381 382 383 0
262 312 326 380 381 382 383 0
-313 -320 -373 0
-313 -320 -384 0
-313 -320 -438 0
-313 -320 -439 0
-313 -320 -440 0
-313 -320 -441 0
-313 -373 -384 0
-313 -373 -438 0
-313 -373 -439 0
-313 -373 -440 0
-313 -373 -441 0
-313 -384 -438 0
-313 -384 -439 0
-313 -384 -440 0
-313 -384 -441 0
-313 -438 -439 0
-313 -438 -440 0
-313 -438 -441 0
-313 -439 -440 0
-313 -439 -441 0
-313 -440 -441 0
-320 -373 -384 0
-320 -373 -438 0
-320 -373 -439 0
-320 -373 -440 0
-320 -373 -441 0
-320 -384 -438 0
-320 -384 -439 0
-320 -384 -440 0
-320 -384 -441 0
-320 -438 -439 0
-320 -438 -440 0
-320 -438 -441 0
-320 -439 -440 0
-320 -439 -441 0
-320 -440 -441 0
-373 -384 -438 0
-373 -384 -439 0
-373 -384 -440 0
-373 -384 -441 0
-373 -438 -439 0
-373 -438 -440 0
-373 -438 -441 0
-373 -439 -440 0
-373 -439 -441 0
-373 -440 -441 0
-384 -438 -439 0
-384 -438 -440 0
-384 -438 -441 0
-384 -439 -440 0
-384 -439 -441 0
-384 -440 -441 0
-438 -439 -440 0
-438 -439 -441 0
-438 -440 -441 0
-439 -440 -441 0
313 320 373 384 438 439 440 0
313 320 373 384 438 439 441 0
313 320 373 384 438 440 441 0
313 320 373 384 439 440 441 0
313 320 373 438 439 440 441 0
313 320 384 438 439 440 441 0
313 373 384 438 439 440 441 0
320 373 384 438 439 440 441 0
-53 -122 -123 0
-291 -298 -347 0
-291 -298 -362 0
-291 -298 -416 0
-291 -298 -417 0
-291 -298 -418 0
-291 -298 -419 0
-291 -347 -362 0
-291 -347 -416 0
-291 -347 -417 0
-291 -347 -418 0
-291 -347 -419 0
-291 -362 -416 0
-291 -362 -417 0
-291 -362 -418 0
-291 -362 -419 0
-291 -416 -417 0
-291 -416 -418 0
-291 -416 -419 0
-291 -417 -418 0
-291 -417 -419 0
-291 -418 -419 0
-298 -347 -362 0
-298 -347 -416 0
-298 -347 -417 0
-298 -347 -418 0
-298 -347 -419 0
-298 -362 -416 0
-298 -362 -417 0
-298 -362 -418 0
-298 -362 -419 0
-298 -416 -417 0
-298 -416 -418 0
-298 -416 -419 0
-298 -417 -418 0
-298 -417 -419 0
-298 -418 -419 0
-347 -362 -416 0
-347 -362 -417 0
-347 -362 -418 0
-347 -362 -419 0
-347 -416 -417 0
-347 -416 -418 0
-347 -416 -419 0
-347 -417 -418 0
-347 -417 -419 0
-347 -418 -419 0
-362 -416 -417 0
-362 -416 -418 0
-362 -416 -419 0
-362 -417 -418 0
-362 -417 -419 0
-362 -418 -419 0
-416 -417 -418 0
-416 -417 -419 0
-416 -418 -419 0
-417 -418 -419 0
291 298 347 362 416 417 418 0
291 298 347 362 416 417 419 0
291 298 347 362 416 418 419 0
291 298 347 362 417 418 419 0
291 298 347 416 417 418 419 0
291 298 362 416 417 418 419 0
291 347 362 416 417 418 419 0
298 347 362 416 417 418 419 0
-349 -356 -405 0
-349 -356 -420 0
-349 -356 -474 0
-349 -356 -475 0
-349 -356 -476 0
-349 -356 -477 0
-349 -405 -420 0
-349 -405 -474 0
-349 -405 -475 0
-349 -405 -476 0
-349 -405 -477 0
-349 -420 -474 0
-349 -420 -475 0
-349 -420 -476 0
-349 -420 -477 0
-349 -474 -475 0
-349 -474 -476 0
-349 -474 -477 0
-349 -475 -476 0
-349 -475 -477 0
-349 -476 -477 0
-356 -405 -420 0
-356 -405 -474 0
-356 -405 -475 0
-356 -405 -476 0
-356 -405 -477 0
-356 -420 -474 0
-356 -420 -475 0
-356 -420 -476 0
-356 -420 -477 0
-356 -474 -475 0
-356 -474 -476 0
-356 -474 -477 0
-356 -475 -476 0
-356 -475 -477 0
-356 -476 -477 0
-405 -420 -474 0
-405 -420 -475 0
-405 -420 -476 0
-405 -420 -477 0
-405 -474 -475 0
-405 -474 -476 0
-405 -474 -477 0
-405 -475 -476 0
-405 -475 -477 0
-405 -476 -477 0
-420 -474 -475 0
-420 -474 -476 0
-420 -474 -477 0
-420 -475 -476 0
-420 -475 -477 0
-420 -476 -477 0
-474 -475 -476 0
-474 -475 -477 0
-474 -476 -477 0
-475 -476 -477 0
349 356 405 420 474 475 476 0
349 356 405 420 474 475 477 0
349 356 405 420 474 476 477 0
349 356 405 420 475 476 477 0
349 356 405 474 475 476 477 0
349 356 420 474 475 476 477 0
349 405 420 474 475 476 477 0
356 405 420 474 475 476 477 0
-85 -92 -141 0
-85 -92 -156 0
-85 -92 -210 0
-85 -92 -211 0
-85 -92 -212 0
-85 -92 -213 0
-85 -141 -156 0
-85 -141 -210 0
-85 -141 -211 0
-85 -141 -212 0
-85 -141 -213 0
-85 -156 -210 0
-85 -156 -211 0
-85 -156 -212 0
-85 -156 -213 0
-85 -210 -211 0
-85 -210 -212 0
-85 -210 -213 0
-85 -211 -212 0
-85 -211 -213 0
-85 -212 -213 0
-92 -141 -156 0
-92 -141 -210 0
-92 -141 -211 0
-92 -141 -212 0
-92 -141 -213 0
-92 -156 -210 0
-92 -156 -211 0
-92 -156 -212 0
-92 -156 -213 0
-92 -210 -211 0
-92 -210 -212 0
-92 -210 -213 0
-92 -211 -212 0
-92 -211 -213 0
-92 -212 -213 0
-141 -156 -210 0
-141 -156 -211 0
-141 -156 -212 0
-141 -156 -213 0
-141 -210 -211 0
-141 -210 -212 0
-141 -210 -213 0
-141 -211 -212 0
-141 -211 -213 0
-141 -212 -213 0
-156 -210 -211 0
-156 -210 -212 0
-156 -210 -213 0
-156 -211 -212 0
-156 -211 -213 0
-156 -212 -213 0
-210 -211 -212 0
-210 -211 -213 0
-210 -212 -213 0
-211 -212 -213 0
85 92 141 156 210 211 212 0
85 92 141 156 210 211 213 0
85 92 141 156 210 212 213 0
85 92 141 156 211 212 213 0
85 92 141 210 211 212 213 0
85 92 156 210 211 212 213 0
85 141 156 210 211 212 213 0
92 141 156 210 211 212 213 0
-197 -204 -253 0
-197 -204 -268 0
-197 -204 -322 0
-197 -204 -323 0
-197 -204 -324 0
-197 -204 -325 0
-197 -253 -268 0
-197 -253 -322 0
-197 -253 -323 0
-197 -253 -324 0
-197 -253 -325 0
-197 -268 -322 0
-197 -268 -323 0
-197 -268 -324 0
-197 -268 -325 0
-197 -322 -323 0
-197 -322 -324 0
-197 -322 -325 0
-197 -323 -324 0
-197 -323 -325 0
-197 -324 -325 0
-204 -253 -268 0
-204 -253 -322 0
-204 -253 -323 0
-204 -253 -324 0
-204 -253 -325 0
-204 -268 -322 0
-204 -268 -323 0
-204 -268 -324 0
-204 -268 -325 0
-204 -322 -323 0
-204 -322 -324 0
-204 -322 -325 0
-204 -323 -324 0
-204 -323 -325 0
-204 -324 -325 0
-253 -268 -322 0
-253 -268 -323 0
-253 -268 -324 0
-253 -268 -325 0
-253 -322 -323 0
-253 -322 -324 0
-253 -322 -325 0
-253 -323 -324 0
-253 -323 -325 0
-253 -324 -325 0
-268 -322 -323 0
-268 -322 -324 0
-268 -322 -325 0
-268 -323 -324 0
-268 -323 -325 0
-268 -324 -325 0
-322 -323 -324 0
-322 -323 -325 0
-322 -324 -325 0
-323 -324 -325 0
197 204 253 268 322 323 324 0
197 204 253 268 322 323 325 0
197 204 253 268 322 324 325 0
197 204 253 268 323 324 325 0
197 204 253 322 323 324 325 0
197 204 268 322 323 324 325 0
197 253 268 322 323 324 325 0
204 253 268 322 323 324 325 0
-379 -386 -436 0
-379 -386 -450 0
-379 -386 -504 0
-379 -386 -505 0
-379 -386 -506 0
-379 -386 -507 0
-379 -436 -450 0
-379 -436 -504 0
-379 -436 -505 0
-379 -436 -506 0
-379 -436 -507 0
-379 -450 -504 0
-379 -450 -505 0
-379 -450 -506 0
-379 -450 -507 0
-379 -504 -505 0
-379 -504 -506 0
-379 -504 -507 0
-379 -505 -506 0
-379 -505 -507 0
-379 -506 -507 0
-386 -436 -450 0
-386 -436 -504 0
-386 -436 -505 0
-386 -436 -506 0
-386 -436 -507 0
-386 -450 -504 0
-386 -450 -505 0
-386 -450 -506 0
-386 -450 -507 0
-386 -504 -505 0
-386 -504 -506 0
-386 -504 -507 0
-386 -505 -506 0
-386 -505 -507 0
-386 -506 -507 0
-436 -450 -504 0
-436 -450 -505 0
-436 -450 -506 0
-436 -450 -507 0
-436 -504 -505 0
-436 -504 -506 0
-436 -504 -507 0
-436 -505 -506 0
-436 -505 -507 0
-436 -506 -507 0
-450 -504 -505 0
-450 -504 -506 0
-450 -504 -507 0
-450 -505 -506 0
-450 -505 -507 0
-450 -506 -507 0
-504 -505 -506 0
-504 -505 -507 0
-504 -506 -507 0
-505 -506 -507 0
379 386 436 450 504 505 506 0
379 386 436 450 504 505 507 0
379 386 436 450 504 506 507 0
379 386 436 450 505 506 507 0
379 386 436 504 505 506 507 0
379 386 450 504 505 506 507 0
379 436 450 504 505 506 507 0
386 436 450 504 505 506 507 0
-437 -444 -497 0
-437 -444 -508 0
-437 -444 -562 0
-437 -444 -563 0
-437 -444 -564 0
-437 -444 -565 0
-437 -497 -508 0
-437 -497 -562 0
-437 -497 -563 0
-437 -497 -564 0
-437 -497 -565 0
-437 -508 -562 0
-437 -508 -563 0
-437 -508 -564 0
-437 -508 -565 0
-437 -562 -563 0
-437 -562 -564 0
-437 -562 -565 0
-437 -563 -564 0
-437 -563 -565 0
-437 -564 -565 0
-444 -497 -508 0
-444 -497 -562 0
-444 -497 -563 0
-444 -497 -564 0
-444 -497 -565 0
-444 -508 -562 0
-444 -508 -563 0
-444 -508 -564 0
-444 -508 -565 0
-444 -562 -563 0
-444 -562 -564 0
-444 -562 -565 0
-444 -563 -564 0
-444 -563 -565 0
-444 -564 -565 0
-497 -508 -562 0
-497 -508 -563 0
-497 -508 -564 0
-497 -508 -565 0
-497 -562 -563 0
-497 -562 -564 0
-497 -562 -565 0
-497 -563 -564 0
-497 -563 -565 0
-497 -564 -565 0
-508 -562 -563 0
-508 -562 -564 0
-508 -562 -565 0
-508 -563 -564 0
-508 -563 -565 0
-508 -564 -565 0
-562 -563 -564 0
-562 -563 -565 0
-562 -564 -565 0
-563 -564 -565 0
437 444 497 508 562 563 564 0
437 444 497 508 562 563 565 0
437 444 497 508 562 564 565 0
437 444 497 508 563 564 565 0
437 444 497 562 563 564 565 0
437 444 508 562 563 564 565 0
437 497 508 562 563 564 565 0
444 497 508 562 563 564 565 0
-121 -177 -246 0
-121 -177 -247 0
-121 -246 -247 0
-177 -246 -247 0
-233 -240 -289 0
-233 -240 -304 0
-233 -240 -358 0
-233 -240 -359 0
-233 -240 -360 0
-233 -240 -361 0
-233 -289 -304 0
-233 -289 -358 0
-233 -289 -359 0
-233 -289 -360 0
-233 -289 -361 0
-233 -304 -358 0
-233 -304 -359 0
-233 -304 -360 0
-233 -304 -361 0
-233 -358 -359 0
-233 -358 -360 0
-233 -358 -361 0
-233 -359 -360 0
-233 -359 -361 0
-233 -360 -361 0
-240 -289 -304 0
-240 -289 -358 0
-240 -289 -359 0
-240 -289 -360 0
-240 -289 -361 0
-240 -304 -358 0
-240 -304 -359 0
-240 -304 -360 0
-240 -304 -361 0
-240 -358 -359 0
-240 -358 -360 0
-240 -358 -361 0
-240 -359 -360 0
-240 -359 -361 0
-240 -360 -361 0
-289 -304 -358 0
-289 -304 -359 0
-289 -304 -360 0
-289 -304 -361 0
-289 -358 -359 0
-289 -358 -360 0
-289 -358 -361 0
-289 -359 -360 0
-289 -359 -361 0
-289 -360 -361 0
-304 -358 -359 0
-304 -358 -360 0
-304 -358 -361 0
-304 -359 -360 0
-304 -359 -361 0
-304 -360 -361 0
-358 -359 -360 0
-358 -359 -361 0
-358 -360 -361 0
-359 -360 -361 0
233 240 289 304 358 359 360 0
233 240 289 304 358 359 361 0
233 240 289 304 358 360 361 0
233 240 289 304 359 360 361 0
233 240 289 358 359 360 361 0
233 240 304 358 359 360 361 0
233 289 304 358 359 360 361 0
240 289 304 358 359 360 361 0
-473 -480 -529 0
-473 -480 -544 0
-473 -480 -598 0
-473 -480 -599 0
-473 -480 -600 0
-473 -480 -601 0
-473 -529 -544 0
-473 -529 -598 0
-473 -529 -599 0
-473 -529 -600 0
-473 -529 -601 0
-473 -544 -598 0
-473 -544 -599 0
-473 -544 -600 0
-473 -544 -601 0
-473 -598 -599 0
-473 -598 -600 0
-473 -598 -601 0
-473 -599 -600 0
-473 -599 -601 0
-473 -600 -601 0
-480 -529 -544 0
-480 -529 -598 0
-480 -529 -599 0
-480 -529 -600 0
-480 -529 -601 0
-480 -544 -598 0
-480 -544 -599 0
-480 -544 -600 0
-480 -544 -601 0
-480 -598 -599 0
-480 -598 -600 0
-480 -598 -601 0
-480 -599 -600 0
-480 -599 -601 0
-480 -600 -601 0
-529 -544 -598 0
-529 -544 -599 0
-529 -544 -600 0
-529 -544 -601 0
-529 -598 -599 0
-529 -598 -600 0
-529 -598 -601 0
-529 -599 -600 0
-529 -599 -601 0
-529 -600 -601 0
-544 -598 -599 0
-544 -598 -600 0
-544 -598 -601 0
-544 -599 -600 0
-544 -599 -601 0
-544 -600 -601 0
-598 -599 -600 0
-598 -599 -601 0
-598 -600 -601 0
-599 -600 -601 0
473 480 529 544 598 599 600 0
473 480 529 544 598 599 601 0
473 480 529 544 598 600 601 0
473 480 529 544 599 600 601 0
473 480 529 598 599 600 601 0
473 480 544 598 599 600 601 0
473 529 544 598 599 600 601 0
480 529 544 598 599 600 601 0
-28 -29 -30 0
-28 -29 -31 0
-28 -30 -31 0
-29 -30 -31 0
28 29 30 0
28 29 31 0
28 30 31 0
29 30 31 0
-585 -592 -640 0
-585 -592 -655 0
-585 -592 -705 0
-585 -592 -706 0
-585 -592 -707 0
-585 -592 -708 0
-585 -640 -655 0
-585 -640 -705 0
-585 -640 -706 0
-585 -640 -707 0
-585 -640 -708 0
-585 -655 -705 0
-585 -655 -706 0
-585 -655 -707 0
-585 -655 -708 0
-585 -705 -706 0
-585 -705 -707 0
-585 -705 -708 0
-585 -706 -707 0
-585 -706 -708 0
-585 -707 -708 0
-592 -640 -655 0
-592 -640 -705 0
-592 -640 -706 0
-592 -640 -707 0
-592 -640 -708 0
-592 -655 -705 0
-592 -655 -706 0
-592 -655 -707 0
-592 -655 -708 0
-592 -705 -706 0
-592 -705 -707 0
-592 -705 -708 0
-592 -706 -707 0
-592 -706 -708 0
-592 -707 -708 0
-640 -655 -705 0
-640 -655 -706 0
-640 -655 -707 0
-640 -655 -708 0
-640 -705 -706 0
-640 -705 -707 0
-640 -705 -708 0
-640 -706 -707 0
-640 -706 -708 0
-640 -707 -708 0
-655 -705 -706 0
-655 -705 -707 0
-655 -705 -708 0
-655 -706 -707 0
-655 -706 -708 0
-655 -707 -708 0
-705 -706 -707 0
-705 -706 -708 0
-705 -707 -708 0
-706 -707 -708 0
585 592 640 655 705 706 707 0
585 592 640 655 705 706 708 0
585 592 640 655 705 707 708 0
585 592 640 655 706 707 708 0
585 592 640 705 706 707 708 0
585 592 655 705 706 707 708 0
585 640 655 705 706 707 708 0
592 640 655 705 706 707 708 0
-25 -40 -94 0
-25 -40 -95 0
-25 -40 -96 0
-25 -40 -97 0
-25 -94 -95 0
-25 -94 -96 0
-25 -94 -97 0
-25 -95 -96 0
-25 -95 -97 0
-25 -96 -97 0
-40 -94 -95 0
-40 -94 -96 0
-40 -94 -97 0
-40 -95 -96 0
-40 -95 -97 0
-40 -96 -97 0
-94 -95 -96 0
-94 -95 -97 0
-94 -96 -97 0
-95 -96 -97 0
25 40 94 95 96 0
25 40 94 95 97 0
25 40 94 96 97 0
25 40 95 96 97 0
25 94 95 96 97 0
40 94 95 96 97 0
-263 -270 -319 0
-263 -270 -334 0
-263 -270 -388 0
-263 -270 -389 0
-263 -270 -390 0
-263 -270 -391 0
-263 -319 -334 0
-263 -319 -388 0
-263 -319 -389 0
-263 -319 -390 0
-263 -319 -391 0
-263 -334 -388 0
-263 -334 -389 0
-263 -334 -390 0
-263 -334 -391 0
-263 -388 -389 0
-263 -388 -390 0
-263 -388 -391 0
-263 -389 -390 0
-263 -389 -391 0
-263 -390 -391 0
-270 -319 -334 0
-270 -319 -388 0
-270 -319 -389 0
-270 -319 -390 0
-270 -319 -391 0
-270 -334 -388 0
-270 -334 -389 0
-270 -334 -390 0
-270 -334 -391 0
-270 -388 -389 0
-270 -388 -390 0
-270 -388 -391 0
-270 -389 -390 0
-270 -389 -391 0
-270 -390 -391 0
-319 -334 -388 0
-319 -334 -389 0
-319 -334 -390 0
-319 -334 -391 0
-319 -388 -389 0
-319 -388 -390 0
-319 -388 -391 0
-319 -389 -390 0
-319 -389 -391 0
-319 -390 -391 0
-334 -388 -389 0
-334 -388 -390 0
-334 -388 -391 0
-334 -389 -390 0
-334 -389 -391 0
-334 -390 -391 0
-388 -389 -390 0
-388 -389 -391 0
-388 -390 -391 0
-389 -390 -391 0
263 270 319 334 388 389 390 0
263 270 319 334 388 389 391 0
263 270 319 334 388 390 391 0
263 270 319 334 389 390 391 0
263 270 319 388 389 390 391 0
263 270 334 388 389 390 391 0
263 319 334 388 389 390 391 0
270 319 334 388 389 390 391 0
-321 -328 -377 0
-321 -328 -392 0
-321 -328 -446 0
-321 -328 -447 0
-321 -328 -448 0
-321 -328 -449 0
-321 -377 -392 0
-321 -377 -446 0
-321 -377 -447 0
-321 -377 -448 0
-321 -377 -449 0
-321 -392 -446 0
-321 -392 -447 0
-321 -392 -448 0
-321 -392 -449 0
-321 -446 -447 0
-321 -446 -448 0
-321 -446 -449 0
-321 -447 -448 0
-321 -447 -449 0
-321 -448 -449 0
-328 -377 -392 0
-328 -377 -446 0
-328 -377 -447 0
-328 -377 -448 0
-328 -377 -449 0
-328 -392 -446 0
-328 -392 -447 0
-328 -392 -448 0
-328 -392 -449 0
-328 -446 -447 0
-328 -446 -448 0
-328 -446 -449 0
-328 -447 -448 0
-328 -447 -449 0
-328 -448 -449 0
-377 -392 -446 0
-377 -392 -447 0
-377 -392 -448 0
-377 -392 -449 0
-377 -446 -447 0
-377 -446 -448 0
-377 -446 -449 0
-377 -447 -448 0
-377 -447 -449 0
-377 -448 -449 0
-392 -446 -447 0
-392 -446 -448 0
-392 -446 -449 0
-392 -447 -448 0
-392 -447 -449 0
-392 -448 -449 0
-446 -447 -448 0
-446 -447 -449 0
-446 -448 -449 0
-447 -448 -449 0
321 328 377 392 446 447 448 0
321 328 377 392 446 447 449 0
321 328 377 392 446 448 449 0
321 328 377 392 447 448 449 0
321 328 377 446 447 448 449 0
321 328 392 446 447 448 449 0
321 377 392 446 447 448 449 0
328 377 392 446 447 448 449 0
-357 -364 -413 0
-357 -364 -428 0
-357 -364 -482 0
-357 -364 -483 0
-357 -364 -484 0
-357 -364 -485 0
-357 -413 -428 0
-357 -413 -482 0
-357 -413 -483 0
-357 -413 -484 0
-357 -413 -485 0
-357 -428 -482 0
-357 -428 -483 0
-357 -428 -484 0
-357 -428 -485 0
-357 -482 -483 0
-357 -482 -484 0
-357 -482 -485 0
-357 -483 -484 0
-357 -483 -485 0
-357 -484 -485 0
-364 -413 -428 0
-364 -413 -482 0
-364 -413 -483 0
-364 -413 -484 0
-364 -413 -485 0
-364 -428 -482 0
-364 -428 -483 0
-364 -428 -484 0
-364 -428 -485 0
-364 -482 -483 0
-364 -482 -484 0
-364 -482 -485 0
-364 -483 -484 0
-364 -483 -485 0
-364 -484 -485 0
-413 -428 -482 0
-413 -428 -483 0
-413 -428 -484 0
-413 -428 -485 0
-413 -482 -483 0
-413 -482 -484 0
-413 -482 -485 0
-413 -483 -484 0
-413 -483 -485 0
-413 -484 -485 0
-428 -482 -483 0
-428 -482 -484 0
-428 -482 -485 0
-428 -483 -484 0
-428 -483 -485 0
-428 -484 -485 0
-482 -483 -484 0
-482 -483 -485 0
-482 -484 -485 0
-483 -484 -485 0
357 364 413 428 482 483 484 0
357 364 413 428 482 483 485 0
357 364 413 428 482 484 485 0
357 364 413 428 483 484 485 0
357 364 413 482 483 484 485 0
357 364 428 482 483 484 485 0
357 413 428 482 483 484 485 0
364 413 428 482 483 484 485 0
-662 -669 -714 0
-662 -669 -729 0
-662 -714 -729 0
-669 -714 -729 0
-93 -100 -149 0
-93 -100 -164 0
-93 -100 -218 0
-93 -100 -219 0
-93 -100 -220 0
-93 -100 -221 0
-93 -149 -164 0
-93 -149 -218 0
-93 -149 -219 0
-93 -149 -220 0
-93 -149 -221 0
-93 -164 -218 0
-93 -164 -219 0
-93 -164 -220 0
-93 -164 -221 0
-93 -218 -219 0
-93 -218 -220 0
-93 -218 -221 0
-93 -219 -220 0
-93 -219 -221 0
-93 -220 -221 0
-100 -149 -164 0
-100 -149 -218 0
-100 -149 -219 0
-100 -149 -220 0
-100 -149 -221 0
-100 -164 -218 0
-100 -164 -219 0
-100 -164 -220 0
-100 -164 -221 0
-100 -218 -219 0
-100 -218 -220 0
-100 -218 -221 0
-100 -219 -220 0
-100 -219 -221 0
-100 -220 -221 0
-149 -164 -218 0
-149 -164 -219 0
-149 -164 -220 0
-149 -164 -221 0
-149 -218 -219 0
-149 -218 -220 0
-149 -218 -221 0
-149 -219 -220 0
-149 -219 -221 0
-149 -220 -221 0
-164 -218 -219 0
-164 -218 -220 0
-164 -218 -221 0
-164 -219 -220 0
-164 -219 -221 0
-164 -220 -221 0
-218 -219 -220 0
-218 -219 -221 0
-218 -220 -221 0
-219 -220 -221 0
93 100 149 164 218 219 220 0
93 100 149 164 218 219 221 0
93 100 149 164 218 220 221 0
93 100 149 164 219 220 221 0
93 100 149 218 219 220 221 0
93 100 164 218 219 220 221 0
93 149 164 218 219 220 221 0
100 149 164 218 219 220 221 0
-205 -212 -261 0
-205 -212 -276 0
-205 -212 -330 0
-205 -212 -331 0
-205 -212 -332 0
-205 -212 -333 0
-205 -261 -276 0
-205 -261 -330 0
-205 -261 -331 0
-205 -261 -332 0
-205 -261 -333 0
-205 -276 -330 0
-205 -276 -331 0
-205 -276 -332 0
-205 -276 -333 0
-205 -330 -331 0
-205 -330 -332 0
-205 -330 -333 0
-205 -331 -332 0
-205 -331 -333 0
-205 -332 -333 0
-212 -261 -276 0
-212 -261 -330 0
-212 -261 -331 0
-212 -261 -332 0
-212 -261 -333 0
-212 -276 -330 0
-212 -276 -331 0
-212 -276 -332 0
-212 -276 -333 0
-212 -330 -331 0
-212 -330 -332 0
-212 -330 -333 0
-212 -331 -332 0
-212 -331 -333 0
-212 -332 -333 0
-261 -276 -330 0
-261 -276 -331 0
-261 -276 -332 0
-261 -276 -333 0
-261 -330 -331 0
-261 -330 -332 0
-261 -330 -333 0
-261 -331 -332 0
-261 -331 -333 0
-261 -332 -333 0
-276 -330 -331 0
-276 -330 -332 0
-276 -330 -333 0
-276 -331 -332 0
-276 -331 -333 0
-276 -332 -333 0
-330 -331 -332 0
-330 -331 -333 0
-330 -332 -333 0
-331 -332 -333 0
205 212 261 276 330 331 332 0
205 212 261 276 330 331 333 0
205 212 261 276 330 332 333 0
205 212 261 276 331 332 333 0
205 212 261 330 331 332 333 0
205 212 276 330 331 332 333 0
205 261 276 330 331 332 333 0
212 261 276 330 331 332 333 0
-445 -452 -501 0
-445 -452 -516 0
-445 -452 -570 0
-445 -452 -571 0
-445 -452 -572 0
-445 -452 -573 0
-445 -501 -516 0
-445 -501 -570 0
-445 -501 -571 0
-445 -501 -572 0
-445 -501 -573 0
-445 -516 -570 0
-445 -516 -571 0
-445 -516 -572 0
-445 -516 -573 0
-445 -570 -571 0
-445 -570 -572 0
-445 -570 -573 0
-445 -571 -572 0
-445 -571 -573 0
-445 -572 -573 0
-452 -501 -516 0
-452 -501 -570 0
-452 -501 -571 0
-452 -501 -572 0
-452 -501 -573 0
-452 -516 -570 0
-452 -516 -571 0
-452 -516 -572 0
-452 -516 -573 0
-452 -570 -571 0
-452 -570 -572 0
-452 -570 -573 0
-452 -571 -572 0
-452 -571 -573 0
-452 -572 -573 0
-501 -516 -570 0
-501 -516 -571 0
-501 -516 -572 0
-501 -516 -573 0
-501 -570 -571 0
-501 -570 -572 0
-501 -570 -573 0
-501 -571 -572 0
-501 -571 -573 0
-501 -572 -573 0
-516 -570 -571 0
-516 -570 -572 0
-516 -570 -573 0
-516 -571 -572 0
-516 -571 -573 0
-516 -572 -573 0
-570 -571 -572 0
-570 -571 -573 0
-570 -572 -573 0
-571 -572 -573 0
445 452 501 516 570 571 572 0
445 452 501 516 570 571 573 0
445 452 501 516 570 572 573 0
445 452 501 516 571 572 573 0
445 452 501 570 571 572 573 0
445 452 516 570 571 572 573 0
445 501 516 570 571 572 573 0
452 501 516 570 571 572 573 0
-241 -247 -297 0
-241 -247 -310 0
-241 -247 -366 0
-241 -247 -367 0
-241 -247 -368 0
-241 -247 -369 0
-241 -297 -310 0
-241 -297 -366 0
-241 -297 -367 0
-241 -297 -368 0
-241 -297 -369 0
-241 -310 -366 0
-241 -310 -367 0
-241 -310 -368 0
-241 -310 -369 0
-241 -366 -367 0
-241 -366 -368 0
-241 -366 -369 0
-241 -367 -368 0
-241 -367 -369 0
-241 -368 -369 0
-247 -297 -310 0
-247 -297 -366 0
-247 -297 -367 0
-247 -297 -368 0
-247 -297 -369 0
-247 -310 -366 0
-247 -310 -367 0
-247 -310 -368 0
-247 -310 -369 0
-247 -366 -367 0
-247 -366 -368 0
-247 -366 -369 0
-247 -367 -368 0
-247 -367 -369 0
-247 -368 -369 0
-297 -310 -366 0
-297 -310 -367 0
-297 -310 -368 0
-297 -310 -369 0
-297 -366 -367 0
-297 -366 -368 0
-297 -366 -369 0
-297 -367 -368 0
-297 -367 -369 0
-297 -368 -369 0
-310 -366 -367 0
-310 -366 -368 0
-310 -366 -369 0
-310 -367 -368 0
-310 -367 -369 0
-310 -368 -369 0
-366 -367 -368 0
-366 -367 -369 0
-366 -368 -369 0
-367 -368 -369 0
241 247 297 310 366 367 368 0
241 247 297 310 366 367 369 0
241 247 297 310 366 368 369 0
241 247 297 310 367 368 369 0
241 247 297 366 367 368 369 0
241 247 310 366 367 368 369 0
241 297 310 366 367 368 369 0
247 297 310 366 367 368 369 0
-481 -488 -537 0
-481 -488 -552 0
-481 -488 -606 0
-481 -488 -607 0
-481 -488 -608 0
-481 -488 -609 0
-481 -537 -552 0
-481 -537 -606 0
-481 -537 -607 0
-481 -537 -608 0
-481 -537 -609 0
-481 -552 -606 0
-481 -552 -607 0
-481 -552 -608 0
-481 -552 -609 0
-481 -606 -607 0
-481 -606 -608 0
-481 -606 -609 0
-481 -607 -608 0
-481 -607 -609 0
-481 -608 -609 0
-488 -537 -552 0
-488 -537 -606 0
-488 -537 -607 0
-488 -537 -608 0
-488 -537 -609 0
-488 -552 -606 0
-488 -552 -607 0
-488 -552 -608 0
-488 -552 -609 0
-488 -606 -607 0
-488 -606 -608 0
-488 -606 -609 0
-488 -607 -608 0
-488 -607 -609 0
-488 -608 -609 0
-537 -552 -606 0
-537 -552 -607 0
-537 -552 -608 0
-537 -552 -609 0
-537 -606 -607 0
-537 -606 -608 0
-537 -606 -609 0
-537 -607 -608 0
-537 -607 -609 0
-537 -608 -609 0
-552 -606 -607 0
-552 -606 -608 0
-552 -606 -609 0
-552 -607 -608 0
-552 -607 -609 0
-552 -608 -609 0
-606 -607 -608 0
-606 -607 -609 0
-606 -608 -609 0
-607 -608 -609 0
481 488 537 552 606 607 608 0
481 488 537 552 606 607 609 0
481 488 537 552 606 608 609 0
481 488 537 552 607 608 609 0
481 488 537 606 607 608 609 0
481 488 552 606 607 608 609 0
481 537 552 606 607 608 609 0
488 537 552 606 607 608 609 0
-1 -12 -66 0
-1 -12 -67 0
-1 -12 -68 0
-1 -12 -69 0
-1 -66 -67 0
-1 -66 -68 0
-1 -66 -69 0
-1 -67 -68 0
-1 -67 -69 0
-1 -68 -69 0
-12 -66 -67 0
-12 -66 -68 0
-12 -66 -69 0
-12 -67 -68 0
-12 -67 -69 0
-12 -68 -69 0
-66 -67 -68 0
-66 -67 -69 0
-66 -68 -69 0
-67 -68 -69 0
1 12 66 67 68 0
1 12 66 67 69 0
1 12 66 68 69 0
1 12 67 68 69 0
1 66 67 68 69 0
12 66 67 68 69 0
-547 -554 -603 0
-547 -554 -618 0
-547 -554 -671 0
-547 -554 -672 0
-547 -554 -673 0
-547 -554 -674 0
-547 -603 -618 0
-547 -603 -671 0
-547 -603 -672 0
-547 -603 -673 0
-547 -603 -674 0
-547 -618 -671 0
-547 -618 -672 0
-547 -618 -673 0
-547 -618 -674 0
-547 -671 -672 0
-547 -671 -673 0
-547 -671 -674 0
-547 -672 -673 0
-547 -672 -674 0
-547 -673 -674 0
-554 -603 -618 0
-554 -603 -671 0
-554 -603 -672 0
-554 -603 -673 0
-554 -603 -674 0
-554 -618 -671 0
-554 -618 -672 0
-554 -618 -673 0
-554 -618 -674 0
-554 -671 -672 0
-554 -671 -673 0
-554 -671 -674 0
-554 -672 -673 0
-554 -672 -674 0
-554 -673 -674 0
-603 -618 -671 0
-603 -618 -672 0
-603 -618 -673 0
-603 -618 -674 0
-603 -671 -672 0
-603 -671 -673 0
-603 -671 -674 0
-603 -672 -673 0
-603 -672 -674 0
-603 -673 -674 0
-618 -671 -672 0
-618 -671 -673 0
-618 -671 -674 0
-618 -672 -673 0
-618 -672 -674 0
-618 -673 -674 0
-671 -672 -673 0
-671 -672 -674 0
-671 -673 -674 0
-672 -673 -674 0
547 554 603 618 671 672 673 0
547 554 603 618 671 672 674 0
547 554 603 618 671 673 674 0
547 554 603 618 672 673 674 0
547 554 603 671 672 673 674 0
547 554 618 671 672 673 674 0
547 603 618 671 672 673 674 0
554 603 618 671 672 673 674 0
-33 -48 -102 0
-33 -48 -103 0
-33 -48 -104 0
-33 -48 -105 0
-33 -102 -103 0
-33 -102 -104 0
-33 -102 -105 0
-33 -103 -104 0
-33 -103 -105 0
-33 -104 -105 0
-48 -102 -103 0
-48 -102 -104 0
-48 -102 -105 0
-48 -103 -104 0
-48 -103 -105 0
-48 -104 -105 0
-102 -103 -104 0
-102 -103 -105 0
-102 -104 -105 0
-103 -104 -105 0
33 48 102 103 104 0
33 48 102 103 105 0
33 48 102 104 105 0
33 48 103 104 105 0
33 102 103 104 105 0
48 102 103 104 105 0
-329 -336 -385 0
-329 -336 -400 0
-329 -336 -454 0
-329 -336 -455 0
-329 -336 -456 0
-329 -336 -457 0
-329 -385 -400 0
-329 -385 -454 0
-329 -385 -455 0
-329 -385 -456 0
-329 -385 -457 0
-329 -400 -454 0
-329 -400 -455 0
-329 -400 -456 0
-329 -400 -457 0
-329 -454 -455 0
-329 -454 -456 0
-329 -454 -457 0
-329 -455 -456 0
-329 -455 -457 0
-329 -456 -457 0
-336 -385 -400 0
-336 -385 -454 0
-336 -385 -455 0
-336 -385 -456 0
-336 -385 -457 0
-336 -400 -454 0
-336 -400 -455 0
-336 -400 -456 0
-336 -400 -457 0
-336 -454 -455 0
-336 -454 -456 0
-336 -454 -457 0
-336 -455 -456 0
-336 -455 -457 0
-336 -456 -457 0
-385 -400 -454 0
-385 -400 -455 0
-385 -400 -456 0
-385 -400 -457 0
-385 -454 -455 0
-385 -454 -456 0
-385 -454 -457 0
-385 -455 -456 0
-385 -455 -457 0
-385 -456 -457 0
-400 -454 -455 0
-400 -454 -456 0
-400 -454 -457 0
-400 -455 -456 0
-400 -455 -457 0
-400 -456 -457 0
-454 -455 -456 0
-454 -455 -457 0
-454 -456 -457 0
-455 -456 -457 0
329 336 385 400 454 455 456 0
329 336 385 400 454 455 457 0
329 336 385 400 454 456 457 0
329 336 385 400 455 456 457 0
329 336 385 454 455 456 457 0
329 336 400 454 455 456 457 0
329 385 400 454 455 456 457 0
336 385 400 454 455 456 457 0
-365 -371 -421 0
-365 -371 -434 0
-365 -371 -490 0
-365 -371 -491 0
-365 -371 -492 0
-365 -371 -493 0
-365 -421 -434 0
-365 -421 -490 0
-365 -421 -491 0
-365 -421 -492 0
-365 -421 -493 0
-365 -434 -490 0
-365 -434 -491 0
-365 -434 -492 0
-365 -434 -493 0
-365 -490 -491 0
-365 -490 -492 0
-365 -490 -493 0
-365 -491 -492 0
-365 -491 -493 0
-365 -492 -493 0
-371 -421 -434 0
-371 -421 -490 0
-371 -421 -491 0
-371 -421 -492 0
-371 -421 -493 0
-371 -434 -490 0
-371 -434 -491 0
-371 -434 -492 0
-371 -434 -493 0
-371 -490 -491 0
-371 -490 -492 0
-371 -490 -493 0
-371 -491 -492 0
-371 -491 -493 0
-371 -492 -493 0
-421 -434 -490 0
-421 -434 -491 0
-421 -434 -492 0
-421 -434 -493 0
-421 -490 -491 0
-421 -490 -492 0
-421 -490 -493 0
-421 -491 -492 0
-421 -491 -493 0
-421 -492 -493 0
-434 -490 -491 0
-434 -490 -492 0
-434 -490 -493 0
-434 -491 -492 0
-434 -491 -493 0
-434 -492 -493 0
-490 -491 -492 0
-490 -491 -493 0
-490 -492 -493 0
-491 -492 -493 0
365 371 421 434 490 491 492 0
365 371 421 434 490 491 493 0
365 371 421 434 490 492 493 0
365 371 421 434 491 492 493 0
365 371 421 490 491 492 493 0
365 371 434 490 491 492 493 0
365 421 434 490 491 492 493 0
371 421 434 490 491 492 493 0
-634 -641 -686 0
-634 -641 -701 0
-634 -686 -701 0
-641 -686 -701 0
-65 -72 -125 0
-65 -72 -136 0
-65 -72 -190 0
-65 -72 -191 0
-65 -72 -192 0
-65 -72 -193 0
-65 -125 -136 0
-65 -125 -190 0
-65 -125 -191 0
-65 -125 -192 0
-65 -125 -193 0
-65 -136 -190 0
-65 -136 -191 0
-65 -136 -192 0
-65 -136 -193 0
-65 -190 -191 0
-65 -190 -192 0
-65 -190 -193 0
-65 -191 -192 0
-65 -191 -193 0
-65 -192 -193 0
-72 -125 -136 0
-72 -125 -190 0
-72 -125 -191 0
-72 -125 -192 0
-72 -125 -193 0
-72 -136 -190 0
-72 -136 -191 0
-72 -136 -192 0
-72 -136 -193 0
-72 -190 -191 0
-72 -190 -192 0
-72 -190 -193 0
-72 -191 -192 0
-72 -191 -193 0
-72 -192 -193 0
-125 -136 -190 0
-125 -136 -191 0
-125 -136 -192 0
-125 -136 -193 0
-125 -190 -191 0
-125 -190 -192 0
-125 -190 -193 0
-125 -191 -192 0
-125 -191 -193 0
-125 -192 -193 0
-136 -190 -191 0
-136 -190 -192 0
-136 -190 -193 0
-136 -191 -192 0
-136 -191 -193 0
-136 -192 -193 0
-190 -191 -192 0
-190 -191 -193 0
-190 -192 -193 0
-191 -192 -193 0
65 72 125 136 190 191 192 0
65 72 125 136 190 191 193 0
65 72 125 136 190 192 193 0
65 72 125 136 191 192 193 0
65 72 125 190 191 192 193 0
65 72 136 190 191 192 193 0
65 125 136 190 191 192 193 0
72 125 136 190 191 192 193 0
-670 -677 -722 0
-101 -108 -157 0
-101 -108 -172 0
-101 -108 -226 0
-101 -108 -227 0
-101 -108 -228 0
-101 -108 -229 0
-101 -157 -172 0
-101 -157 -226 0
-101 -157 -227 0
-101 -157 -228 0
-101 -157 -229 0
-101 -172 -226 0
-101 -172 -227 0
-101 -172 -228 0
-101 -172 -229 0
-101 -226 -227 0
-101 -226 -228 0
-101 -226 -229 0
-101 -227 -228 0
-101 -227 -229 0
-101 -228 -229 0
-108 -157 -172 0
-108 -157 -226 0
-108 -157 -227 0
-108 -157 -228 0
-108 -157 -229 0
-108 -172 -226 0
-108 -172 -227 0
-108 -172 -228 0
-108 -172 -229 0
-108 -226 -227 0
-108 -226 -228 0
-108 -226 -229 0
-108 -227 -228 0
-108 -227 -229 0
-108 -228 -229 0
-157 -172 -226 0
-157 -172 -227 0
-157 -172 -228 0
-157 -172 -229 0
-157 -226 -227 0
-157 -226 -228 0
-157 -226 -229 0
-157 -227 -228 0
-157 -227 -229 0
-157 -228 -229 0
-172 -226 -227 0
-172 -226 -228 0
-172 -226 -229 0
-172 -227 -228 0
-172 -227 -229 0
-172 -228 -229 0
-226 -227 -228 0
-226 -227 -229 0
-226 -228 -229 0
-227 -228 -229 0
101 108 157 172 226 227 228 0
101 108 157 172 226 227 229 0
101 108 157 172 226 228 229 0
101 108 157 172 227 228 229 0
101 108 157 226 227 228 229 0
101 108 172 226 227 228 229 0
101 157 172 226 227 228 229 0
108 157 172 226 227 228 229 0
-213 -220 -269 0
-213 -220 -284 0
-213 -220 -338 0
-213 -220 -339 0
-213 -220 -340 0
-213 -220 -341 0
-213 -269 -284 0
-213 -269 -338 0
-213 -269 -339 0
-213 -269 -340 0
-213 -269 -341 0
-213 -284 -338 0
-213 -284 -339 0
-213 -284 -340 0
-213 -284 -341 0
-213 -338 -339 0
-213 -338 -340 0
-213 -338 -341 0
-213 -339 -340 0
-213 -339 -341 0
-213 -340 -341 0
-220 -269 -284 0
-220 -269 -338 0
-220 -269 -339 0
-220 -269 -340 0
-220 -269 -341 0
-220 -284 -338 0
-220 -284 -339 0
-220 -284 -340 0
-220 -284 -341 0
-220 -338 -339 0
-220 -338 -340 0
-220 -338 -341 0
-220 -339 -340 0
-220 -339 -341 0
-220 -340 -341 0
-269 -284 -338 0
-269 -284 -339 0
-269 -284 -340 0
-269 -284 -341 0
-269 -338 -339 0
-269 -338 -340 0
-269 -338 -341 0
-269 -339 -340 0
-269 -339 -341 0
-269 -340 -341 0
-284 -338 -339 0
-284 -338 -340 0
-284 -338 -341 0
-284 -339 -340 0
-284 -339 -341 0
-284 -340 -341 0
-338 -339 -340 0
-338 -339 -341 0
-338 -340 -341 0
-339 -340 -341 0
213 220 269 284 338 339 340 0
213 220 269 284 338 339 341 0
213 220 269 284 338 340 341 0
213 220 269 284 339 340 341 0
213 220 269 338 339 340 341 0
213 220 284 338 339 340 341 0
213 269 284 338 339 340 341 0
220 269 284 338 339 340 341 0
-159 -166 -215 0
-159 -166 -230 0
-159 -166 -284 0
-159 -166 -285 0
-159 -166 -286 0
-159 -166 -287 0
-159 -215 -230 0
-159 -215 -284 0
-159 -215 -285 0
-159 -215 -286 0
-159 -215 -287 0
-159 -230 -284 0
-159 -230 -285 0
-159 -230 -286 0
-159 -230 -287 0
-159 -284 -285 0
-159 -284 -286 0
-159 -284 -287 0
-159 -285 -286 0
-159 -285 -287 0
-159 -286 -287 0
-166 -215 -230 0
-166 -215 -284 0
-166 -215 -285 0
-166 -215 -286 0
-166 -215 -287 0
-166 -230 -284 0
-166 -230 -285 0
-166 -230 -286 0
-166 -230 -287 0
-166 -284 -285 0
-166 -284 -286 0
-166 -284 -287 0
-166 -285 -286 0
-166 -285 -287 0
-166 -286 -287 0
-215 -230 -284 0
-215 -230 -285 0
-215 -230 -286 0
-215 -230 -287 0
-215 -284 -285 0
-215 -284 -286 0
-215 -284 -287 0
-215 -285 -286 0
-215 -285 -287 0
-215 -286 -287 0
-230 -284 -285 0
-230 -284 -286 0
-230 -284 -287 0
-230 -285 -286 0
-230 -285 -287 0
-230 -286 -287 0
-284 -285 -286 0
-284 -285 -287 0
-284 -286 -287 0
-285 -286 -287 0
159 166 215 230 284 285 286 0
159 166 215 230 284 285 287 0
159 166 215 230 284 286 287 0
159 166 215 230 285 286 287 0
159 166 215 284 285 286 287 0
159 166 230 284 285 286 287 0
159 215 230 284 285 286 287 0
166 215 230 284 285 286 287 0
-453 -460 -509 0
-453 -460 -524 0
-453 -460 -578 0
-453 -460 -579 0
-453 -460 -580 0
-453 -460 -581 0
-453 -509 -524 0
-453 -509 -578 0
-453 -509 -579 0
-453 -509 -580 0
-453 -509 -581 0
-453 -524 -578 0
-453 -524 -579 0
-453 -524 -580 0
-453 -524 -581 0
-453 -578 -579 0
-453 -578 -580 0
-453 -578 -581 0
-453 -579 -580 0
-453 -579 -581 0
-453 -580 -581 0
-460 -509 -524 0
-460 -509 -578 0
-460 -509 -579 0
-460 -509 -580 0
-460 -509 -581 0
-460 -524 -578 0
-460 -524 -579 0
-460 -524 -580 0
-460 -524 -581 0
-460 -578 -579 0
-460 -578 -580 0
-460 -578 -581 0
-460 -579 -580 0
-460 -579 -581 0
-460 -580 -581 0
-509 -524 -578 0
-509 -524 -579 0
-509 -524 -580 0
-509 -524 -581 0
-509 -578 -579 0
-509 -578 -580 0
-509 -578 -581 0
-509 -579 -580 0
-509 -579 -581 0
-509 -580 -581 0
-524 -578 -579 0
-524 -578 -580 0
-524 -578 -581 0
-524 -579 -580 0
-524 -579 -581 0
-524 -580 -581 0
-578 -579 -580 0
-578 -579 -581 0
-578 -580 -581 0
-579 -580 -581 0
453 460 509 524 578 579 580 0
453 460 509 524 578 579 581 0
453 460 509 524 578 580 581 0
453 460 509 524 579 580 581 0
453 460 509 578 579 580 581 0
453 460 524 578 579 580 581 0
453 509 524 578 579 580 581 0
460 509 524 578 579 580 581 0
-565 -572 -622 0
-565 -572 -635 0
-565 -572 -685 0
-565 -572 -686 0
-565 -572 -687 0
-565 -572 -688 0
-565 -622 -635 0
-565 -622 -685 0
-565 -622 -686 0
-565 -622 -687 0
-565 -622 -688 0
-565 -635 -685 0
-565 -635 -686 0
-565 -635 -687 0
-565 -635 -688 0
-565 -685 -686 0
-565 -685 -687 0
-565 -685 -688 0
-565 -686 -687 0
-565 -686 -688 0
-565 -687 -688 0
-572 -622 -635 0
-572 -622 -685 0
-572 -622 -686 0
-572 -622 -687 0
-572 -622 -688 0
-572 -635 -685 0
-572 -635 -686 0
-572 -635 -687 0
-572 -635 -688 0
-572 -685 -686 0
-572 -685 -687 0
-572 -685 -688 0
-572 -686 -687 0
-572 -686 -688 0
-572 -687 -688 0
-622 -635 -685 0
-622 -635 -686 0
-622 -635 -687 0
-622 -635 -688 0
-622 -685 -686 0
-622 -685 -687 0
-622 -685 -688 0
-622 -686 -687 0
-622 -686 -688 0
-622 -687 -688 0
-635 -685 -686 0
-635 -685 -687 0
-635 -685 -688 0
-635 -686 -687 0
-635 -686 -688 0
-635 -687 -688 0
-685 -686 -687 0
-685 -686 -688 0
-685 -687 -688 0
-686 -687 -688 0
565 572 622 635 685 686 687 0
565 572 622 635 685 686 688 0
565 572 622 635 685 687 688 0
565 572 622 635 686 687 688 0
565 572 622 685 686 687 688 0
565 572 635 685 686 687 688 0
565 622 635 685 686 687 688 0
572 622 635 685 686 687 688 0
-489 -495 -545 0
-489 -495 -558 0
-489 -495 -614 0
-489 -495 -615 0
-489 -495 -616 0
-489 -495 -617 0
-489 -545 -558 0
-489 -545 -614 0
-489 -545 -615 0
-489 -545 -616 0
-489 -545 -617 0
-489 -558 -614 0
-489 -558 -615 0
-489 -558 -616 0
-489 -558 -617 0
-489 -614 -615 0
-489 -614 -616 0
-489 -614 -617 0
-489 -615 -616 0
-489 -615 -617 0
-489 -616 -617 0
-495 -545 -558 0
-495 -545 -614 0
-495 -545 -615 0
-495 -545 -616 0
-495 -545 -617 0
-495 -558 -614 0
-495 -558 -615 0
-495 -558 -616 0
-495 -558 -617 0
-495 -614 -615 0
-495 -614 -616 0
-495 -614 -617 0
-495 -615 -616 0
-495 -615 -617 0
-495 -616 -617 0
-545 -558 -614 0
-545 -558 -615 0
-545 -558 -616 0
-545 -558 -617 0
-545 -614 -615 0
-545 -614 -616 0
-545 -614 -617 0
-545 -615 -616 0
-545 -615 -617 0
-545 -616 -617 0
-558 -614 -615 0
-558 -614 -616 0
-558 -614 -617 0
-558 -615 -616 0
-558 -615 -617 0
-558 -616 -617 0
-614 -615 -616 0
-614 -615 -617 0
-614 -616 -617 0
-615 -616 -617 0
489 495 545 558 614 615 616 0
489 495 545 558 614 615 617 0
489 495 545 558 614 616 617 0
489 495 545 558 615 616 617 0
489 495 545 614 615 616 617 0
489 495 558 614 615 616 617 0
489 545 558 614 615 616 617 0
495 545 558 614 615 616 617 0
-519 -526 -575 0
-519 -526 -590 0
-519 -526 -643 0
-519 -526 -644 0
-519 -526 -645 0
-519 -526 -646 0
-519 -575 -590 0
-519 -575 -643 0
-519 -575 -644 0
-519 -575 -645 0
-519 -575 -646 0
-519 -590 -643 0
-519 -590 -644 0
-519 -590 -645 0
-519 -590 -646 0
-519 -643 -644 0
-519 -643 -645 0
-519 -643 -646 0
-519 -644 -645 0
-519 -644 -646 0
-519 -645 -646 0
-526 -575 -590 0
-526 -575 -643 0
-526 -575 -644 0
-526 -575 -645 0
-526 -575 -646 0
-526 -590 -643 0
-526 -590 -644 0
-526 -590 -645 0
-526 -590 -646 0
-526 -643 -644 0
-526 -643 -645 0
-526 -643 -646 0
-526 -644 -645 0
-526 -644 -646 0
-526 -645 -646 0
-575 -590 -643 0
-575 -590 -644 0
-575 -590 -645 0
-575 -590 -646 0
-575 -643 -644 0
-575 -643 -645 0
-575 -643 -646 0
-575 -644 -645 0
-575 -644 -646 0
-575 -645 -646 0
-590 -643 -644 0
-590 -643 -645 0
-590 -643 -646 0
-590 -644 -645 0
-590 -644 -646 0
-590 -645 -646 0
-643 -644 -645 0
-643 -644 -646 0
-643 -645 -646 0
-644 -645 -646 0
519 526 575 590 643 644 645 0
519 526 575 590 643 644 646 0
519 526 575 590 643 645 646 0
519 526 575 590 644 645 646 0
519 526 575 643 644 645 646 0
519 526 590 643 644 645 646 0
519 575 590 643 644 645 646 0
526 575 590 643 644 645 646 0
-5 -20 -74 0
-5 -20 -75 0
-5 -20 -76 0
-5 -20 -77 0
-5 -74 -75 0
-5 -74 -76 0
-5 -74 -77 0
-5 -75 -76 0
-5 -75 -77 0
-5 -76 -77 0
-20 -74 -75 0
-20 -74 -76 0
-20 -74 -77 0
-20 -75 -76 0
-20 -75 -77 0
-20 -76 -77 0
-74 -75 -76 0
-74 -75 -77 0
-74 -76 -77 0
-75 -76 -77 0
5 20 74 75 76 0
5 20 74 75 77 0
5 20 74 76 77 0
5 20 75 76 77 0
5 74 75 76 77 0
20 74 75 76 77 0
-555 -611 -679 0
-41 -56 -110 0
-41 -56 -111 0
-41 -56 -112 0
-41 -56 -113 0
-41 -110 -111 0
-41 -110 -112 0
-41 -110 -113 0
-41 -111 -112 0
-41 -111 -113 0
-41 -112 -113 0
-56 -110 -111 0
-56 -110 -112 0
-56 -110 -113 0
-56 -111 -112 0
-56 -111 -113 0
-56 -112 -113 0
-110 -111 -112 0
-110 -111 -113 0
-110 -112 -113 0
-111 -112 -113 0
41 56 110 111 112 0
41 56 110 111 113 0
41 56 110 112 113 0
41 56 111 112 113 0
41 110 111 112 113 0
56 110 111 112 113 0
-43 -50 -99 0
-43 -50 -114 0
-43 -50 -168 0
-43 -50 -169 0
-43 -50 -170 0
-43 -50 -171 0
-43 -99 -114 0
-43 -99 -168 0
-43 -99 -169 0
-43 -99 -170 0
-43 -99 -171 0
-43 -114 -168 0
-43 -114 -169 0
-43 -114 -170 0
-43 -114 -171 0
-43 -168 -169 0
-43 -168 -170 0
-43 -168 -171 0
-43 -169 -170 0
-43 -169 -171 0
-43 -170 -171 0
-50 -99 -114 0
-50 -99 -168 0
-50 -99 -169 0
-50 -99 -170 0
-50 -99 -171 0
-50 -114 -168 0
-50 -114 -169 0
-50 -114 -170 0
-50 -114 -171 0
-50 -168 -169 0
-50 -168 -170 0
-50 -168 -171 0
-50 -169 -170 0
-50 -169 -171 0
-50 -170 -171 0
-99 -114 -168 0
-99 -114 -169 0
-99 -114 -170 0
-99 -114 -171 0
-99 -168 -169 0
-99 -168 -170 0
-99 -168 -171 0
-99 -169 -170 0
-99 -169 -171 0
-99 -170 -171 0
-114 -168 -169 0
-114 -168 -170 0
-114 -168 -171 0
-114 -169 -170 0
-114 -169 -171 0
-114 -170 -171 0
-168 -169 -170 0
-168 -169 -171 0
-168 -170 -171 0
-169 -170 -171 0
43 50 99 114 168 169 170 0
43 50 99 114 168 169 171 0
43 50 99 114 168 170 171 0
43 50 99 114 169 170 171 0
43 50 99 168 169 170 171 0
43 50 114 168 169 170 171 0
43 99 114 168 169 170 171 0
50 99 114 168 169 170 171 0
-337 -344 -393 0
-337 -344 -408 0
-337 -344 -462 0
-337 -344 -463 0
-337 -344 -464 0
-337 -344 -465 0
-337 -393 -408 0
-337 -393 -462 0
-337 -393 -463 0
-337 -393 -464 0
-337 -393 -465 0
-337 -408 -462 0
-337 -408 -463 0
-337 -408 -464 0
-337 -408 -465 0
-337 -462 -463 0
-337 -462 -464 0
-337 -462 -465 0
-337 -463 -464 0
-337 -463 -465 0
-337 -464 -465 0
-344 -393 -408 0
-344 -393 -462 0
-344 -393 -463 0
-344 -393 -464 0
-344 -393 -465 0
-344 -408 -462 0
-344 -408 -463 0
-344 -408 -464 0
-344 -408 -465 0
-344 -462 -463 0
-344 -462 -464 0
-344 -462 -465 0
-344 -463 -464 0
-344 -463 -465 0
-344 -464 -465 0
-393 -408 -462 0
-393 -408 -463 0
-393 -408 -464 0
-393 -408 -465 0
-393 -462 -463 0
-393 -462 -464 0
-393 -462 -465 0
-393 -463 -464 0
-393 -463 -465 0
-393 -464 -465 0
-408 -462 -463 0
-408 -462 -464 0
-408 -462 -465 0
-408 -463 -464 0
-408 -463 -465 0
-408 -464 -465 0
-462 -463 -464 0
-462 -463 -465 0
-462 -464 -465 0
-463 -464 -465 0
337 344 393 408 462 463 464 0
337 344 393 408 462 463 465 0
337 344 393 408 462 464 465 0
337 344 393 408 463 464 465 0
337 344 393 462 463 464 465 0
337 344 408 462 463 464 465 0
337 393 408 462 463 464 465 0
344 393 408 462 463 464 465 0
-642 -649 -694 0
-642 -649 -709 0
-642 -694 -709 0
-649 -694 -709 0
-73 -80 -129 0
-73 -80 -144 0
-73 -80 -198 0
-73 -80 -199 0
-73 -80 -200 0
-73 -80 -201 0
-73 -129 -144 0
-73 -129 -198 0
-73 -129 -199 0
-73 -129 -200 0
-73 -129 -201 0
-73 -144 -198 0
-73 -144 -199 0
-73 -144 -200 0
-73 -144 -201 0
-73 -198 -199 0
-73 -198 -200 0
-73 -198 -201 0
-73 -199 -200 0
-73 -199 -201 0
-73 -200 -201 0
-80 -129 -144 0
-80 -129 -198 0
-80 -129 -199 0
-80 -129 -200 0
-80 -129 -201 0
-80 -144 -198 0
-80 -144 -199 0
-80 -144 -200 0
-80 -144 -201 0
-80 -198 -199 0
-80 -198 -200 0
-80 -198 -201 0
-80 -199 -200 0
-80 -199 -201 0
-80 -200 -201 0
-129 -144 -198 0
-129 -144 -199 0
-129 -144 -200 0
-129 -144 -201 0
-129 -198 -199 0
-129 -198 -200 0
-129 -198 -201 0
-129 -199 -200 0
-129 -199 -201 0
-129 -200 -201 0
-144 -198 -199 0
-144 -198 -200 0
-144 -198 -201 0
-144 -199 -200 0
-144 -199 -201 0
-144 -200 -201 0
-198 -199 -200 0
-198 -199 -201 0
-198 -200 -201 0
-199 -200 -201 0
73 80 129 144 198 199 200 0
73 80 129 144 198 199 201 0
73 80 129 144 198 200 201 0
73 80 129 144 199 200 201 0
73 80 129 198 199 200 201 0
73 80 144 198 199 200 201 0
73 129 144 198 199 200 201 0
80 129 144 198 199 200 201 0
-192 -256 -312 0
-192 -256 -313 0
-192 -312 -313 0
-256 -312 -313 0
-131 -138 -188 0
-131 -138 -202 0
-131 -138 -256 0
-131 -138 -257 0
-131 -138 -258 0
-131 -138 -259 0
-131 -188 -202 0
-131 -188 -256 0
-131 -188 -257 0
-131 -188 -258 0
-131 -188 -259 0
-131 -202 -256 0
-131 -202 -257 0
-131 -202 -258 0
-131 -202 -259 0
-131 -256 -257 0
-131 -256 -258 0
-131 -256 -259 0
-131 -257 -258 0
-131 -257 -259 0
-131 -258 -259 0
-138 -188 -202 0
-138 -188 -256 0
-138 -188 -257 0
-138 -188 -258 0
-138 -188 -259 0
-138 -202 -256 0
-138 -202 -257 0
-138 -202 -258 0
-138 -202 -259 0
-138 -256 -257 0
-138 -256 -258 0
-138 -256 -259 0
-138 -257 -258 0
-138 -257 -259 0
-138 -258 -259 0
-188 -202 -256 0
-188 -202 -257 0
-188 -202 -258 0
-188 -202 -259 0
-188 -256 -257 0
-188 -256 -258 0
-188 -256 -259 0
-188 -257 -258 0
-188 -257 -259 0
-188 -258 -259 0
-202 -256 -257 0
-202 -256 -258 0
-202 -256 -259 0
-202 -257 -258 0
-202 -257 -259 0
-202 -258 -259 0
-256 -257 -258 0
-256 -257 -259 0
-256 -258 -259 0
-257 -258 -259 0
131 138 188 202 256 257 258 0
131 138 188 202 256 257 259 0
131 138 188 202 256 258 259 0
131 138 188 202 257 258 259 0
131 138 188 256 257 258 259 0
131 138 202 256 257 258 259 0
131 188 202 256 257 258 259 0
138 188 202 256 257 258 259 0
-109 -116 -165 0
-109 -116 -180 0
-109 -116 -234 0
-109 -116 -235 0
-109 -116 -236 0
-109 -116 -237 0
-109 -165 -180 0
-109 -165 -234 0
-109 -165 -235 0
-109 -165 -236 0
-109 -165 -237 0
-109 -180 -234 0
-109 -180 -235 0
-109 -180 -236 0
-109 -180 -237 0
-109 -234 -235 0
-109 -234 -236 0
-109 -234 -237 0
-109 -235 -236 0
-109 -235 -237 0
-109 -236 -237 0
-116 -165 -180 0
-116 -165 -234 0
-116 -165 -235 0
-116 -165 -236 0
-116 -165 -237 0
-116 -180 -234 0
-116 -180 -235 0
-116 -180 -236 0
-116 -180 -237 0
-116 -234 -235 0
-116 -234 -236 0
-116 -234 -237 0
-116 -235 -236 0
-116 -235 -237 0
-116 -236 -237 0
-165 -180 -234 0
-165 -180 -235 0
-165 -180 -236 0
-165 -180 -237 0
-165 -234 -235 0
-165 -234 -236 0
-165 -234 -237 0
-165 -235 -236 0
-165 -235 -237 0
-165 -236 -237 0
-180 -234 -235 0
-180 -234 -236 0
-180 -234 -237 0
-180 -235 -236 0
-180 -235 -237 0
-180 -236 -237 0
-234 -235 -236 0
-234 -235 -237 0
-234 -236 -237 0
-235 -236 -237 0
109 116 165 180 234 235 236 0
109 116 165 180 234 235 237 0
109 116 165 180 234 236 237 0
109 116 165 180 235 236 237 0
109 116 165 234 235 236 237 0
109 116 180 234 235 236 237 0
109 165 180 234 235 236 237 0
116 165 180 234 235 236 237 0
-221 -228 -277 0
-221 -228 -292 0
-221 -228 -346 0
-221 -228 -347 0
-221 -228 -348 0
-221 -228 -349 0
-221 -277 -292 0
-221 -277 -346 0
-221 -277 -347 0
-221 -277 -348 0
-221 -277 -349 0
-221 -292 -346 0
-221 -292 -347 0
-221 -292 -348 0
-221 -292 -349 0
-221 -346 -347 0
-221 -346 -348 0
-221 -346 -349 0
-221 -347 -348 0
-221 -347 -349 0
-221 -348 -349 0
-228 -277 -292 0
-228 -277 -346 0
-228 -277 -347 0
-228 -277 -348 0
-228 -277 -349 0
-228 -292 -346 0
-228 -292 -347 0
-228 -292 -348 0
-228 -292 -349 0
-228 -346 -347 0
-228 -346 -348 0
-228 -346 -349 0
-228 -347 -348 0
-228 -347 -349 0
-228 -348 -349 0
-277 -292 -346 0
-277 -292 -347 0
-277 -292 -348 0
-277 -292 -349 0
-277 -346 -347 0
-277 -346 -348 0
-277 -346 -349 0
-277 -347 -348 0
-277 -347 -349 0
-277 -348 -349 0
-292 -346 -347 0
-292 -346 -348 0
-292 -346 -349 0
-292 -347 -348 0
-292 -347 -349 0
-292 -348 -349 0
-346 -347 -348 0
-346 -347 -349 0
-346 -348 -349 0
-347 -348 -349 0
221 228 277 292 346 347 348 0
221 228 277 292 346 347 349 0
221 228 277 292 346 348 349 0
221 228 277 292 347 348 349 0
221 228 277 346 347 348 349 0
221 228 292 346 347 348 349 0
221 277 292 346 347 348 349 0
228 277 292 346 347 348 349 0
-167 -174 -223 0
-167 -174 -238 0
-167 -174 -292 0
-167 -174 -293 0
-167 -174 -294 0
-167 -174 -295 0
-167 -223 -238 0
-167 -223 -292 0
-167 -223 -293 0
-167 -223 -294 0
-167 -223 -295 0
-167 -238 -292 0
-167 -238 -293 0
-167 -238 -294 0
-167 -238 -295 0
-167 -292 -293 0
-167 -292 -294 0
-167 -292 -295 0
-167 -293 -294 0
-167 -293 -295 0
-167 -294 -295 0
-174 -223 -238 0
-174 -223 -292 0
-174 -223 -293 0
-174 -223 -294 0
-174 -223 -295 0
-174 -238 -292 0
-174 -238 -293 0
-174 -238 -294 0
-174 -238 -295 0
-174 -292 -293 0
-174 -292 -294 0
-174 -292 -295 0
-174 -293 -294 0
-174 -293 -295 0
-174 -294 -295 0
-223 -238 -292 0
-223 -238 -293 0
-223 -238 -294 0
-223 -238 -295 0
-223 -292 -293 0
-223 -292 -294 0
-223 -292 -295 0
-223 -293 -294 0
-223 -293 -295 0
-223 -294 -295 0
-238 -292 -293 0
-238 -292 -294 0
-238 -292 -295 0
-238 -293 -294 0
-238 -293 -295 0
-238 -294 -295 0
-292 -293 -294 0
-292 -293 -295 0
-292 -294 -295 0
-293 -294 -295 0
167 174 223 238 292 293 294 0
167 174 223 238 292 293 295 0
167 174 223 238 292 294 295 0
167 174 223 238 293 294 295 0
167 174 223 292 293 294 295 0
167 174 238 292 293 294 295 0
167 223 238 292 293 294 295 0
174 223 238 292 293 294 295 0
-461 -468 -517 0
-461 -468 -532 0
-461 -468 -586 0
-461 -468 -587 0
-461 -468 -588 0
-461 -468 -589 0
-461 -517 -532 0
-461 -517 -586 0
-461 -517 -587 0
-461 -517 -588 0
-461 -517 -589 0
-461 -532 -586 0
-461 -532 -587 0
-461 -532 -588 0
-461 -532 -589 0
-461 -586 -587 0
-461 -586 -588 0
-461 -586 -589 0
-461 -587 -588 0
-461 -587 -589 0
-461 -588 -589 0
-468 -517 -532 0
-468 -517 -586 0
-468 -517 -587 0
-468 -517 -588 0
-468 -517 -589 0
-468 -532 -586 0
-468 -532 -587 0
-468 -532 -588 0
-468 -532 -589 0
-468 -586 -587 0
-468 -586 -588 0
-468 -586 -589 0
-468 -587 -588 0
-468 -587 -589 0
-468 -588 -589 0
-517 -532 -586 0
-517 -532 -587 0
-517 -532 -588 0
-517 -532 -589 0
-517 -586 -587 0
-517 -586 -588 0
-517 -586 -589 0
-517 -587 -588 0
-517 -587 -589 0
-517 -588 -589 0
-532 -586 -587 0
-532 -586 -588 0
-532 -586 -589 0
-532 -587 -588 0
-532 -587 -589 0
-532 -588 -589 0
-586 -587 -588 0
-586 -587 -589 0
-586 -588 -589 0
-587 -588 -589 0
461 468 517 532 586 587 588 0
461 468 517 532 586 587 589 0
461 468 517 532 586 588 589 0
461 468 517 532 587 588 589 0
461 468 517 586 587 588 589 0
461 468 532 586 587 588 589 0
461 517 532 586 587 588 589 0
468 517 532 586 587 588 589 0
-415 -422 -471 0
-415 -422 -486 0
-415 -422 -540 0
-415 -422 -541 0
-415 -422 -542 0
-415 -422 -543 0
-415 -471 -486 0
-415 -471 -540 0
-415 -471 -541 0
-415 -471 -542 0
-415 -471 -543 0
-415 -486 -540 0
-415 -486 -541 0
-415 -486 -542 0
-415 -486 -543 0
-415 -540 -541 0
-415 -540 -542 0
-415 -540 -543 0
-415 -541 -542 0
-415 -541 -543 0
-415 -542 -543 0
-422 -471 -486 0
-422 -471 -540 0
-422 -471 -541 0
-422 -471 -542 0
-422 -471 -543 0
-422 -486 -540 0
-422 -486 -541 0
-422 -486 -542 0
-422 -486 -543 0
-422 -540 -541 0
-422 -540 -542 0
-422 -540 -543 0
-422 -541 -542 0
-422 -541 -543 0
-422 -542 -543 0
-471 -486 -540 0
-471 -486 -541 0
-471 -486 -542 0
-471 -486 -543 0
-471 -540 -541 0
-471 -540 -542 0
-471 -540 -543 0
-471 -541 -542 0
-471 -541 -543 0
-471 -542 -543 0
-486 -540 -541 0
-486 -540 -542 0
-486 -540 -543 0
-486 -541 -542 0
-486 -541 -543 0
-486 -542 -543 0
-540 -541 -542 0
-540 -541 -543 0
-540 -542 -543 0
-541 -542 -543 0
415 422 471 486 540 541 542 0
415 422 471 486 540 541 543 0
415 422 471 486 540 542 543 0
415 422 471 486 541 542 543 0
415 422 471 540 541 542 543 0
415 422 486 540 541 542 543 0
415 471 486 540 541 542 543 0
422 471 486 540 541 542 543 0
-527 -534 -583 0
-527 -534 -598 0
-527 -534 -651 0
-527 -534 -652 0
-527 -534 -653 0
-527 -534 -654 0
-527 -583 -598 0
-527 -583 -651 0
-527 -583 -652 0
-527 -583 -653 0
-527 -583 -654 0
-527 -598 -651 0
-527 -598 -652 0
-527 -598 -653 0
-527 -598 -654 0
-527 -651 -652 0
-527 -651 -653 0
-527 -651 -654 0
-527 -652 -653 0
-527 -652 -654 0
-527 -653 -654 0
-534 -583 -598 0
-534 -583 -651 0
-534 -583 -652 0
-534 -583 -653 0
-534 -583 -654 0
-534 -598 -651 0
-534 -598 -652 0
-534 -598 -653 0
-534 -598 -654 0
-534 -651 -652 0
-534 -651 -653 0
-534 -651 -654 0
-534 -652 -653 0
-534 -652 -654 0
-534 -653 -654 0
-583 -598 -651 0
-583 -598 -652 0
-583 -598 -653 0
-583 -598 -654 0
-583 -651 -652 0
-583 -651 -653 0
-583 -651 -654 0
-583 -652 -653 0
-583 -652 -654 0
-583 -653 -654 0
-598 -651 -652 0
-598 -651 -653 0
-598 -651 -654 0
-598 -652 -653 0
-598 -652 -654 0
-598 -653 -654 0
-651 -652 -653 0
-651 -652 -654 0
-651 -653 -654 0
-652 -653 -654 0
527 534 583 598 651 652 653 0
527 534 583 598 651 652 654 0
527 534 583 598 651 653 654 0
527 534 583 598 652 653 654 0
527 534 583 651 652 653 654 0
527 534 598 651 652 653 654 0
527 583 598 651 652 653 654 0
534 583 598 651 652 653 654 0
-13 -28 -82 0
-13 -28 -83 0
-13 -28 -84 0
-13 -28 -85 0
-13 -82 -83 0
-13 -82 -84 0
-13 -82 -85 0
-13 -83 -84 0
-13 -83 -85 0
-13 -84 -85 0
-28 -82 -83 0
-28 -82 -84 0
-28 -82 -85 0
-28 -83 -84 0
-28 -83 -85 0
-28 -84 -85 0
-82 -83 -84 0
-82 -83 -85 0
-82 -84 -85 0
-83 -84 -85 0
13 28 82 83 84 0
13 28 82 83 85 0
13 28 82 84 85 0
13 28 83 84 85 0
13 82 83 84 85 0
28 82 83 84 85 0
-15 -22 -71 0
-15 -22 -86 0
-15 -22 -140 0
-15 -22 -141 0
-15 -22 -142 0
-15 -22 -143 0
-15 -71 -86 0
-15 -71 -140 0
-15 -71 -141 0
-15 -71 -142 0
-15 -71 -143 0
-15 -86 -140 0
-15 -86 -141 0
-15 -86 -142 0
-15 -86 -143 0
-15 -140 -141 0
-15 -140 -142 0
-15 -140 -143 0
-15 -141 -142 0
-15 -141 -143 0
-15 -142 -143 0
-22 -71 -86 0
-22 -71 -140 0
-22 -71 -141 0
-22 -71 -142 0
-22 -71 -143 0
-22 -86 -140 0
-22 -86 -141 0
-22 -86 -142 0
-22 -86 -143 0
-22 -140 -141 0
-22 -140 -142 0
-22 -140 -143 0
-22 -141 -142 0
-22 -141 -143 0
-22 -142 -143 0
-71 -86 -140 0
-71 -86 -141 0
-71 -86 -142 0
-71 -86 -143 0
-71 -140 -141 0
-71 -140 -142 0
-71 -140 -143 0
-71 -141 -142 0
-71 -141 -143 0
-71 -142 -143 0
-86 -140 -141 0
-86 -140 -142 0
-86 -140 -143 0
-86 -141 -142 0
-86 -141 -143 0
-86 -142 -143 0
-140 -141 -142 0
-140 -141 -143 0
-140 -142 -143 0
-141 -142 -143 0
15 22 71 86 140 141 142 0
15 22 71 86 140 141 143 0
15 22 71 86 140 142 143 0
15 22 71 86 141 142 143 0
15 22 71 140 141 142 143 0
15 22 86 140 141 142 143 0
15 71 86 140 141 142 143 0
22 71 86 140 141 142 143 0
-316 -380 -436 0
-316 -380 -437 0
-316 -436 -437 0
-380 -436 -437 0
-49 -62 -118 0
-49 -62 -119 0
-49 -62 -120 0
-49 -62 -121 0
-49 -118 -119 0
-49 -118 -120 0
-49 -118 -121 0
-49 -119 -120 0
-49 -119 -121 0
-49 -120 -121 0
-62 -118 -119 0
-62 -118 -120 0
-62 -118 -121 0
-62 -119 -120 0
-62 -119 -121 0
-62 -120 -121 0
-118 -119 -120 0
-118 -119 -121 0
-118 -120 -121 0
-119 -120 -121 0
49 62 118 119 120 0
49 62 118 119 121 0
49 62 118 120 121 0
49 62 119 120 121 0
49 118 119 120 121 0
62 118 119 120 121 0
-51 -58 -107 0
-51 -58 -122 0
-51 -58 -176 0
-51 -58 -177 0
-51 -58 -178 0
-51 -58 -179 0
-51 -107 -122 0
-51 -107 -176 0
-51 -107 -177 0
-51 -107 -178 0
-51 -107 -179 0
-51 -122 -176 0
-51 -122 -177 0
-51 -122 -178 0
-51 -122 -179 0
-51 -176 -177 0
-51 -176 -178 0
-51 -176 -179 0
-51 -177 -178 0
-51 -177 -179 0
-51 -178 -179 0
-58 -107 -122 0
-58 -107 -176 0
-58 -107 -177 0
-58 -107 -178 0
-58 -107 -179 0
-58 -122 -176 0
-58 -122 -177 0
-58 -122 -178 0
-58 -122 -179 0
-58 -176 -177 0
-58 -176 -178 0
-58 -176 -179 0
-58 -177 -178 0
-58 -177 -179 0
-58 -178 -179 0
-107 -122 -176 0
-107 -122 -177 0
-107 -122 -178 0
-107 -122 -179 0
-107 -176 -177 0
-107 -176 -178 0
-107 -176 -179 0
-107 -177 -178 0
-107 -177 -179 0
-107 -178 -179 0
-122 -176 -177 0
-122 -176 -178 0
-122 -176 -179 0
-122 -177 -178 0
-122 -177 -179 0
-122 -178 -179 0
-176 -177 -178 0
-176 -177 -179 0
-176 -178 -179 0
-177 -178 -179 0
51 58 107 122 176 177 178 0
51 58 107 122 176 177 179 0
51 58 107 122 176 178 179 0
51 58 107 122 177 178 179 0
51 58 107 176 177 178 179 0
51 58 122 176 177 178 179 0
51 107 122 176 177 178 179 0
58 107 122 176 177 178 179 0
-345 -352 -401 0
-345 -352 -416 0
-345 -352 -470 0
-345 -352 -471 0
-345 -352 -472 0
-345 -352 -473 0
-345 -401 -416 0
-345 -401 -470 0
-345 -401 -471 0
-345 -401 -472 0
-345 -401 -473 0
-345 -416 -470 0
-345 -416 -471 0
-345 -416 -472 0
-345 -416 -473 0
-345 -470 -471 0
-345 -470 -472 0
-345 -470 -473 0
-345 -471 -472 0
-345 -471 -473 0
-345 -472 -473 0
-352 -401 -416 0
-352 -401 -470 0
-352 -401 -471 0
-352 -401 -472 0
-352 -401 -473 0
-352 -416 -470 0
-352 -416 -471 0
-352 -416 -472 0
-352 -416 -473 0
-352 -470 -471 0
-352 -470 -472 0
-352 -470 -473 0
-352 -471 -472 0
-352 -471 -473 0
-352 -472 -473 0
-401 -416 -470 0
-401 -416 -471 0
-401 -416 -472 0
-401 -416 -473 0
-401 -470 -471 0
-401 -470 -472 0
-401 -470 -473 0
-401 -471 -472 0
-401 -471 -473 0
-401 -472 -473 0
-416 -470 -471 0
-416 -470 -472 0
-416 -470 -473 0
-416 -471 -472 0
-416 -471 -473 0
-416 -472 -473 0
-470 -471 -472 0
-470 -471 -473 0
-470 -472 -473 0
-471 -472 -473 0
345 352 401 416 470 471 472 0
345 352 401 416 470 471 473 0
345 352 401 416 470 472 473 0
345 352 401 416 471 472 473 0
345 352 401 470 471 472 473 0
345 352 416 470 471 472 473 0
345 401 416 470 471 472 473 0
352 401 416 470 471 472 473 0
-299 -306 -355 0
-299 -306 -370 0
-299 -306 -424 0
-299 -306 -425 0
-299 -306 -426 0
-299 -306 -427 0
-299 -355 -370 0
-299 -355 -424 0
-299 -355 -425 0
-299 -355 -426 0
-299 -355 -427 0
-299 -370 -424 0
-299 -370 -425 0
-299 -370 -426 0
-299 -370 -427 0
-299 -424 -425 0
-299 -424 -426 0
-299 -424 -427 0
-299 -425 -426 0
-299 -425 -427 0
-299 -426 -427 0
-306 -355 -370 0
-306 -355 -424 0
-306 -355 -425 0
-306 -355 -426 0
-306 -355 -427 0
-306 -370 -424 0
-306 -370 -425 0
-306 -370 -426 0
-306 -370 -427 0
-306 -424 -425 0
-306 -424 -426 0
-306 -424 -427 0
-306 -425 -426 0
-306 -425 -427 0
-306 -426 -427 0
-355 -370 -424 0
-355 -370 -425 0
-355 -370 -426 0
-355 -370 -427 0
-355 -424 -425 0
-355 -424 -426 0
-355 -424 -427 0
-355 -425 -426 0
-355 -425 -427 0
-355 -426 -427 0
-370 -424 -425 0
-370 -424 -426 0
-370 -424 -427 0
-370 -425 -426 0
-370 -425 -427 0
-370 -426 -427 0
-424 -425 -426 0
-424 -425 -427 0
-424 -426 -427 0
-425 -426 -427 0
299 306 355 370 424 425 426 0
299 306 355 370 424 425 427 0
299 306 355 370 424 426 427 0
299 306 355 370 425 426 427 0
299 306 355 424 425 426 427 0
299 306 370 424 425 426 427 0
299 355 370 424 425 426 427 0
306 355 370 424 425 426 427 0
-650 -657 -702 0
-650 -657 -717 0
-650 -702 -717 0
-657 -702 -717 0
-81 -88 -137 0
-81 -88 -152 0
-81 -88 -206 0
-81 -88 -207 0
-81 -88 -208 0
-81 -88 -209 0
-81 -137 -152 0
-81 -137 -206 0
-81 -137 -207 0
-81 -137 -208 0
-81 -137 -209 0
-81 -152 -206 0
-81 -152 -207 0
-81 -152 -208 0
-81 -152 -209 0
-81 -206 -207 0
-81 -206 -208 0
-81 -206 -209 0
-81 -207 -208 0
-81 -207 -209 0
-81 -208 -209 0
-88 -137 -152 0
-88 -137 -206 0
-88 -137 -207 0
-88 -137 -208 0
-88 -137 -209 0
-88 -152 -206 0
-88 -152 -207 0
-88 -152 -208 0
-88 -152 -209 0
-88 -206 -207 0
-88 -206 -208 0
-88 -206 -209 0
-88 -207 -208 0
-88 -207 -209 0
-88 -208 -209 0
-137 -152 -206 0
-137 -152 -207 0
-137 -152 -208 0
-137 -152 -209 0
-137 -206 -207 0
-137 -206 -208 0
-137 -206 -209 0
-137 -207 -208 0
-137 -207 -209 0
-137 -208 -209 0
-152 -206 -207 0
-152 -206 -208 0
-152 -206 -209 0
-152 -207 -208 0
-152 -207 -209 0
-152 -208 -209 0
-206 -207 -208 0
-206 -207 -209 0
-206 -208 -209 0
-207 -208 -209 0
81 88 137 152 206 207 208 0
81 88 137 152 206 207 209 0
81 88 137 152 206 208 209 0
81 88 137 152 207 208 209 0
81 88 137 206 207 208 209 0
81 88 152 206 207 208 209 0
81 137 152 206 207 208 209 0
88 137 152 206 207 208 209 0
-193 -200 -250 0
-193 -200 -264 0
-193 -200 -318 0
-193 -200 -319 0
-193 -200 -320 0
-193 -200 -321 0
-193 -250 -264 0
-193 -250 -318 0
-193 -250 -319 0
-193 -250 -320 0
-193 -250 -321 0
-193 -264 -318 0
-193 -264 -319 0
-193 -264 -320 0
-193 -264 -321 0
-193 -318 -319 0
-193 -318 -320 0
-193 -318 -321 0
-193 -319 -320 0
-193 -319 -321 0
-193 -320 -321 0
-200 -250 -264 0
-200 -250 -318 0
-200 -250 -319 0
-200 -250 -320 0
-200 -250 -321 0
-200 -264 -318 0
-200 -264 -319 0
-200 -264 -320 0
-200 -264 -321 0
-200 -318 -319 0
-200 -318 -320 0
-200 -318 -321 0
-200 -319 -320 0
-200 -319 -321 0
-200 -320 -321 0
-250 -264 -318 0
-250 -264 -319 0
-250 -264 -320 0
-250 -264 -321 0
-250 -318 -319 0
-250 -318 -320 0
-250 -318 -321 0
-250 -319 -320 0
-250 -319 -321 0
-250 -320 -321 0
-264 -318 -319 0
-264 -318 -320 0
-264 -318 -321 0
-264 -319 -320 0
-264 -319 -321 0
-264 -320 -321 0
-318 -319 -320 0
-318 -319 -321 0
-318 -320 -321 0
-319 -320 -321 0
193 200 250 264 318 319 320 0
193 200 250 264 318 319 321 0
193 200 250 264 318 320 321 0
193 200 250 264 319 320 321 0
193 200 250 318 319 320 321 0
193 200 264 318 319 320 321 0
193 250 264 318 319 320 321 0
200 250 264 318 319 320 321 0
-139 -146 -195 0
-139 -146 -210 0
-139 -146 -264 0
-139 -146 -265 0
-139 -146 -266 0
-139 -146 -267 0
-139 -195 -210 0
-139 -195 -264 0
-139 -195 -265 0
-139 -195 -266 0
-139 -195 -267 0
-139 -210 -264 0
-139 -210 -265 0
-139 -210 -266 0
-139 -210 -267 0
-139 -264 -265 0
-139 -264 -266 0
-139 -264 -267 0
-139 -265 -266 0
-139 -265 -267 0
-139 -266 -267 0
-146 -195 -210 0
-146 -195 -264 0
-146 -195 -265 0
-146 -195 -266 0
-146 -195 -267 0
-146 -210 -264 0
-146 -210 -265 0
-146 -210 -266 0
-146 -210 -267 0
-146 -264 -265 0
-146 -264 -266 0
-146 -264 -267 0
-146 -265 -266 0
-146 -265 -267 0
-146 -266 -267 0
-195 -210 -264 0
-195 -210 -265 0
-195 -210 -266 0
-195 -210 -267 0
-195 -264 -265 0
-195 -264 -266 0
-195 -264 -267 0
-195 -265 -266 0
-195 -265 -267 0
-195 -266 -267 0
-210 -264 -265 0
-210 -264 -266 0
-210 -264 -267 0
-210 -265 -266 0
-210 -265 -267 0
-210 -266 -267 0
-264 -265 -266 0
-264 -265 -267 0
-264 -266 -267 0
-265 -266 -267 0
139 146 195 210 264 265 266 0
139 146 195 210 264 265 267 0
139 146 195 210 264 266 267 0
139 146 195 210 265 266 267 0
139 146 195 264 265 266 267 0
139 146 210 264 265 266 267 0
139 195 210 264 265 266 267 0
146 195 210 264 265 266 267 0
-440 -504 -560 0
-440 -504 -561 0
-440 -560 -561 0
-504 -560 -561 0
-117 -123 -173 0
-117 -123 -186 0
-117 -123 -242 0
-117 -123 -243 0
-117 -123 -244 0
-117 -123 -245 0
-117 -173 -186 0
-117 -173 -242 0
-117 -173 -243 0
-117 -173 -244 0
-117 -173 -245 0
-117 -186 -242 0
-117 -186 -243 0
-117 -186 -244 0
-117 -186 -245 0
-117 -242 -243 0
-117 -242 -244 0
-117 -242 -245 0
-117 -243 -244 0
-117 -243 -245 0
-117 -244 -245 0
-123 -173 -186 0
-123 -173 -242 0
-123 -173 -243 0
-123 -173 -244 0
-123 -173 -245 0
-123 -186 -242 0
-123 -186 -243 0
-123 -186 -244 0
-123 -186 -245 0
-123 -242 -243 0
-123 -242 -244 0
-123 -242 -245 0
-123 -243 -244 0
-123 -243 -245 0
-123 -244 -245 0
-173 -186 -242 0
-173 -186 -243 0
-173 -186 -244 0
-173 -186 -245 0
-173 -242 -243 0
-173 -242 -244 0
-173 -242 -245 0
-173 -243 -244 0
-173 -243 -245 0
-173 -244 -245 0
-186 -242 -243 0
-186 -242 -244 0
-186 -242 -245 0
-186 -243 -244 0
-186 -243 -245 0
-186 -244 -245 0
-242 -243 -244 0
-242 -243 -245 0
-242 -244 -245 0
-243 -244 -245 0
117 123 173 186 242 243 244 0
117 123 173 186 242 243 245 0
117 123 173 186 242 244 245 0
117 123 173 186 243 244 245 0
117 123 173 242 243 244 245 0
117 123 186 242 243 244 245 0
117 173 186 242 243 244 245 0
123 173 186 242 243 244 245 0
-229 -236 -285 0
-229 -236 -300 0
-229 -236 -354 0
-229 -236 -355 0
-229 -236 -356 0
-229 -236 -357 0
-229 -285 -300 0
-229 -285 -354 0
-229 -285 -355 0
-229 -285 -356 0
-229 -285 -357 0
-229 -300 -354 0
-229 -300 -355 0
-229 -300 -356 0
-229 -300 -357 0
-229 -354 -355 0
-229 -354 -356 0
-229 -354 -357 0
-229 -355 -356 0
-229 -355 -357 0
-229 -356 -357 0
-236 -285 -300 0
-236 -285 -354 0
-236 -285 -355 0
-236 -285 -356 0
-236 -285 -357 0
-236 -300 -354 0
-236 -300 -355 0
-236 -300 -356 0
-236 -300 -357 0
-236 -354 -355 0
-236 -354 -356 0
-236 -354 -357 0
-236 -355 -356 0
-236 -355 -357 0
-236 -356 -357 0
-285 -300 -354 0
-285 -300 -355 0
-285 -300 -356 0
-285 -300 -357 0
-285 -354 -355 0
-285 -354 -356 0
-285 -354 -357 0
-285 -355 -356 0
-285 -355 -357 0
-285 -356 -357 0
-300 -354 -355 0
-300 -354 -356 0
-300 -354 -357 0
-300 -355 -356 0
-300 -355 -357 0
-300 -356 -357 0
-354 -355 -356 0
-354 -355 -357 0
-354 -356 -357 0
-355 -356 -357 0
229 236 285 300 354 355 356 0
229 236 285 300 354 355 357 0
229 236 285 300 354 356 357 0
229 236 285 300 355 356 357 0
229 236 285 354 355 356 357 0
229 236 300 354 355 356 357 0
229 285 300 354 355 356 357 0
236 285 300 354 355 356 357 0
-175 -182 -231 0
-175 -182 -246 0
-175 -182 -300 0
-175 -182 -301 0
-175 -182 -302 0
-175 -182 -303 0
-175 -231 -246 0
-175 -231 -300 0
-175 -231 -301 0
-175 -231 -302 0
-175 -231 -303 0
-175 -246 -300 0
-175 -246 -301 0
-175 -246 -302 0
-175 -246 -303 0
-175 -300 -301 0
-175 -300 -302 0
-175 -300 -303 0
-175 -301 -302 0
-175 -301 -303 0
-175 -302 -303 0
-182 -231 -246 0
-182 -231 -300 0
-182 -231 -301 0
-182 -231 -302 0
-182 -231 -303 0
-182 -246 -300 0
-182 -246 -301 0
-182 -246 -302 0
-182 -246 -303 0
-182 -300 -301 0
-182 -300 -302 0
-182 -300 -303 0
-182 -301 -302 0
-182 -301 -303 0
-182 -302 -303 0
-231 -246 -300 0
-231 -246 -301 0
-231 -246 -302 0
-231 -246 -303 0
-231 -300 -301 0
-231 -300 -302 0
-231 -300 -303 0
-231 -301 -302 0
-231 -301 -303 0
-231 -302 -303 0
-246 -300 -301 0
-246 -300 -302 0
-246 -300 -303 0
-246 -301 -302 0
-246 -301 -303 0
-246 -302 -303 0
-300 -301 -302 0
-300 -301 -303 0
-300 -302 -303 0
-301 -302 -303 0
175 182 231 246 300 301 302 0
175 182 231 246 300 301 303 0
175 182 231 246 300 302 303 0
175 182 231 246 301 302 303 0
175 182 231 300 301 302 303 0
175 182 246 300 301 302 303 0
175 231 246 300 301 302 303 0
182 231 246 300 301 302 303 0
-387 -394 -443 0
-387 -394 -458 0
-387 -394 -512 0
-387 -394 -513 0
-387 -394 -514 0
-387 -394 -515 0
-387 -443 -458 0
-387 -443 -512 0
-387 -443 -513 0
-387 -443 -514 0
-387 -443 -515 0
-387 -458 -512 0
-387 -458 -513 0
-387 -458 -514 0
-387 -458 -515 0
-387 -512 -513 0
-387 -512 -514 0
-387 -512 -515 0
-387 -513 -514 0
-387 -513 -515 0
-387 -514 -515 0
-394 -443 -458 0
-394 -443 -512 0
-394 -443 -513 0
-394 -443 -514 0
-394 -443 -515 0
-394 -458 -512 0
-394 -458 -513 0
-394 -458 -514 0
-394 -458 -515 0
-394 -512 -513 0
-394 -512 -514 0
-394 -512 -515 0
-394 -513 -514 0
-394 -513 -515 0
-394 -514 -515 0
-443 -458 -512 0
-443 -458 -513 0
-443 -458 -514 0
-443 -458 -515 0
-443 -512 -513 0
-443 -512 -514 0
-443 -512 -515 0
-443 -513 -514 0
-443 -513 -515 0
-443 -514 -515 0
-458 -512 -513 0
-458 -512 -514 0
-458 -512 -515 0
-458 -513 -514 0
-458 -513 -515 0
-458 -514 -515 0
-512 -513 -514 0
-512 -513 -515 0
-512 -514 -515 0
-513 -514 -515 0
387 394 443 458 512 513 514 0
387 394 443 458 512 513 515 0
387 394 443 458 512 514 515 0
387 394 443 458 513 514 515 0
387 394 443 512 513 514 515 0
387 394 458 512 513 514 515 0
387 443 458 512 513 514 515 0
394 443 458 512 513 514 515 0
-499 -506 -559 0
-499 -506 -570 0
-499 -506 -623 0
-499 -506 -624 0
-499 -506 -625 0
-499 -506 -626 0
-499 -559 -570 0
-499 -559 -623 0
-499 -559 -624 0
-499 -559 -625 0
-499 -559 -626 0
-499 -570 -623 0
-499 -570 -624 0
-499 -570 -625 0
-499 -570 -626 0
-499 -623 -624 0
-499 -623 -625 0
-499 -623 -626 0
-499 -624 -625 0
-499 -624 -626 0
-499 -625 -626 0
-506 -559 -570 0
-506 -559 -623 0
-506 -559 -624 0
-506 -559 -625 0
-506 -559 -626 0
-506 -570 -623 0
-506 -570 -624 0
-506 -570 -625 0
-506 -570 -626 0
-506 -623 -624 0
-506 -623 -625 0
-506 -623 -626 0
-506 -624 -625 0
-506 -624 -626 0
-506 -625 -626 0
-559 -570 -623 0
-559 -570 -624 0
-559 -570 -625 0
-559 -570 -626 0
-559 -623 -624 0
-559 -623 -625 0
-559 -623 -626 0
-559 -624 -625 0
-559 -624 -626 0
-559 -625 -626 0
-570 -623 -624 0
-570 -623 -625 0
-570 -623 -626 0
-570 -624 -625 0
-570 -624 -626 0
-570 -625 -626 0
-623 -624 -625 0
-623 -624 -626 0
-623 -625 -626 0
-624 -625 -626 0
499 506 559 570 623 624 625 0
499 506 559 570 623 624 626 0
499 506 559 570 623 625 626 0
499 506 559 570 624 625 626 0
499 506 559 623 624 625 626 0
499 506 570 623 624 625 626 0
499 559 570 623 624 625 626 0
506 559 570 623 624 625 626 0
-423 -430 -479 0
-423 -430 -494 0
-423 -430 -548 0
-423 -430 -549 0
-423 -430 -550 0
-423 -430 -551 0
-423 -479 -494 0
-423 -479 -548 0
-423 -479 -549 0
-423 -479 -550 0
-423 -479 -551 0
-423 -494 -548 0
-423 -494 -549 0
-423 -494 -550 0
-423 -494 -551 0
-423 -548 -549 0
-423 -548 -550 0
-423 -548 -551 0
-423 -549 -550 0
-423 -549 -551 0
-423 -550 -551 0
-430 -479 -494 0
-430 -479 -548 0
-430 -479 -549 0
-430 -479 -550 0
-430 -479 -551 0
-430 -494 -548 0
-430 -494 -549 0
-430 -494 -550 0
-430 -494 -551 0
-430 -548 -549 0
-430 -548 -550 0
-430 -548 -551 0
-430 -549 -550 0
-430 -549 -551 0
-430 -550 -551 0
-479 -494 -548 0
-479 -494 -549 0
-479 -494 -550 0
-479 -494 -551 0
-479 -548 -549 0
-479 -548 -550 0
-479 -548 -551 0
-479 -549 -550 0
-479 -549 -551 0
-479 -550 -551 0
-494 -548 -549 0
-494 -548 -550 0
-494 -548 -551 0
-494 -549 -550 0
-494 -549 -551 0
-494 -550 -551 0
-548 -549 -550 0
-548 -549 -551 0
-548 -550 -551 0
-549 -550 -551 0
423 430 479 494 548 549 550 0
423 430 479 494 548 549 551 0
423 430 479 494 548 550 551 0
423 430 479 494 549 550 551 0
423 430 479 548 549 550 551 0
423 430 494 548 549 550 551 0
423 479 494 548 549 550 551 0
430 479 494 548 549 550 551 0
-535 -542 -591 0
-535 -542 -606 0
-535 -542 -659 0
-535 -542 -660 0
-535 -542 -661 0
-535 -542 -662 0
-535 -591 -606 0
-535 -591 -659 0
-535 -591 -660 0
-535 -591 -661 0
-535 -591 -662 0
-535 -606 -659 0
-535 -606 -660 0
-535 -606 -661 0
-535 -606 -662 0
-535 -659 -660 0
-535 -659 -661 0
-535 -659 -662 0
-535 -660 -661 0
-535 -660 -662 0
-535 -661 -662 0
-542 -591 -606 0
-542 -591 -659 0
-542 -591 -660 0
-542 -591 -661 0
-542 -591 -662 0
-542 -606 -659 0
-542 -606 -660 0
-542 -606 -661 0
-542 -606 -662 0
-542 -659 -660 0
-542 -659 -661 0
-542 -659 -662 0
-542 -660 -661 0
-542 -660 -662 0
-542 -661 -662 0
-591 -606 -659 0
-591 -606 -660 0
-591 -606 -661 0
-591 -606 -662 0
-591 -659 -660 0
-591 -659 -661 0
-591 -659 -662 0
-591 -660 -661 0
-591 -660 -662 0
-591 -661 -662 0
-606 -659 -660 0
-606 -659 -661 0
-606 -659 -662 0
-606 -660 -661 0
-606 -660 -662 0
-606 -661 -662 0
-659 -660 -661 0
-659 -660 -662 0
-659 -661 -662 0
-660 -661 -662 0
535 542 591 606 659 660 661 0
535 542 591 606 659 660 662 0
535 542 591 606 659 661 662 0
535 542 591 606 660 661 662 0
535 542 591 659 660 661 662 0
535 542 606 659 660 661 662 0
535 591 606 659 660 661 662 0
542 591 606 659 660 661 662 0
-21 -36 -90 0
-21 -36 -91 0
-21 -36 -92 0
-21 -36 -93 0
-21 -90 -91 0
-21 -90 -92 0
-21 -90 -93 0
-21 -91 -92 0
-21 -91 -93 0
-21 -92 -93 0
-36 -90 -91 0
-36 -90 -92 0
-36 -90 -93 0
-36 -91 -92 0
-36 -91 -93 0
-36 -92 -93 0
-90 -91 -92 0
-90 -91 -93 0
-90 -92 -93 0
-91 -92 -93 0
21 36 90 91 92 0
21 36 90 91 93 0
21 36 90 92 93 0
21 36 91 92 93 0
21 90 91 92 93 0
36 90 91 92 93 0
-36 -37 -38 0
-36 -37 -39 0
-36 -38 -39 0
-37 -38 -39 0
36 37 38 0
36 37 39 0
36 38 39 0
37 38 39 0
-23 -30 -79 0
-23 -30 -94 0
-23 -30 -148 0
-23 -30 -149 0
-23 -30 -150 0
-23 -30 -151 0
-23 -79 -94 0
-23 -79 -148 0
-23 -79 -149 0
-23 -79 -150 0
-23 -79 -151 0
-23 -94 -148 0
-23 -94 -149 0
-23 -94 -150 0
-23 -94 -151 0
-23 -148 -149 0
-23 -148 -150 0
-23 -148 -151 0
-23 -149 -150 0
-23 -149 -151 0
-23 -150 -151 0
-30 -79 -94 0
-30 -79 -148 0
-30 -79 -149 0
-30 -79 -150 0
-30 -79 -151 0
-30 -94 -148 0
-30 -94 -149 0
-30 -94 -150 0
-30 -94 -151 0
-30 -148 -149 0
-30 -148 -150 0
-30 -148 -151 0
-30 -149 -150 0
-30 -149 -151 0
-30 -150 -151 0
-79 -94 -148 0
-79 -94 -149 0
-79 -94 -150 0
-79 -94 -151 0
-79 -148 -149 0
-79 -148 -150 0
-79 -148 -151 0
-79 -149 -150 0
-79 -149 -151 0
-79 -150 -151 0
-94 -148 -149 0
-94 -148 -150 0
-94 -148 -151 0
-94 -149 -150 0
-94 -149 -151 0
-94 -150 -151 0
-148 -149 -150 0
-148 -149 -151 0
-148 -150 -151 0
-149 -150 -151 0
23 30 79 94 148 149 150 0
23 30 79 94 148 149 151 0
23 30 79 94 148 150 151 0
23 30 79 94 149 150 151 0
23 30 79 148 149 150 151 0
23 30 94 148 149 150 151 0
23 79 94 148 149 150 151 0
30 79 94 148 149 150 151 0
-593 -600 -648 0
-593 -600 -663 0
-593 -600 -713 0
-593 -600 -714 0
-593 -600 -715 0
-593 -600 -716 0
-593 -648 -663 0
-593 -648 -713 0
-593 -648 -714 0
-593 -648 -715 0
-593 -648 -716 0
-593 -663 -713 0
-593 -663 -714 0
-593 -663 -715 0
-593 -663 -716 0
-593 -713 -714 0
-593 -713 -715 0
-593 -713 -716 0
-593 -714 -715 0
-593 -714 -716 0
-593 -715 -716 0
-600 -648 -663 0
-600 -648 -713 0
-600 -648 -714 0
-600 -648 -715 0
-600 -648 -716 0
-600 -663 -713 0
-600 -663 -714 0
-600 -663 -715 0
-600 -663 -716 0
-600 -713 -714 0
-600 -713 -715 0
-600 -713 -716 0
-600 -714 -715 0
-600 -714 -716 0
-600 -715 -716 0
-648 -663 -713 0
-648 -663 -714 0
-648 -663 -715 0
-648 -663 -716 0
-648 -713 -714 0
-648 -713 -715 0
-648 -713 -716 0
-648 -714 -715 0
-648 -714 -716 0
-648 -715 -716 0
-663 -713 -714 0
-663 -713 -715 0
-663 -713 -716 0
-663 -714 -715 0
-663 -714 -716 0
-663 -715 -716 0
-713 -714 -715 0
-713 -714 -716 0
-713 -715 -716 0
-714 -715 -716 0
593 600 648 663 713 714 715 0
593 600 648 663 713 714 716 0
593 600 648 663 713 715 716 0
593 600 648 663 714 715 716 0
593 600 648 713 714 715 716 0
593 600 663 713 714 715 716 0
593 648 663 713 714 715 716 0
600 648 663 713 714 715 716 0
-317 -324 -374 0
-317 -324 -388 0
-317 -324 -442 0
-317 -324 -443 0
-317 -324 -444 0
-317 -324 -445 0
-317 -374 -388 0
-317 -374 -442 0
-317 -374 -443 0
-317 -374 -444 0
-317 -374 -445 0
-317 -388 -442 0
-317 -388 -443 0
-317 -388 -444 0
-317 -388 -445 0
-317 -442 -443 0
-317 -442 -444 0
-317 -442 -445 0
-317 -443 -444 0
-317 -443 -445 0
-317 -444 -445 0
-324 -374 -388 0
-324 -374 -442 0
-324 -374 -443 0
-324 -374 -444 0
-324 -374 -445 0
-324 -388 -442 0
-324 -388 -443 0
-324 -388 -444 0
-324 -388 -445 0
-324 -442 -443 0
-324 -442 -444 0
-324 -442 -445 0
-324 -443 -444 0
-324 -443 -445 0
-324 -444 -445 0
-374 -388 -442 0
-374 -388 -443 0
-374 -388 -444 0
-374 -388 -445 0
-374 -442 -443 0
-374 -442 -444 0
-374 -442 -445 0
-374 -443 -444 0
-374 -443 -445 0
-374 -444 -445 0
-388 -442 -443 0
-388 -442 -444 0
-388 -442 -445 0
-388 -443 -444 0
-388 -443 -445 0
-388 -444 -445 0
-442 -443 -444 0
-442 -443 -445 0
-442 -444 -445 0
-443 -444 -445 0
317 324 374 388 442 443 444 0
317 324 374 388 442 443 445 0
317 324 374 388 442 444 445 0
317 324 374 388 443 444 445 0
317 324 374 442 443 444 445 0
317 324 388 442 443 444 445 0
317 374 388 442 443 444 445 0
324 374 388 442 443 444 445 0
-59 -115 -184 0
-59 -115 -185 0
-59 -184 -185 0
-115 -184 -185 0
-271 -278 -327 0
-271 -278 -342 0
-271 -278 -396 0
-271 -278 -397 0
-271 -278 -398 0
-271 -278 -399 0
-271 -327 -342 0
-271 -327 -396 0
-271 -327 -397 0
-271 -327 -398 0
-271 -327 -399 0
-271 -342 -396 0
-271 -342 -397 0
-271 -342 -398 0
-271 -342 -399 0
-271 -396 -397 0
-271 -396 -398 0
-271 -396 -399 0
-271 -397 -398 0
-271 -397 -399 0
-271 -398 -399 0
-278 -327 -342 0
-278 -327 -396 0
-278 -327 -397 0
-278 -327 -398 0
-278 -327 -399 0
-278 -342 -396 0
-278 -342 -397 0
-278 -342 -398 0
-278 -342 -399 0
-278 -396 -397 0
-278 -396 -398 0
-278 -396 -399 0
-278 -397 -398 0
-278 -397 -399 0
-278 -398 -399 0
-327 -342 -396 0
-327 -342 -397 0
-327 -342 -398 0
-327 -342 -399 0
-327 -396 -397 0
-327 -396 -398 0
-327 -396 -399 0
-327 -397 -398 0
-327 -397 -399 0
-327 -398 -399 0
-342 -396 -397 0
-342 -396 -398 0
-342 -396 -399 0
-342 -397 -398 0
-342 -397 -399 0
-342 -398 -399 0
-396 -397 -398 0
-396 -397 -399 0
-396 -398 -399 0
-397 -398 -399 0
271 278 327 342 396 397 398 0
271 278 327 342 396 397 399 0
271 278 327 342 396 398 399 0
271 278 327 342 397 398 399 0
271 278 327 396 397 398 399 0
271 278 342 396 397 398 399 0
271 327 342 396 397 398 399 0
278 327 342 396 397 398 399 0
-307 -363 -432 0
-307 -363 -433 0
-307 -432 -433 0
-363 -432 -433 0
-658 -665 -710 0
-658 -665 -725 0
-658 -710 -725 0
-665 -710 -725 0
-89 -96 -145 0
-89 -96 -160 0
-89 -96 -214 0
-89 -96 -215 0
-89 -96 -216 0
-89 -96 -217 0
-89 -145 -160 0
-89 -145 -214 0
-89 -145 -215 0
-89 -145 -216 0
-89 -145 -217 0
-89 -160 -214 0
-89 -160 -215 0
-89 -160 -216 0
-89 -160 -217 0
-89 -214 -215 0
-89 -214 -216 0
-89 -214 -217 0
-89 -215 -216 0
-89 -215 -217 0
-89 -216 -217 0
-96 -145 -160 0
-96 -145 -214 0
-96 -145 -215 0
-96 -145 -216 0
-96 -145 -217 0
-96 -160 -214 0
-96 -160 -215 0
-96 -160 -216 0
-96 -160 -217 0
-96 -214 -215 0
-96 -214 -216 0
-96 -214 -217 0
-96 -215 -216 0
-96 -215 -217 0
-96 -216 -217 0
-145 -160 -214 0
-145 -160 -215 0
-145 -160 -216 0
-145 -160 -217 0
-145 -214 -215 0
-145 -214 -216 0
-145 -214 -217 0
-145 -215 -216 0
-145 -215 -217 0
-145 -216 -217 0
-160 -214 -215 0
-160 -214 -216 0
-160 -214 -217 0
-160 -215 -216 0
-160 -215 -217 0
-160 -216 -217 0
-214 -215 -216 0
-214 -215 -217 0
-214 -216 -217 0
-215 -216 -217 0
89 96 145 160 214 215 216 0
89 96 145 160 214 215 217 0
89 96 145 160 214 216 217 0
89 96 145 160 215 216 217 0
89 96 145 214 215 216 217 0
89 96 160 214 215 216 217 0
89 145 160 214 215 216 217 0
96 145 160 214 215 216 217 0
-201 -208 -257 0
-201 -208 -272 0
-201 -208 -326 0
-201 -208 -327 0
-201 -208 -328 0
-201 -208 -329 0
-201 -257 -272 0
-201 -257 -326 0
-201 -257 -327 0
-201 -257 -328 0
-201 -257 -329 0
-201 -272 -326 0
-201 -272 -327 0
-201 -272 -328 0
-201 -272 -329 0
-201 -326 -327 0
-201 -326 -328 0
-201 -326 -329 0
-201 -327 -328 0
-201 -327 -329 0
-201 -328 -329 0
-208 -257 -272 0
-208 -257 -326 0
-208 -257 -327 0
-208 -257 -328 0
-208 -257 -329 0
-208 -272 -326 0
-208 -272 -327 0
-208 -272 -328 0
-208 -272 -329 0
-208 -326 -327 0
-208 -326 -328 0
-208 -326 -329 0
-208 -327 -328 0
-208 -327 -329 0
-208 -328 -329 0
-257 -272 -326 0
-257 -272 -327 0
-257 -272 -328 0
-257 -272 -329 0
-257 -326 -327 0
-257 -326 -328 0
-257 -326 -329 0
-257 -327 -328 0
-257 -327 -329 0
-257 -328 -329 0
-272 -326 -327 0
-272 -326 -328 0
-272 -326 -329 0
-272 -327 -328 0
-272 -327 -329 0
-272 -328 -329 0
-326 -327 -328 0
-326 -327 -329 0
-326 -328 -329 0
-327 -328 -329 0
201 208 257 272 326 327 328 0
201 208 257 272 326 327 329 0
201 208 257 272 326 328 329 0
201 208 257 272 327 328 329 0
201 208 257 326 327 328 329 0
201 208 272 326 327 328 329 0
201 257 272 326 327 328 329 0
208 257 272 326 327 328 329 0
-147 -154 -203 0
-147 -154 -218 0
-147 -154 -272 0
-147 -154 -273 0
-147 -154 -274 0
-147 -154 -275 0
-147 -203 -218 0
-147 -203 -272 0
-147 -203 -273 0
-147 -203 -274 0
-147 -203 -275 0
-147 -218 -272 0
-147 -218 -273 0
-147 -218 -274 0
-147 -218 -275 0
-147 -272 -273 0
-147 -272 -274 0
-147 -272 -275 0
-147 -273 -274 0
-147 -273 -275 0
-147 -274 -275 0
-154 -203 -218 0
-154 -203 -272 0
-154 -203 -273 0
-154 -203 -274 0
-154 -203 -275 0
-154 -218 -272 0
-154 -218 -273 0
-154 -218 -274 0
-154 -218 -275 0
-154 -272 -273 0
-154 -272 -274 0
-154 -272 -275 0
-154 -273 -274 0
-154 -273 -275 0
-154 -274 -275 0
-203 -218 -272 0
-203 -218 -273 0
-203 -218 -274 0
-203 -218 -275 0
-203 -272 -273 0
-203 -272 -274 0
-203 -272 -275 0
-203 -273 -274 0
-203 -273 -275 0
-203 -274 -275 0
-218 -272 -273 0
-218 -272 -274 0
-218 -272 -275 0
-218 -273 -274 0
-218 -273 -275 0
-218 -274 -275 0
-272 -273 -274 0
-272 -273 -275 0
-272 -274 -275 0
-273 -274 -275 0
147 154 203 218 272 273 274 0
147 154 203 218 272 273 275 0
147 154 203 218 272 274 275 0
147 154 203 218 273 274 275 0
147 154 203 272 273 274 275 0
147 154 218 272 273 274 275 0
147 203 218 272 273 274 275 0
154 203 218 272 273 274 275 0
-183 -239 -308 0
-183 -239 -309 0
-183 -308 -309 0
-239 -308 -309 0
-395 -402 -451 0
-395 -402 -466 0
-395 -402 -520 0
-395 -402 -521 0
-395 -402 -522 0
-395 -402 -523 0
-395 -451 -466 0
-395 -451 -520 0
-395 -451 -521 0
-395 -451 -522 0
-395 -451 -523 0
-395 -466 -520 0
-395 -466 -521 0
-395 -466 -522 0
-395 -466 -523 0
-395 -520 -521 0
-395 -520 -522 0
-395 -520 -523 0
-395 -521 -522 0
-395 -521 -523 0
-395 -522 -523 0
-402 -451 -466 0
-402 -451 -520 0
-402 -451 -521 0
-402 -451 -522 0
-402 -451 -523 0
-402 -466 -520 0
-402 -466 -521 0
-402 -466 -522 0
-402 -466 -523 0
-402 -520 -521 0
-402 -520 -522 0
-402 -520 -523 0
-402 -521 -522 0
-402 -521 -523 0
-402 -522 -523 0
-451 -466 -520 0
-451 -466 -521 0
-451 -466 -522 0
-451 -466 -523 0
-451 -520 -521 0
-451 -520 -522 0
-451 -520 -523 0
-451 -521 -522 0
-451 -521 -523 0
-451 -522 -523 0
-466 -520 -521 0
-466 -520 -522 0
-466 -520 -523 0
-466 -521 -522 0
-466 -521 -523 0
-466 -522 -523 0
-520 -521 -522 0
-520 -521 -523 0
-520 -522 -523 0
-521 -522 -523 0
395 402 451 466 520 521 522 0
395 402 451 466 520 521 523 0
395 402 451 466 520 522 523 0
395 402 451 466 521 522 523 0
395 402 451 520 521 522 523 0
395 402 466 520 521 522 523 0
395 451 466 520 521 522 523 0
402 451 466 520 521 522 523 0
-507 -514 -563 0
-507 -514 -578 0
-507 -514 -631 0
-507 -514 -632 0
-507 -514 -633 0
-507 -514 -634 0
-507 -563 -578 0
-507 -563 -631 0
-507 -563 -632 0
-507 -563 -633 0
-507 -563 -634 0
-507 -578 -631 0
-507 -578 -632 0
-507 -578 -633 0
-507 -578 -634 0
-507 -631 -632 0
-507 -631 -633 0
-507 -631 -634 0
-507 -632 -633 0
-507 -632 -634 0
-507 -633 -634 0
-514 -563 -578 0
-514 -563 -631 0
-514 -563 -632 0
-514 -563 -633 0
-514 -563 -634 0
-514 -578 -631 0
-514 -578 -632 0
-514 -578 -633 0
-514 -578 -634 0
-514 -631 -632 0
-514 -631 -633 0
-514 -631 -634 0
-514 -632 -633 0
-514 -632 -634 0
-514 -633 -634 0
-563 -578 -631 0
-563 -578 -632 0
-563 -578 -633 0
-563 -578 -634 0
-563 -631 -632 0
-563 -631 -633 0
-563 -631 -634 0
-563 -632 -633 0
-563 -632 -634 0
-563 -633 -634 0
-578 -631 -632 0
-578 -631 -633 0
-578 -631 -634 0
-578 -632 -633 0
-578 -632 -634 0
-578 -633 -634 0
-631 -632 -633 0
-631 -632 -634 0
-631 -633 -634 0
-632 -633 -634 0
507 514 563 578 631 632 633 0
507 514 563 578 631 632 634 0
507 514 563 578 631 633 634 0
507 514 563 578 632 633 634 0
507 514 563 631 632 633 634 0
507 514 578 631 632 633 634 0
507 563 578 631 632 633 634 0
514 563 578 631 632 633 634 0
-8 -64 -65 0
-8 -9 -10 0
-8 -9 -11 0
-8 -10 -11 0
-9 -10 -11 0
8 9 10 0
8 9 11 0
8 10 11 0
9 10 11 0
-543 -550 -599 0
-543 -550 -614 0
-543 -550 -667 0
-543 -550 -668 0
-543 -550 -669 0
-543 -550 -670 0
-543 -599 -614 0
-543 -599 -667 0
-543 -599 -668 0
-543 -599 -669 0
-543 -599 -670 0
-543 -614 -667 0
-543 -614 -668 0
-543 -614 -669 0
-543 -614 -670 0
-543 -667 -668 0
-543 -667 -669 0
-543 -667 -670 0
-543 -668 -669 0
-543 -668 -670 0
-543 -669 -670 0
-550 -599 -614 0
-550 -599 -667 0
-550 -599 -668 0
-550 -599 -669 0
-550 -599 -670 0
-550 -614 -667 0
-550 -614 -668 0
-550 -614 -669 0
-550 -614 -670 0
-550 -667 -668 0
-550 -667 -669 0
-550 -667 -670 0
-550 -668 -669 0
-550 -668 -670 0
-550 -669 -670 0
-599 -614 -667 0
-599 -614 -668 0
-599 -614 -669 0
-599 -614 -670 0
-599 -667 -668 0
-599 -667 -669 0
-599 -667 -670 0
-599 -668 -669 0
-599 -668 -670 0
-599 -669 -670 0
-614 -667 -668 0
-614 -667 -669 0
-614 -667 -670 0
-614 -668 -669 0
-614 -668 -670 0
-614 -669 -670 0
-667 -668 -669 0
-667 -668 -670 0
-667 -669 -670 0
-668 -669 -670 0
543 550 599 614 667 668 669 0
543 550 599 614 667 668 670 0
543 550 599 614 667 669 670 0
543 550 599 614 668 669 670 0
543 550 599 667 668 669 670 0
543 550 614 667 668 669 670 0
543 599 614 667 668 669 670 0
550 599 614 667 668 669 670 0
-29 -44 -98 0
-29 -44 -99 0
-29 -44 -100 0
-29 -44 -101 0
-29 -98 -99 0
-29 -98 -100 0
-29 -98 -101 0
-29 -99 -100 0
-29 -99 -101 0
-29 -100 -101 0
-44 -98 -99 0
-44 -98 -100 0
-44 -98 -101 0
-44 -99 -100 0
-44 -99 -101 0
-44 -100 -101 0
-98 -99 -100 0
-98 -99 -101 0
-98 -100 -101 0
-99 -100 -101 0
29 44 98 99 100 0
29 44 98 99 101 0
29 44 98 100 101 0
29 44 99 100 101 0
29 98 99 100 101 0
44 98 99 100 101 0
-44 -45 -46 0
-44 -45 -47 0
-44 -46 -47 0
-45 -46 -47 0
44 45 46 0
44 45 47 0
44 46 47 0
45 46 47 0
-31 -38 -87 0
-31 -38 -102 0
-31 -38 -156 0
-31 -38 -157 0
-31 -38 -158 0
-31 -38 -159 0
-31 -87 -102 0
-31 -87 -156 0
-31 -87 -157 0
-31 -87 -158 0
-31 -87 -159 0
-31 -102 -156 0
-31 -102 -157 0
-31 -102 -158 0
-31 -102 -159 0
-31 -156 -157 0
-31 -156 -158 0
-31 -156 -159 0
-31 -157 -158 0
-31 -157 -159 0
-31 -158 -159 0
-38 -87 -102 0
-38 -87 -156 0
-38 -87 -157 0
-38 -87 -158 0
-38 -87 -159 0
-38 -102 -156 0
-38 -102 -157 0
-38 -102 -158 0
-38 -102 -159 0
-38 -156 -157 0
-38 -156 -158 0
-38 -156 -159 0
-38 -157 -158 0
-38 -157 -159 0
-38 -158 -159 0
-87 -102 -156 0
-87 -102 -157 0
-87 -102 -158 0
-87 -102 -159 0
-87 -156 -157 0
-87 -156 -158 0
-87 -156 -159 0
-87 -157 -158 0
-87 -157 -159 0
-87 -158 -159 0
-102 -156 -157 0
-102 -156 -158 0
-102 -156 -159 0
-102 -157 -158 0
-102 -157 -159 0
-102 -158 -159 0
-156 -157 -158 0
-156 -157 -159 0
-156 -158 -159 0
-157 -158 -159 0
31 38 87 102 156 157 158 0
31 38 87 102 156 157 159 0
31 38 87 102 156 158 159 0
31 38 87 102 157 158 159 0
31 38 87 156 157 158 159 0
31 38 102 156 157 158 159 0
31 87 102 156 157 158 159 0
38 87 102 156 157 158 159 0
-601 -608 -656 0
-601 -608 -671 0
-601 -608 -721 0
-601 -608 -722 0
-601 -608 -723 0
-601 -608 -724 0
-601 -656 -671 0
-601 -656 -721 0
-601 -656 -722 0
-601 -656 -723 0
-601 -656 -724 0
-601 -671 -721 0
-601 -671 -722 0
-601 -671 -723 0
-601 -671 -724 0
-601 -721 -722 0
-601 -721 -723 0
-601 -721 -724 0
-601 -722 -723 0
-601 -722 -724 0
-601 -723 -724 0
-608 -656 -671 0
-608 -656 -721 0
-608 -656 -722 0
-608 -656 -723 0
-608 -656 -724 0
-608 -671 -721 0
-608 -671 -722 0
-608 -671 -723 0
-608 -671 -724 0
-608 -721 -722 0
-608 -721 -723 0
-608 -721 -724 0
-608 -722 -723 0
-608 -722 -724 0
-608 -723 -724 0
-656 -671 -721 0
-656 -671 -722 0
-656 -671 -723 0
-656 -671 -724 0
-656 -721 -722 0
-656 -721 -723 0
-656 -721 -724 0
-656 -722 -723 0
-656 -722 -724 0
-656 -723 -724 0
-671 -721 -722 0
-671 -721 -723 0
-671 -721 -724 0
-671 -722 -723 0
-671 -722 -724 0
-671 -723 -724 0
-721 -722 -723 0
-721 -722 -724 0
-721 -723 -724 0
-722 -723 -724 0
601 608 656 671 721 722 723 0
601 608 656 671 721 722 724 0
601 608 656 671 721 723 724 0
601 608 656 671 722 723 724 0
601 608 656 721 722 723 724 0
601 608 671 721 722 723 724 0
601 656 671 721 722 723 724 0
608 656 671 721 722 723 724 0
-431 -487 -556 0
-431 -487 -557 0
-431 -556 -557 0
-487 -556 -557 0
-279 -286 -335 0
-279 -286 -350 0
-279 -286 -404 0
-279 -286 -405 0
-279 -286 -406 0
-279 -286 -407 0
-279 -335 -350 0
-279 -335 -404 0
-279 -335 -405 0
-279 -335 -406 0
-279 -335 -407 0
-279 -350 -404 0
-279 -350 -405 0
-279 -350 -406 0
-279 -350 -407 0
-279 -404 -405 0
-279 -404 -406 0
-279 -404 -407 0
-279 -405 -406 0
-279 -405 -407 0
-279 -406 -407 0
-286 -335 -350 0
-286 -335 -404 0
-286 -335 -405 0
-286 -335 -406 0
-286 -335 -407 0
-286 -350 -404 0
-286 -350 -405 0
-286 -350 -406 0
-286 -350 -407 0
-286 -404 -405 0
-286 -404 -406 0
-286 -404 -407 0
-286 -405 -406 0
-286 -405 -407 0
-286 -406 -407 0
-335 -350 -404 0
-335 -350 -405 0
-335 -350 -406 0
-335 -350 -407 0
-335 -404 -405 0
-335 -404 -406 0
-335 -404 -407 0
-335 -405 -406 0
-335 -405 -407 0
-335 -406 -407 0
-350 -404 -405 0
-350 -404 -406 0
-350 -404 -407 0
-350 -405 -406 0
-350 -405 -407 0
-350 -406 -407 0
-404 -405 -406 0
-404 -405 -407 0
-404 -406 -407 0
-405 -406 -407 0
279 286 335 350 404 405 406 0
279 286 335 350 404 405 407 0
279 286 335 350 404 406 407 0
279 286 335 350 405 406 407 0
279 286 335 404 405 406 407 0
279 286 350 404 405 406 407 0
279 335 350 404 405 406 407 0
286 335 350 404 405 406 407 0
-630 -637 -682 0
-630 -637 -697 0
-630 -682 -697 0
-637 -682 -697 0
-68 -132 -188 0
-68 -132 -189 0
-68 -188 -189 0
-132 -188 -189 0
-666 -673 -718 0
-666 -673 -733 0
-666 -718 -733 0
-673 -718 -733 0
-97 -104 -153 0
-97 -104 -168 0
-97 -104 -222 0
-97 -104 -223 0
-97 -104 -224 0
-97 -104 -225 0
-97 -153 -168 0
-97 -153 -222 0
-97 -153 -223 0
-97 -153 -224 0
-97 -153 -225 0
-97 -168 -222 0
-97 -168 -223 0
-97 -168 -224 0
-97 -168 -225 0
-97 -222 -223 0
-97 -222 -224 0
-97 -222 -225 0
-97 -223 -224 0
-97 -223 -225 0
-97 -224 -225 0
-104 -153 -168 0
-104 -153 -222 0
-104 -153 -223 0
-104 -153 -224 0
-104 -153 -225 0
-104 -168 -222 0
-104 -168 -223 0
-104 -168 -224 0
-104 -168 -225 0
-104 -222 -223 0
-104 -222 -224 0
-104 -222 -225 0
-104 -223 -224 0
-104 -223 -225 0
-104 -224 -225 0
-153 -168 -222 0
-153 -168 -223 0
-153 -168 -224 0
-153 -168 -225 0
-153 -222 -223 0
-153 -222 -224 0
-153 -222 -225 0
-153 -223 -224 0
-153 -223 -225 0
-153 -224 -225 0
-168 -222 -223 0
-168 -222 -224 0
-168 -222 -225 0
-168 -223 -224 0
-168 -223 -225 0
-168 -224 -225 0
-222 -223 -224 0
-222 -223 -225 0
-222 -224 -225 0
-223 -224 -225 0
97 104 153 168 222 223 224 0
97 104 153 168 222 223 225 0
97 104 153 168 222 224 225 0
97 104 153 168 223 224 225 0
97 104 153 222 223 224 225 0
97 104 168 222 223 224 225 0
97 153 168 222 223 224 225 0
104 153 168 222 223 224 225 0
-155 -162 -211 0
-155 -162 -226 0
-155 -162 -280 0
-155 -162 -281 0
-155 -162 -282 0
-155 -162 -283 0
-155 -211 -226 0
-155 -211 -280 0
-155 -211 -281 0
-155 -211 -282 0
-155 -211 -283 0
-155 -226 -280 0
-155 -226 -281 0
-155 -226 -282 0
-155 -226 -283 0
-155 -280 -281 0
-155 -280 -282 0
-155 -280 -283 0
-155 -281 -282 0
-155 -281 -283 0
-155 -282 -283 0
-162 -211 -226 0
-162 -211 -280 0
-162 -211 -281 0
-162 -211 -282 0
-162 -211 -283 0
-162 -226 -280 0
-162 -226 -281 0
-162 -226 -282 0
-162 -226 -283 0
-162 -280 -281 0
-162 -280 -282 0
-162 -280 -283 0
-162 -281 -282 0
-162 -281 -283 0
-162 -282 -283 0
-211 -226 -280 0
-211 -226 -281 0
-211 -226 -282 0
-211 -226 -283 0
-211 -280 -281 0
-211 -280 -282 0
-211 -280 -283 0
-211 -281 -282 0
-211 -281 -283 0
-211 -282 -283 0
-226 -280 -281 0
-226 -280 -282 0
-226 -280 -283 0
-226 -281 -282 0
-226 -281 -283 0
-226 -282 -283 0
-280 -281 -282 0
-280 -281 -283 0
-280 -282 -283 0
-281 -282 -283 0
155 162 211 226 280 281 282 0
155 162 211 226 280 281 283 0
155 162 211 226 280 282 283 0
155 162 211 226 281 282 283 0
155 162 211 280 281 282 283 0
155 162 226 280 281 282 283 0
155 211 226 280 281 282 283 0
162 211 226 280 281 282 283 0
-403 -410 -459 0
-403 -410 -474 0
-403 -410 -528 0
-403 -410 -529 0
-403 -410 -530 0
-403 -410 -531 0
-403 -459 -474 0
-403 -459 -528 0
-403 -459 -529 0
-403 -459 -530 0
-403 -459 -531 0
-403 -474 -528 0
-403 -474 -529 0
-403 -474 -530 0
-403 -474 -531 0
-403 -528 -529 0
-403 -528 -530 0
-403 -528 -531 0
-403 -529 -530 0
-403 -529 -531 0
-403 -530 -531 0
-410 -459 -474 0
-410 -459 -528 0
-410 -459 -529 0
-410 -459 -530 0
-410 -459 -531 0
-410 -474 -528 0
-410 -474 -529 0
-410 -474 -530 0
-410 -474 -531 0
-410 -528 -529 0
-410 -528 -530 0
-410 -528 -531 0
-410 -529 -530 0
-410 -529 -531 0
-410 -530 -531 0
-459 -474 -528 0
-459 -474 -529 0
-459 -474 -530 0
-459 -474 -531 0
-459 -528 -529 0
-459 -528 -530 0
-459 -528 -531 0
-459 -529 -530 0
-459 -529 -531 0
-459 -530 -531 0
-474 -528 -529 0
-474 -528 -530 0
-474 -528 -531 0
-474 -529 -530 0
-474 -529 -531 0
-474 -530 -531 0
-528 -529 -530 0
-528 -529 -531 0
-528 -530 -531 0
-529 -530 -531 0
403 410 459 474 528 529 530 0
403 410 459 474 528 529 531 0
403 410 459 474 528 530 531 0
403 410 459 474 529 530 531 0
403 410 459 528 529 530 531 0
403 410 474 528 529 530 531 0
403 459 474 528 529 530 531 0
410 459 474 528 529 530 531 0
-515 -522 -571 0
-515 -522 -586 0
-515 -522 -639 0
-515 -522 -640 0
-515 -522 -641 0
-515 -522 -642 0
-515 -571 -586 0
-515 -571 -639 0
-515 -571 -640 0
-515 -571 -641 0
-515 -571 -642 0
-515 -586 -639 0
-515 -586 -640 0
-515 -586 -641 0
-515 -586 -642 0
-515 -639 -640 0
-515 -639 -641 0
-515 -639 -642 0
-515 -640 -641 0
-515 -640 -642 0
-515 -641 -642 0
-522 -571 -586 0
-522 -571 -639 0
-522 -571 -640 0
-522 -571 -641 0
-522 -571 -642 0
-522 -586 -639 0
-522 -586 -640 0
-522 -586 -641 0
-522 -586 -642 0
-522 -639 -640 0
-522 -639 -641 0
-522 -639 -642 0
-522 -640 -641 0
-522 -640 -642 0
-522 -641 -642 0
-571 -586 -639 0
-571 -586 -640 0
-571 -586 -641 0
-571 -586 -642 0
-571 -639 -640 0
-571 -639 -641 0
-571 -639 -642 0
-571 -640 -641 0
-571 -640 -642 0
-571 -641 -642 0
-586 -639 -640 0
-586 -639 -641 0
-586 -639 -642 0
-586 -640 -641 0
-586 -640 -642 0
-586 -641 -642 0
-639 -640 -641 0
-639 -640 -642 0
-639 -641 -642 0
-640 -641 -642 0
515 522 571 586 639 640 641 0
515 522 571 586 639 640 642 0
515 522 571 586 639 641 642 0
515 522 571 586 640 641 642 0
515 522 571 639 640 641 642 0
515 522 586 639 640 641 642 0
515 571 586 639 640 641 642 0
522 571 586 639 640 641 642 0
-2 -16 -70 0
-2 -16 -71 0
-2 -16 -72 0
-2 -16 -73 0
-2 -70 -71 0
-2 -70 -72 0
-2 -70 -73 0
-2 -71 -72 0
-2 -71 -73 0
-2 -72 -73 0
-16 -70 -71 0
-16 -70 -72 0
-16 -70 -73 0
-16 -71 -72 0
-16 -71 -73 0
-16 -72 -73 0
-70 -71 -72 0
-70 -71 -73 0
-70 -72 -73 0
-71 -72 -73 0
2 16 70 71 72 0
2 16 70 71 73 0
2 16 70 72 73 0
2 16 71 72 73 0
2 70 71 72 73 0
16 70 71 72 73 0
-16 -17 -18 0
-16 -17 -19 0
-16 -18 -19 0
-17 -18 -19 0
16 17 18 0
16 17 19 0
16 18 19 0
17 18 19 0
-3 -10 -63 0
-3 -10 -74 0
-3 -10 -128 0
-3 -10 -129 0
-3 -10 -130 0
-3 -10 -131 0
-3 -63 -74 0
-3 -63 -128 0
-3 -63 -129 0
-3 -63 -130 0
-3 -63 -131 0
-3 -74 -128 0
-3 -74 -129 0
-3 -74 -130 0
-3 -74 -131 0
-3 -128 -129 0
-3 -128 -130 0
-3 -128 -131 0
-3 -129 -130 0
-3 -129 -131 0
-3 -130 -131 0
-10 -63 -74 0
-10 -63 -128 0
-10 -63 -129 0
-10 -63 -130 0
-10 -63 -131 0
-10 -74 -128 0
-10 -74 -129 0
-10 -74 -130 0
-10 -74 -131 0
-10 -128 -129 0
-10 -128 -130 0
-10 -128 -131 0
-10 -129 -130 0
-10 -129 -131 0
-10 -130 -131 0
-63 -74 -128 0
-63 -74 -129 0
-63 -74 -130 0
-63 -74 -131 0
-63 -128 -129 0
-63 -128 -130 0
-63 -128 -131 0
-63 -129 -130 0
-63 -129 -131 0
-63 -130 -131 0
-74 -128 -129 0
-74 -128 -130 0
-74 -128 -131 0
-74 -129 -130 0
-74 -129 -131 0
-74 -130 -131 0
-128 -129 -130 0
-128 -129 -131 0
-128 -130 -131 0
-129 -130 -131 0
3 10 63 74 128 129 130 0
3 10 63 74 128 129 131 0
3 10 63 74 128 130 131 0
3 10 63 74 129 130 131 0
3 10 63 128 129 130 131 0
3 10 74 128 129 130 131 0
3 63 74 128 129 130 131 0
10 63 74 128 129 130 131 0
-573 -580 -628 0
-573 -580 -643 0
-573 -580 -693 0
-573 -580 -694 0
-573 -580 -695 0
-573 -580 -696 0
-573 -628 -643 0
-573 -628 -693 0
-573 -628 -694 0
-573 -628 -695 0
-573 -628 -696 0
-573 -643 -693 0
-573 -643 -694 0
-573 -643 -695 0
-573 -643 -696 0
-573 -693 -694 0
-573 -693 -695 0
-573 -693 -696 0
-573 -694 -695 0
-573 -694 -696 0
-573 -695 -696 0
-580 -628 -643 0
-580 -628 -693 0
-580 -628 -694 0
-580 -628 -695 0
-580 -628 -696 0
-580 -643 -693 0
-580 -643 -694 0
-580 -643 -695 0
-580 -643 -696 0
-580 -693 -694 0
-580 -693 -695 0
-580 -693 -696 0
-580 -694 -695 0
-580 -694 -696 0
-580 -695 -696 0
-628 -643 -693 0
-628 -643 -694 0
-628 -643 -695 0
-628 -643 -696 0
-628 -693 -694 0
-628 -693 -695 0
-628 -693 -696 0
-628 -694 -695 0
-628 -694 -696 0
-628 -695 -696 0
-643 -693 -694 0
-643 -693 -695 0
-643 -693 -696 0
-643 -694 -695 0
-643 -694 -696 0
-643 -695 -696 0
-693 -694 -695 0
-693 -694 -696 0
-693 -695 -696 0
-694 -695 -696 0
573 580 628 643 693 694 695 0
573 580 628 643 693 694 696 0
573 580 628 643 693 695 696 0
573 580 628 643 694 695 696 0
573 580 628 693 694 695 696 0
573 580 643 693 694 695 696 0
573 628 643 693 694 695 696 0
580 628 643 693 694 695 696 0
-551 -557 -607 0
-551 -557 -620 0
-551 -557 -675 0
-551 -557 -676 0
-551 -557 -677 0
-551 -557 -678 0
-551 -607 -620 0
-551 -607 -675 0
-551 -607 -676 0
-551 -607 -677 0
-551 -607 -678 0
-551 -620 -675 0
-551 -620 -676 0
-551 -620 -677 0
-551 -620 -678 0
-551 -675 -676 0
-551 -675 -677 0
-551 -675 -678 0
-551 -676 -677 0
-551 -676 -678 0
-551 -677 -678 0
-557 -607 -620 0
-557 -607 -675 0
-557 -607 -676 0
-557 -607 -677 0
-557 -607 -678 0
-557 -620 -675 0
-557 -620 -676 0
-557 -620 -677 0
-557 -620 -678 0
-557 -675 -676 0
-557 -675 -677 0
-557 -675 -678 0
-557 -676 -677 0
-557 -676 -678 0
-557 -677 -678 0
-607 -620 -675 0
-607 -620 -676 0
-607 -620 -677 0
-607 -620 -678 0
-607 -675 -676 0
-607 -675 -677 0
-607 -675 -678 0
-607 -676 -677 0
-607 -676 -678 0
-607 -677 -678 0
-620 -675 -676 0
-620 -675 -677 0
-620 -675 -678 0
-620 -676 -677 0
-620 -676 -678 0
-620 -677 -678 0
-675 -676 -677 0
-675 -676 -678 0
-675 -677 -678 0
-676 -677 -678 0
551 557 607 620 675 676 677 0
551 557 607 620 675 676 678 0
551 557 607 620 675 677 678 0
551 557 607 620 676 677 678 0
551 557 607 675 676 677 678 0
551 557 620 675 676 677 678 0
551 607 620 675 676 677 678 0
557 607 620 675 676 677 678 0
-37 -52 -106 0
-37 -52 -107 0
-37 -52 -108 0
-37 -52 -109 0
-37 -106 -107 0
-37 -106 -108 0
-37 -106 -109 0
-37 -107 -108 0
-37 -107 -109 0
-37 -108 -109 0
-52 -106 -107 0
-52 -106 -108 0
-52 -106 -109 0
-52 -107 -108 0
-52 -107 -109 0
-52 -108 -109 0
-106 -107 -108 0
-106 -107 -109 0
-106 -108 -109 0
-107 -108 -109 0
37 52 106 107 108 0
37 52 106 107 109 0
37 52 106 108 109 0
37 52 107 108 109 0
37 106 107 108 109 0
52 106 107 108 109 0
-52 -53 -54 0
-52 -53 -55 0
-52 -54 -55 0
-53 -54 -55 0
52 53 54 0
52 53 55 0
52 54 55 0
53 54 55 0
-39 -46 -95 0
-39 -46 -110 0
-39 -46 -164 0
-39 -46 -165 0
-39 -46 -166 0
-39 -46 -167 0
-39 -95 -110 0
-39 -95 -164 0
-39 -95 -165 0
-39 -95 -166 0
-39 -95 -167 0
-39 -110 -164 0
-39 -110 -165 0
-39 -110 -166 0
-39 -110 -167 0
-39 -164 -165 0
-39 -164 -166 0
-39 -164 -167 0
-39 -165 -166 0
-39 -165 -167 0
-39 -166 -167 0
-46 -95 -110 0
-46 -95 -164 0
-46 -95 -165 0
-46 -95 -166 0
-46 -95 -167 0
-46 -110 -164 0
-46 -110 -165 0
-46 -110 -166 0
-46 -110 -167 0
-46 -164 -165 0
-46 -164 -166 0
-46 -164 -167 0
-46 -165 -166 0
-46 -165 -167 0
-46 -166 -167 0
-95 -110 -164 0
-95 -110 -165 0
-95 -110 -166 0
-95 -110 -167 0
-95 -164 -165 0
-95 -164 -166 0
-95 -164 -167 0
-95 -165 -166 0
-95 -165 -167 0
-95 -166 -167 0
-110 -164 -165 0
-110 -164 -166 0
-110 -164 -167 0
-110 -165 -166 0
-110 -165 -167 0
-110 -166 -167 0
-164 -165 -166 0
-164 -165 -167 0
-164 -166 -167 0
-165 -166 -167 0
39 46 95 110 164 165 166 0
39 46 95 110 164 165 167 0
39 46 95 110 164 166 167 0
39 46 95 110 165 166 167 0
39 46 95 164 165 166 167 0
39 46 110 164 165 166 167 0
39 95 110 164 165 166 167 0
46 95 110 164 165 166 167 0
-609 -616 -664 0
-609 -616 -679 0
-609 -616 -729 0
-609 -616 -730 0
-609 -616 -731 0
-609 -616 -732 0
-609 -664 -679 0
-609 -664 -729 0
-609 -664 -730 0
-609 -664 -731 0
-609 -664 -732 0
-609 -679 -729 0
-609 -679 -730 0
-609 -679 -731 0
-609 -679 -732 0
-609 -729 -730 0
-609 -729 -731 0
-609 -729 -732 0
-609 -730 -731 0
-609 -730 -732 0
-609 -731 -732 0
-616 -664 -679 0
-616 -664 -729 0
-616 -664 -730 0
-616 -664 -731 0
-616 -664 -732 0
-616 -679 -729 0
-616 -679 -730 0
-616 -679 -731 0
-616 -679 -732 0
-616 -729 -730 0
-616 -729 -731 0
-616 -729 -732 0
-616 -730 -731 0
-616 -730 -732 0
-616 -731 -732 0
-664 -679 -729 0
-664 -679 -730 0
-664 -679 -731 0
-664 -679 -732 0
-664 -729 -730 0
-664 -729 -731 0
-664 -729 -732 0
-664 -730 -731 0
-664 -730 -732 0
-664 -731 -732 0
-679 -729 -730 0
-679 -729 -731 0
-679 -729 -732 0
-679 -730 -731 0
-679 -730 -732 0
-679 -731 -732 0
-729 -730 -731 0
-729 -730 -732 0
-729 -731 -732 0
-730 -731 -732 0
609 616 664 679 729 730 731 0
609 616 664 679 729 730 732 0
609 616 664 679 729 731 732 0
609 616 664 679 730 731 732 0
609 616 664 729 730 731 732 0
609 616 679 729 730 731 732 0
609 664 679 729 730 731 732 0
616 664 679 729 730 731 732 0
-251 -258 -311 0
-251 -258 -322 0
-251 -258 -376 0
-251 -258 -377 0
-251 -258 -378 0
-251 -258 -379 0
-251 -311 -322 0
-251 -311 -376 0
-251 -311 -377 0
-251 -311 -378 0
-251 -311 -379 0
-251 -322 -376 0
-251 -322 -377 0
-251 -322 -378 0
-251 -322 -379 0
-251 -376 -377 0
-251 -376 -378 0
-251 -376 -379 0
-251 -377 -378 0
-251 -377 -379 0
-251 -378 -379 0
-258 -311 -322 0
-258 -311 -376 0
-258 -311 -377 0
-258 -311 -378 0
-258 -311 -379 0
-258 -322 -376 0
-258 -322 -377 0
-258 -322 -378 0
-258 -322 -379 0
-258 -376 -377 0
-258 -376 -378 0
-258 -376 -379 0
-258 -377 -378 0
-258 -377 -379 0
-258 -378 -379 0
-311 -322 -376 0
-311 -322 -377 0
-311 -322 -378 0
-311 -322 -379 0
-311 -376 -377 0
-311 -376 -378 0
-311 -376 -379 0
-311 -377 -378 0
-311 -377 -379 0
-311 -378 -379 0
-322 -376 -377 0
-322 -376 -378 0
-322 -376 -379 0
-322 -377 -378 0
-322 -377 -379 0
-322 -378 -379 0
-376 -377 -378 0
-376 -377 -379 0
-376 -378 -379 0
-377 -378 -379 0
251 258 311 322 376 377 378 0
251 258 311 322 376 377 379 0
251 258 311 322 376 378 379 0
251 258 311 322 377 378 379 0
251 258 311 376 377 378 379 0
251 258 322 376 377 378 379 0
251 311 322 376 377 378 379 0
258 311 322 376 377 378 379 0
-287 -294 -343 0
-287 -294 -358 0
-287 -294 -412 0
-287 -294 -413 0
-287 -294 -414 0
-287 -294 -415 0
-287 -343 -358 0
-287 -343 -412 0
-287 -343 -413 0
-287 -343 -414 0
-287 -343 -415 0
-287 -358 -412 0
-287 -358 -413 0
-287 -358 -414 0
-287 -358 -415 0
-287 -412 -413 0
-287 -412 -414 0
-287 -412 -415 0
-287 -413 -414 0
-287 -413 -415 0
-287 -414 -415 0
-294 -343 -358 0
-294 -343 -412 0
-294 -343 -413 0
-294 -343 -414 0
-294 -343 -415 0
-294 -358 -412 0
-294 -358 -413 0
-294 -358 -414 0
-294 -358 -415 0
-294 -412 -413 0
-294 -412 -414 0
-294 -412 -415 0
-294 -413 -414 0
-294 -413 -415 0
-294 -414 -415 0
-343 -358 -412 0
-343 -358 -413 0
-343 -358 -414 0
-343 -358 -415 0
-343 -412 -413 0
-343 -412 -414 0
-343 -412 -415 0
-343 -413 -414 0
-343 -413 -415 0
-343 -414 -415 0
-358 -412 -413 0
-358 -412 -414 0
-358 -412 -415 0
-358 -413 -414 0
-358 -413 -415 0
-358 -414 -415 0
-412 -413 -414 0
-412 -413 -415 0
-412 -414 -415 0
-413 -414 -415 0
287 294 343 358 412 413 414 0
287 294 343 358 412 413 415 0
287 294 343 358 412 414 415 0
287 294 343 358 413 414 415 0
287 294 343 412 413 414 415 0
287 294 358 412 413 414 415 0
287 343 358 412 413 414 415 0
294 343 358 412 413 414 415 0
-638 -645 -690 0
-638 -645 -705 0
-638 -690 -705 0
-645 -690 -705 0
-69 -76 -126 0
-69 -76 -140 0
-69 -76 -194 0
-69 -76 -195 0
-69 -76 -196 0
-69 -76 -197 0
-69 -126 -140 0
-69 -126 -194 0
-69 -126 -195 0
-69 -126 -196 0
-69 -126 -197 0
-69 -140 -194 0
-69 -140 -195 0
-69 -140 -196 0
-69 -140 -197 0
-69 -194 -195 0
-69 -194 -196 0
-69 -194 -197 0
-69 -195 -196 0
-69 -195 -197 0
-69 -196 -197 0
-76 -126 -140 0
-76 -126 -194 0
-76 -126 -195 0
-76 -126 -196 0
-76 -126 -197 0
-76 -140 -194 0
-76 -140 -195 0
-76 -140 -196 0
-76 -140 -197 0
-76 -194 -195 0
-76 -194 -196 0
-76 -194 -197 0
-76 -195 -196 0
-76 -195 -197 0
-76 -196 -197 0
-126 -140 -194 0
-126 -140 -195 0
-126 -140 -196 0
-126 -140 -197 0
-126 -194 -195 0
-126 -194 -196 0
-126 -194 -197 0
-126 -195 -196 0
-126 -195 -197 0
-126 -196 -197 0
-140 -194 -195 0
-140 -194 -196 0
-140 -194 -197 0
-140 -195 -196 0
-140 -195 -197 0
-140 -196 -197 0
-194 -195 -196 0
-194 -195 -197 0
-194 -196 -197 0
-195 -196 -197 0
69 76 126 140 194 195 196 0
69 76 126 140 194 195 197 0
69 76 126 140 194 196 197 0
69 76 126 140 195 196 197 0
69 76 126 194 195 196 197 0
69 76 140 194 195 196 197 0
69 126 140 194 195 196 197 0
76 126 140 194 195 196 197 0
-127 -134 -187 0
-127 -134 -198 0
-127 -134 -252 0
-127 -134 -253 0
-127 -134 -254 0
-127 -134 -255 0
-127 -187 -198 0
-127 -187 -252 0
-127 -187 -253 0
-127 -187 -254 0
-127 -187 -255 0
-127 -198 -252 0
-127 -198 -253 0
-127 -198 -254 0
-127 -198 -255 0
-127 -252 -253 0
-127 -252 -254 0
-127 -252 -255 0
-127 -253 -254 0
-127 -253 -255 0
-127 -254 -255 0
-134 -187 -198 0
-134 -187 -252 0
-134 -187 -253 0
-134 -187 -254 0
-134 -187 -255 0
-134 -198 -252 0
-134 -198 -253 0
-134 -198 -254 0
-134 -198 -255 0
-134 -252 -253 0
-134 -252 -254 0
-134 -252 -255 0
-134 -253 -254 0
-134 -253 -255 0
-134 -254 -255 0
-187 -198 -252 0
-187 -198 -253 0
-187 -198 -254 0
-187 -198 -255 0
-187 -252 -253 0
-187 -252 -254 0
-187 -252 -255 0
-187 -253 -254 0
-187 -253 -255 0
-187 -254 -255 0
-198 -252 -253 0
-198 -252 -254 0
-198 -252 -255 0
-198 -253 -254 0
-198 -253 -255 0
-198 -254 -255 0
-252 -253 -254 0
-252 -253 -255 0
-252 -254 -255 0
-253 -254 -255 0
127 134 187 198 252 253 254 0
127 134 187 198 252 253 255 0
127 134 187 198 252 254 255 0
127 134 187 198 253 254 255 0
127 134 187 252 253 254 255 0
127 134 198 252 253 254 255 0
127 187 198 252 253 254 255 0
134 187 198 252 253 254 255 0
-163 -170 -219 0
-163 -170 -234 0
-163 -170 -288 0
-163 -170 -289 0
-163 -170 -290 0
-163 -170 -291 0
-163 -219 -234 0
-163 -219 -288 0
-163 -219 -289 0
-163 -219 -290 0
-163 -219 -291 0
-163 -234 -288 0
-163 -234 -289 0
-163 -234 -290 0
-163 -234 -291 0
-163 -288 -289 0
-163 -288 -290 0
-163 -288 -291 0
-163 -289 -290 0
-163 -289 -291 0
-163 -290 -291 0
-170 -219 -234 0
-170 -219 -288 0
-170 -219 -289 0
-170 -219 -290 0
-170 -219 -291 0
-170 -234 -288 0
-170 -234 -289 0
-170 -234 -290 0
-170 -234 -291 0
-170 -288 -289 0
-170 -288 -290 0
-170 -288 -291 0
-170 -289 -290 0
-170 -289 -291 0
-170 -290 -291 0
-219 -234 -288 0
-219 -234 -289 0
-219 -234 -290 0
-219 -234 -291 0
-219 -288 -289 0
-219 -288 -290 0
-219 -288 -291 0
-219 -289 -290 0
-219 -289 -291 0
-219 -290 -291 0
-234 -288 -289 0
-234 -288 -290 0
-234 -288 -291 0
-234 -289 -290 0
-234 -289 -291 0
-234 -290 -291 0
-288 -289 -290 0
-288 -289 -291 0
-288 -290 -291 0
-289 -290 -291 0
163 170 219 234 288 289 290 0
163 170 219 234 288 289 291 0
163 170 219 234 288 290 291 0
163 170 219 234 289 290 291 0
163 170 219 288 289 290 291 0
163 170 234 288 289 290 291 0
163 219 234 288 289 290 291 0
170 219 234 288 289 290 291 0
-375 -382 -435 0
-375 -382 -446 0
-375 -382 -500 0
-375 -382 -501 0
-375 -382 -502 0
-375 -382 -503 0
-375 -435 -446 0
-375 -435 -500 0
-375 -435 -501 0
-375 -435 -502 0
-375 -435 -503 0
-375 -446 -500 0
-375 -446 -501 0
-375 -446 -502 0
-375 -446 -503 0
-375 -500 -501 0
-375 -500 -502 0
-375 -500 -503 0
-375 -501 -502 0
-375 -501 -503 0
-375 -502 -503 0
-382 -435 -446 0
-382 -435 -500 0
-382 -435 -501 0
-382 -435 -502 0
-382 -435 -503 0
-382 -446 -500 0
-382 -446 -501 0
-382 -446 -502 0
-382 -446 -503 0
-382 -500 -501 0
-382 -500 -502 0
-382 -500 -503 0
-382 -501 -502 0
-382 -501 -503 0
-382 -502 -503 0
-435 -446 -500 0
-435 -446 -501 0
-435 -446 -502 0
-435 -446 -503 0
-435 -500 -501 0
-435 -500 -502 0
-435 -500 -503 0
-435 -501 -502 0
-435 -501 -503 0
-435 -502 -503 0
-446 -500 -501 0
-446 -500 -502 0
-446 -500 -503 0
-446 -501 -502 0
-446 -501 -503 0
-446 -502 -503 0
-500 -501 -502 0
-500 -501 -503 0
-500 -502 -503 0
-501 -502 -503 0
375 382 435 446 500 501 502 0
375 382 435 446 500 501 503 0
375 382 435 446 500 502 503 0
375 382 435 446 501 502 503 0
375 382 435 500 501 502 503 0
375 382 446 500 501 502 503 0
375 435 446 500 501 502 503 0
382 435 446 500 501 502 503 0
-411 -418 -467 0
-411 -418 -482 0
-411 -418 -536 0
-411 -418 -537 0
-411 -418 -538 0
-411 -418 -539 0
-411 -467 -482 0
-411 -467 -536 0
-411 -467 -537 0
-411 -467 -538 0
-411 -467 -539 0
-411 -482 -536 0
-411 -482 -537 0
-411 -482 -538 0
-411 -482 -539 0
-411 -536 -537 0
-411 -536 -538 0
-411 -536 -539 0
-411 -537 -538 0
-411 -537 -539 0
-411 -538 -539 0
-418 -467 -482 0
-418 -467 -536 0
-418 -467 -537 0
-418 -467 -538 0
-418 -467 -539 0
-418 -482 -536 0
-418 -482 -537 0
-418 -482 -538 0
-418 -482 -539 0
-418 -536 -537 0
-418 -536 -538 0
-418 -536 -539 0
-418 -537 -538 0
-418 -537 -539 0
-418 -538 -539 0
-467 -482 -536 0
-467 -482 -537 0
-467 -482 -538 0
-467 -482 -539 0
-467 -536 -537 0
-467 -536 -538 0
-467 -536 -539 0
-467 -537 -538 0
-467 -537 -539 0
-467 -538 -539 0
-482 -536 -537 0
-482 -536 -538 0
-482 -536 -539 0
-482 -537 -538 0
-482 -537 -539 0
-482 -538 -539 0
-536 -537 -538 0
-536 -537 -539 0
-536 -538 -539 0
-537 -538 -539 0
411 418 467 482 536 537 538 0
411 418 467 482 536 537 539 0
411 418 467 482 536 538 539 0
411 418 467 482 537 538 539 0
411 418 467 536 537 538 539 0
411 418 482 536 537 538 539 0
411 467 482 536 537 538 539 0
418 467 482 536 537 538 539 0
-523 -530 -579 0
-523 -530 -594 0
-523 -530 -647 0
-523 -530 -648 0
-523 -530 -649 0
-523 -530 -650 0
-523 -579 -594 0
-523 -579 -647 0
-523 -579 -648 0
-523 -579 -649 0
-523 -579 -650 0
-523 -594 -647 0
-523 -594 -648 0
-523 -594 -649 0
-523 -594 -650 0
-523 -647 -648 0
-523 -647 -649 0
-523 -647 -650 0
-523 -648 -649 0
-523 -648 -650 0
-523 -649 -650 0
-530 -579 -594 0
-530 -579 -647 0
-530 -579 -648 0
-530 -579 -649 0
-530 -579 -650 0
-530 -594 -647 0
-530 -594 -648 0
-530 -594 -649 0
-530 -594 -650 0
-530 -647 -648 0
-530 -647 -649 0
-530 -647 -650 0
-530 -648 -649 0
-530 -648 -650 0
-530 -649 -650 0
-579 -594 -647 0
-579 -594 -648 0
-579 -594 -649 0
-579 -594 -650 0
-579 -647 -648 0
-579 -647 -649 0
-579 -647 -650 0
-579 -648 -649 0
-579 -648 -650 0
-579 -649 -650 0
-594 -647 -648 0
-594 -647 -649 0
-594 -647 -650 0
-594 -648 -649 0
-594 -648 -650 0
-594 -649 -650 0
-647 -648 -649 0
-647 -648 -650 0
-647 -649 -650 0
-648 -649 -650 0
523 530 579 594 647 648 649 0
523 530 579 594 647 648 650 0
523 530 579 594 647 649 650 0
523 530 579 594 648 649 650 0
523 530 579 647 648 649 650 0
523 530 594 647 648 649 650 0
523 579 594 647 648 649 650 0
530 579 594 647 648 649 650 0
-9 -24 -78 0
-9 -24 -79 0
-9 -24 -80 0
-9 -24 -81 0
-9 -78 -79 0
-9 -78 -80 0
-9 -78 -81 0
-9 -79 -80 0
-9 -79 -81 0
-9 -80 -81 0
-24 -78 -79 0
-24 -78 -80 0
-24 -78 -81 0
-24 -79 -80 0
-24 -79 -81 0
-24 -80 -81 0
-78 -79 -80 0
-78 -79 -81 0
-78 -80 -81 0
-79 -80 -81 0
9 24 78 79 80 0
9 24 78 79 81 0
9 24 78 80 81 0
9 24 79 80 81 0
9 78 79 80 81 0
24 78 79 80 81 0
-24 -25 -26 0
-24 -25 -27 0
-24 -26 -27 0
-25 -26 -27 0
24 25 26 0
24 25 27 0
24 26 27 0
25 26 27 0
-11 -18 -67 0
-11 -18 -82 0
-11 -18 -136 0
-11 -18 -137 0
-11 -18 -138 0
-11 -18 -139 0
-11 -67 -82 0
-11 -67 -136 0
-11 -67 -137 0
-11 -67 -138 0
-11 -67 -139 0
-11 -82 -136 0
-11 -82 -137 0
-11 -82 -138 0
-11 -82 -139 0
-11 -136 -137 0
-11 -136 -138 0
-11 -136 -139 0
-11 -137 -138 0
-11 -137 -139 0
-11 -138 -139 0
-18 -67 -82 0
-18 -67 -136 0
-18 -67 -137 0
-18 -67 -138 0
-18 -67 -139 0
-18 -82 -136 0
-18 -82 -137 0
-18 -82 -138 0
-18 -82 -139 0
-18 -136 -137 0
-18 -136 -138 0
-18 -136 -139 0
-18 -137 -138 0
-18 -137 -139 0
-18 -138 -139 0
-67 -82 -136 0
-67 -82 -137 0
-67 -82 -138 0
-67 -82 -139 0
-67 -136 -137 0
-67 -136 -138 0
-67 -136 -139 0
-67 -137 -138 0
-67 -137 -139 0
-67 -138 -139 0
-82 -136 -137 0
-82 -136 -138 0
-82 -136 -139 0
-82 -137 -138 0
-82 -137 -139 0
-82 -138 -139 0
-136 -137 -138 0
-136 -137 -139 0
-136 -138 -139 0
-137 -138 -139 0
11 18 67 82 136 137 138 0
11 18 67 82 136 137 139 0
11 18 67 82 136 138 139 0
11 18 67 82 137 138 139 0
11 18 67 136 137 138 139 0
11 18 82 136 137 138 139 0
11 67 82 136 137 138 139 0
18 67 82 136 137 138 139 0
-469 -476 -525 0
-469 -476 -540 0
-469 -476 -594 0
-469 -476 -595 0
-469 -476 -596 0
-469 -476 -597 0
-469 -525 -540 0
-469 -525 -594 0
-469 -525 -595 0
-469 -525 -596 0
-469 -525 -597 0
-469 -540 -594 0
-469 -540 -595 0
-469 -540 -596 0
-469 -540 -597 0
-469 -594 -595 0
-469 -594 -596 0
-469 -594 -597 0
-469 -595 -596 0
-469 -595 -597 0
-469 -596 -597 0
-476 -525 -540 0
-476 -525 -594 0
-476 -525 -595 0
-476 -525 -596 0
-476 -525 -597 0
-476 -540 -594 0
-476 -540 -595 0
-476 -540 -596 0
-476 -540 -597 0
-476 -594 -595 0
-476 -594 -596 0
-476 -594 -597 0
-476 -595 -596 0
-476 -595 -597 0
-476 -596 -597 0
-525 -540 -594 0
-525 -540 -595 0
-525 -540 -596 0
-525 -540 -597 0
-525 -594 -595 0
-525 -594 -596 0
-525 -594 -597 0
-525 -595 -596 0
-525 -595 -597 0
-525 -596 -597 0
-540 -594 -595 0
-540 -594 -596 0
-540 -594 -597 0
-540 -595 -596 0
-540 -595 -597 0
-540 -596 -597 0
-594 -595 -596 0
-594 -595 -597 0
-594 -596 -597 0
-595 -596 -597 0
469 476 525 540 594 595 596 0
469 476 525 540 594 595 597 0
469 476 525 540 594 596 597 0
469 476 525 540 595 596 597 0
469 476 525 594 595 596 597 0
469 476 540 594 595 596 597 0
469 525 540 594 595 596 597 0
476 525 540 594 595 596 597 0
-581 -588 -636 0
-581 -588 -651 0
-581 -588 -701 0
-581 -588 -702 0
-581 -588 -703 0
-581 -588 -704 0
-581 -636 -651 0
-581 -636 -701 0
-581 -636 -702 0
-581 -636 -703 0
-581 -636 -704 0
-581 -651 -701 0
-581 -651 -702 0
-581 -651 -703 0
-581 -651 -704 0
-581 -701 -702 0
-581 -701 -703 0
-581 -701 -704 0
-581 -702 -703 0
-581 -702 -704 0
-581 -703 -704 0
-588 -636 -651 0
-588 -636 -701 0
-588 -636 -702 0
-588 -636 -703 0
-588 -636 -704 0
-588 -651 -701 0
-588 -651 -702 0
-588 -651 -703 0
-588 -651 -704 0
-588 -701 -702 0
-588 -701 -703 0
-588 -701 -704 0
-588 -702 -703 0
-588 -702 -704 0
-588 -703 -704 0
-636 -651 -701 0
-636 -651 -702 0
-636 -651 -703 0
-636 -651 -704 0
-636 -701 -702 0
-636 -701 -703 0
-636 -701 -704 0
-636 -702 -703 0
-636 -702 -704 0
-636 -703 -704 0
-651 -701 -702 0
-651 -701 -703 0
-651 -701 -704 0
-651 -702 -703 0
-651 -702 -704 0
-651 -703 -704 0
-701 -702 -703 0
-701 -702 -704 0
-701 -703 -704 0
-702 -703 -704 0
581 588 636 651 701 702 703 0
581 588 636 651 701 702 704 0
581 588 636 651 701 703 704 0
581 588 636 651 702 703 704 0
581 588 636 701 702 703 704 0
581 588 651 701 702 703 704 0
581 636 651 701 702 703 704 0
588 636 651 701 702 703 704 0
-47 -54 -103 0
-47 -54 -118 0
-47 -54 -172 0
-47 -54 -173 0
-47 -54 -174 0
-47 -54 -175 0
-47 -103 -118 0
-47 -103 -172 0
-47 -103 -173 0
-47 -103 -174 0
-47 -103 -175 0
-47 -118 -172 0
-47 -118 -173 0
-47 -118 -174 0
-47 -118 -175 0
-47 -172 -173 0
-47 -172 -174 0
-47 -172 -175 0
-47 -173 -174 0
-47 -173 -175 0
-47 -174 -175 0
-54 -103 -118 0
-54 -103 -172 0
-54 -103 -173 0
-54 -103 -174 0
-54 -103 -175 0
-54 -118 -172 0
-54 -118 -173 0
-54 -118 -174 0
-54 -118 -175 0
-54 -172 -173 0
-54 -172 -174 0
-54 -172 -175 0
-54 -173 -174 0
-54 -173 -175 0
-54 -174 -175 0
-103 -118 -172 0
-103 -118 -173 0
-103 -118 -174 0
-103 -118 -175 0
-103 -172 -173 0
-103 -172 -174 0
-103 -172 -175 0
-103 -173 -174 0
-103 -173 -175 0
-103 -174 -175 0
-118 -172 -173 0
-118 -172 -174 0
-118 -172 -175 0
-118 -173 -174 0
-118 -173 -175 0
-118 -174 -175 0
-172 -173 -174 0
-172 -173 -175 0
-172 -174 -175 0
-173 -174 -175 0
47 54 103 118 172 173 174 0
47 54 103 118 172 173 175 0
47 54 103 118 172 174 175 0
47 54 103 118 173 174 175 0
47 54 103 172 173 174 175 0
47 54 118 172 173 174 175 0
47 103 118 172 173 174 175 0
54 103 118 172 173 174 175 0
-259 -266 -315 0
-259 -266 -330 0
-259 -266 -384 0
-259 -266 -385 0
-259 -266 -386 0
-259 -266 -387 0
-259 -315 -330 0
-259 -315 -384 0
-259 -315 -385 0
-259 -315 -386 0
-259 -315 -387 0
-259 -330 -384 0
-259 -330 -385 0
-259 -330 -386 0
-259 -330 -387 0
-259 -384 -385 0
-259 -384 -386 0
-259 -384 -387 0
-259 -385 -386 0
-259 -385 -387 0
-259 -386 -387 0
-266 -315 -330 0
-266 -315 -384 0
-266 -315 -385 0
-266 -315 -386 0
-266 -315 -387 0
-266 -330 -384 0
-266 -330 -385 0
-266 -330 -386 0
-266 -330 -387 0
-266 -384 -385 0
-266 -384 -386 0
-266 -384 -387 0
-266 -385 -386 0
-266 -385 -387 0
-266 -386 -387 0
-315 -330 -384 0
-315 -330 -385 0
-315 -330 -386 0
-315 -330 -387 0
-315 -384 -385 0
-315 -384 -386 0
-315 -384 -387 0
-315 -385 -386 0
-315 -385 -387 0
-315 -386 -387 0
-330 -384 -385 0
-330 -384 -386 0
-330 -384 -387 0
-330 -385 -386 0
-330 -385 -387 0
-330 -386 -387 0
-384 -385 -386 0
-384 -385 -387 0
-384 -386 -387 0
-385 -386 -387 0
259 266 315 330 384 385 386 0
259 266 315 330 384 385 387 0
259 266 315 330 384 386 387 0
259 266 315 330 385 386 387 0
259 266 315 384 385 386 387 0
259 266 330 384 385 386 387 0
259 315 330 384 385 386 387 0
266 315 330 384 385 386 387 0
-295 -302 -351 0
-295 -302 -366 0
-295 -302 -420 0
-295 -302 -421 0
-295 -302 -422 0
-295 -302 -423 0
-295 -351 -366 0
-295 -351 -420 0
-295 -351 -421 0
-295 -351 -422 0
-295 -351 -423 0
-295 -366 -420 0
-295 -366 -421 0
-295 -366 -422 0
-295 -366 -423 0
-295 -420 -421 0
-295 -420 -422 0
-295 -420 -423 0
-295 -421 -422 0
-295 -421 -423 0
-295 -422 -423 0
-302 -351 -366 0
-302 -351 -420 0
-302 -351 -421 0
-302 -351 -422 0
-302 -351 -423 0
-302 -366 -420 0
-302 -366 -421 0
-302 -366 -422 0
-302 -366 -423 0
-302 -420 -421 0
-302 -420 -422 0
-302 -420 -423 0
-302 -421 -422 0
-302 -421 -423 0
-302 -422 -423 0
-351 -366 -420 0
-351 -366 -421 0
-351 -366 -422 0
-351 -366 -423 0
-351 -420 -421 0
-351 -420 -422 0
-351 -420 -423 0
-351 -421 -422 0
-351 -421 -423 0
-351 -422 -423 0
-366 -420 -421 0
-366 -420 -422 0
-366 -420 -423 0
-366 -421 -422 0
-366 -421 -423 0
-366 -422 -423 0
-420 -421 -422 0
-420 -421 -423 0
-420 -422 -423 0
-421 -422 -423 0
295 302 351 366 420 421 422 0
295 302 351 366 420 421 423 0
295 302 351 366 420 422 423 0
295 302 351 366 421 422 423 0
295 302 351 420 421 422 423 0
295 302 366 420 421 422 423 0
295 351 366 420 421 422 423 0
302 351 366 420 421 422 423 0
-353 -360 -409 0
-353 -360 -424 0
-353 -360 -478 0
-353 -360 -479 0
-353 -360 -480 0
-353 -360 -481 0
-353 -409 -424 0
-353 -409 -478 0
-353 -409 -479 0
-353 -409 -480 0
-353 -409 -481 0
-353 -424 -478 0
-353 -424 -479 0
-353 -424 -480 0
-353 -424 -481 0
-353 -478 -479 0
-353 -478 -480 0
-353 -478 -481 0
-353 -479 -480 0
-353 -479 -481 0
-353 -480 -481 0
-360 -409 -424 0
-360 -409 -478 0
-360 -409 -479 0
-360 -409 -480 0
-360 -409 -481 0
-360 -424 -478 0
-360 -424 -479 0
-360 -424 -480 0
-360 -424 -481 0
-360 -478 -479 0
-360 -478 -480 0
-360 -478 -481 0
-360 -479 -480 0
-360 -479 -481 0
-360 -480 -481 0
-409 -424 -478 0
-409 -424 -479 0
-409 -424 -480 0
-409 -424 -481 0
-409 -478 -479 0
-409 -478 -480 0
-409 -478 -481 0
-409 -479 -480 0
-409 -479 -481 0
-409 -480 -481 0
-424 -478 -479 0
-424 -478 -480 0
-424 -478 -481 0
-424 -479 -480 0
-424 -479 -481 0
-424 -480 -481 0
-478 -479 -480 0
-478 -479 -481 0
-478 -480 -481 0
-479 -480 -481 0
353 360 409 424 478 479 480 0
353 360 409 424 478 479 481 0
353 360 409 424 478 480 481 0
353 360 409 424 479 480 481 0
353 360 409 478 479 480 481 0
353 360 424 478 479 480 481 0
353 409 424 478 479 480 481 0
360 409 424 478 479 480 481 0
-646 -653 -698 0
-646 -653 -713 0
-646 -698 -713 0
-653 -698 -713 0
-135 -142 -191 0
-135 -142 -206 0
-135 -142 -260 0
-135 -142 -261 0
-135 -142 -262 0
-135 -142 -263 0
-135 -191 -206 0
-135 -191 -260 0
-135 -191 -261 0
-135 -191 -262 0
-135 -191 -263 0
-135 -206 -260 0
-135 -206 -261 0
-135 -206 -262 0
-135 -206 -263 0
-135 -260 -261 0
-135 -260 -262 0
-135 -260 -263 0
-135 -261 -262 0
-135 -261 -263 0
-135 -262 -263 0
-142 -191 -206 0
-142 -191 -260 0
-142 -191 -261 0
-142 -191 -262 0
-142 -191 -263 0
-142 -206 -260 0
-142 -206 -261 0
-142 -206 -262 0
-142 -206 -263 0
-142 -260 -261 0
-142 -260 -262 0
-142 -260 -263 0
-142 -261 -262 0
-142 -261 -263 0
-142 -262 -263 0
-191 -206 -260 0
-191 -206 -261 0
-191 -206 -262 0
-191 -206 -263 0
-191 -260 -261 0
-191 -260 -262 0
-191 -260 -263 0
-191 -261 -262 0
-191 -261 -263 0
-191 -262 -263 0
-206 -260 -261 0
-206 -260 -262 0
-206 -260 -263 0
-206 -261 -262 0
-206 -261 -263 0
-206 -262 -263 0
-260 -261 -262 0
-260 -261 -263 0
-260 -262 -263 0
-261 -262 -263 0
135 142 191 206 260 261 262 0
135 142 191 206 260 261 263 0
135 142 191 206 260 262 263 0
135 142 191 206 261 262 263 0
135 142 191 260 261 262 263 0
135 142 206 260 261 262 263 0
135 191 206 260 261 262 263 0
142 191 206 260 261 262 263 0
-171 -178 -227 0
-171 -178 -242 0
-171 -178 -296 0
-171 -178 -297 0
-171 -178 -298 0
-171 -178 -299 0
-171 -227 -242 0
-171 -227 -296 0
-171 -227 -297 0
-171 -227 -298 0
-171 -227 -299 0
-171 -242 -296 0
-171 -242 -297 0
-171 -242 -298 0
-171 -242 -299 0
-171 -296 -297 0
-171 -296 -298 0
-171 -296 -299 0
-171 -297 -298 0
-171 -297 -299 0
-171 -298 -299 0
-178 -227 -242 0
-178 -227 -296 0
-178 -227 -297 0
-178 -227 -298 0
-178 -227 -299 0
-178 -242 -296 0
-178 -242 -297 0
-178 -242 -298 0
-178 -242 -299 0
-178 -296 -297 0
-178 -296 -298 0
-178 -296 -299 0
-178 -297 -298 0
-178 -297 -299 0
-178 -298 -299 0
-227 -242 -296 0
-227 -242 -297 0
-227 -242 -298 0
-227 -242 -299 0
-227 -296 -297 0
-227 -296 -298 0
-227 -296 -299 0
-227 -297 -298 0
-227 -297 -299 0
-227 -298 -299 0
-242 -296 -297 0
-242 -296 -298 0
-242 -296 -299 0
-242 -297 -298 0
-242 -297 -299 0
-242 -298 -299 0
-296 -297 -298 0
-296 -297 -299 0
-296 -298 -299 0
-297 -298 -299 0
171 178 227 242 296 297 298 0
171 178 227 242 296 297 299 0
171 178 227 242 296 298 299 0
171 178 227 242 297 298 299 0
171 178 227 296 297 298 299 0
171 178 242 296 297 298 299 0
171 227 242 296 297 298 299 0
178 227 242 296 297 298 299 0
-383 -390 -439 0
-383 -390 -454 0
-383 -390 -508 0
-383 -390 -509 0
-383 -390 -510 0
-383 -390 -511 0
-383 -439 -454 0
-383 -439 -508 0
-383 -439 -509 0
-383 -439 -510 0
-383 -439 -511 0
-383 -454 -508 0
-383 -454 -509 0
-383 -454 -510 0
-383 -454 -511 0
-383 -508 -509 0
-383 -508 -510 0
-383 -508 -511 0
-383 -509 -510 0
-383 -509 -511 0
-383 -510 -511 0
-390 -439 -454 0
-390 -439 -508 0
-390 -439 -509 0
-390 -439 -510 0
-390 -439 -511 0
-390 -454 -508 0
-390 -454 -509 0
-390 -454 -510 0
-390 -454 -511 0
-390 -508 -509 0
-390 -508 -510 0
-390 -508 -511 0
-390 -509 -510 0
-390 -509 -511 0
-390 -510 -511 0
-439 -454 -508 0
-439 -454 -509 0
-439 -454 -510 0
-439 -454 -511 0
-439 -508 -509 0
-439 -508 -510 0
-439 -508 -511 0
-439 -509 -510 0
-439 -509 -511 0
-439 -510 -511 0
-454 -508 -509 0
-454 -508 -510 0
-454 -508 -511 0
-454 -509 -510 0
-454 -509 -511 0
-454 -510 -511 0
-508 -509 -510 0
-508 -509 -511 0
-508 -510 -511 0
-509 -510 -511 0
383 390 439 454 508 509 510 0
383 390 439 454 508 509 511 0
383 390 439 454 508 510 511 0
383 390 439 454 509 510 511 0
383 390 439 508 509 510 511 0
383 390 454 508 509 510 511 0
383 439 454 508 509 510 511 0
390 439 454 508 509 510 511 0
-502 -566 -622 0
-441 -448 -498 0
-441 -448 -512 0
-441 -448 -566 0
-441 -448 -567 0
-441 -448 -568 0
-441 -448 -569 0
-441 -498 -512 0
-441 -498 -566 0
-441 -498 -567 0
-441 -498 -568 0
-441 -498 -569 0
-441 -512 -566 0
-441 -512 -567 0
-441 -512 -568 0
-441 -512 -569 0
-441 -566 -567 0
-441 -566 -568 0
-441 -566 -569 0
-441 -567 -568 0
-441 -567 -569 0
-441 -568 -569 0
-448 -498 -512 0
-448 -498 -566 0
-448 -498 -567 0
-448 -498 -568 0
-448 -498 -569 0
-448 -512 -566 0
-448 -512 -567 0
-448 -512 -568 0
-448 -512 -569 0
-448 -566 -567 0
-448 -566 -568 0
-448 -566 -569 0
-448 -567 -568 0
-448 -567 -569 0
-448 -568 -569 0
-498 -512 -566 0
-498 -512 -567 0
-498 -512 -568 0
-498 -512 -569 0
-498 -566 -567 0
-498 -566 -568 0
-498 -566 -569 0
-498 -567 -568 0
-498 -567 -569 0
-498 -568 -569 0
-512 -566 -567 0
-512 -566 -568 0
-512 -566 -569 0
-512 -567 -568 0
-512 -567 -569 0
-512 -568 -569 0
-566 -567 -568 0
-566 -567 -569 0
-566 -568 -569 0
-567 -568 -569 0
441 448 498 512 566 567 568 0
441 448 498 512 566 567 569 0
441 448 498 512 566 568 569 0
441 448 498 512 567 568 569 0
441 448 498 566 567 568 569 0
441 448 512 566 567 568 569 0
441 498 512 566 567 568 569 0
448 498 512 566 567 568 569 0
-237 -244 -293 0
-237 -244 -308 0
-237 -244 -362 0
-237 -244 -363 0
-237 -244 -364 0
-237 -244 -365 0
-237 -293 -308 0
-237 -293 -362 0
-237 -293 -363 0
-237 -293 -364 0
-237 -293 -365 0
-237 -308 -362 0
-237 -308 -363 0
-237 -308 -364 0
-237 -308 -365 0
-237 -362 -363 0
-237 -362 -364 0
-237 -362 -365 0
-237 -363 -364 0
-237 -363 -365 0
-237 -364 -365 0
-244 -293 -308 0
-244 -293 -362 0
-244 -293 -363 0
-244 -293 -364 0
-244 -293 -365 0
-244 -308 -362 0
-244 -308 -363 0
-244 -308 -364 0
-244 -308 -365 0
-244 -362 -363 0
-244 -362 -364 0
-244 -362 -365 0
-244 -363 -364 0
-244 -363 -365 0
-244 -364 -365 0
-293 -308 -362 0
-293 -308 -363 0
-293 -308 -364 0
-293 -308 -365 0
-293 -362 -363 0
-293 -362 -364 0
-293 -362 -365 0
-293 -363 -364 0
-293 -363 -365 0
-293 -364 -365 0
-308 -362 -363 0
-308 -362 -364 0
-308 -362 -365 0
-308 -363 -364 0
-308 -363 -365 0
-308 -364 -365 0
-362 -363 -364 0
-362 -363 -365 0
-362 -364 -365 0
-363 -364 -365 0
237 244 293 308 362 363 364 0
237 244 293 308 362 363 365 0
237 244 293 308 362 364 365 0
237 244 293 308 363 364 365 0
237 244 293 362 363 364 365 0
237 244 308 362 363 364 365 0
237 293 308 362 363 364 365 0
244 293 308 362 363 364 365 0
-419 -426 -475 0
-419 -426 -490 0
-419 -426 -544 0
-419 -426 -545 0
-419 -426 -546 0
-419 -426 -547 0
-419 -475 -490 0
-419 -475 -544 0
-419 -475 -545 0
-419 -475 -546 0
-419 -475 -547 0
-419 -490 -544 0
-419 -490 -545 0
-419 -490 -546 0
-419 -490 -547 0
-419 -544 -545 0
-419 -544 -546 0
-419 -544 -547 0
-419 -545 -546 0
-419 -545 -547 0
-419 -546 -547 0
-426 -475 -490 0
-426 -475 -544 0
-426 -475 -545 0
-426 -475 -546 0
-426 -475 -547 0
-426 -490 -544 0
-426 -490 -545 0
-426 -490 -546 0
-426 -490 -547 0
-426 -544 -545 0
-426 -544 -546 0
-426 -544 -547 0
-426 -545 -546 0
-426 -545 -547 0
-426 -546 -547 0
-475 -490 -544 0
-475 -490 -545 0
-475 -490 -546 0
-475 -490 -547 0
-475 -544 -545 0
-475 -544 -546 0
-475 -544 -547 0
-475 -545 -546 0
-475 -545 -547 0
-475 -546 -547 0
-490 -544 -545 0
-490 -544 -546 0
-490 -544 -547 0
-490 -545 -546 0
-490 -545 -547 0
-490 -546 -547 0
-544 -545 -546 0
-544 -545 -547 0
-544 -546 -547 0
-545 -546 -547 0
419 426 475 490 544 545 546 0
419 426 475 490 544 545 547 0
419 426 475 490 544 546 547 0
419 426 475 490 545 546 547 0
419 426 475 544 545 546 547 0
419 426 490 544 545 546 547 0
419 475 490 544 545 546 547 0
426 475 490 544 545 546 547 0
-531 -538 -587 0
-531 -538 -602 0
-531 -538 -655 0
-531 -538 -656 0
-531 -538 -657 0
-531 -538 -658 0
-531 -587 -602 0
-531 -587 -655 0
-531 -587 -656 0
-531 -587 -657 0
-531 -587 -658 0
-531 -602 -655 0
-531 -602 -656 0
-531 -602 -657 0
-531 -602 -658 0
-531 -655 -656 0
-531 -655 -657 0
-531 -655 -658 0
-531 -656 -657 0
-531 -656 -658 0
-531 -657 -658 0
-538 -587 -602 0
-538 -587 -655 0
-538 -587 -656 0
-538 -587 -657 0
-538 -587 -658 0
-538 -602 -655 0
-538 -602 -656 0
-538 -602 -657 0
-538 -602 -658 0
-538 -655 -656 0
-538 -655 -657 0
-538 -655 -658 0
-538 -656 -657 0
-538 -656 -658 0
-538 -657 -658 0
-587 -602 -655 0
-587 -602 -656 0
-587 -602 -657 0
-587 -602 -658 0
-587 -655 -656 0
-587 -655 -657 0
-587 -655 -658 0
-587 -656 -657 0
-587 -656 -658 0
-587 -657 -658 0
-602 -655 -656 0
-602 -655 -657 0
-602 -655 -658 0
-602 -656 -657 0
-602 -656 -658 0
-602 -657 -658 0
-655 -656 -657 0
-655 -656 -658 0
-655 -657 -658 0
-656 -657 -658 0
531 538 587 602 655 656 657 0
531 538 587 602 655 656 658 0
531 538 587 602 655 657 658 0
531 538 587 602 656 657 658 0
531 538 587 655 656 657 658 0
531 538 602 655 656 657 658 0
531 587 602 655 656 657 658 0
538 587 602 655 656 657 658 0
-477 -484 -533 0
-477 -484 -548 0
-477 -484 -602 0
-477 -484 -603 0
-477 -484 -604 0
-477 -484 -605 0
-477 -533 -548 0
-477 -533 -602 0
-477 -533 -603 0
-477 -533 -604 0
-477 -533 -605 0
-477 -548 -602 0
-477 -548 -603 0
-477 -548 -604 0
-477 -548 -605 0
-477 -602 -603 0
-477 -602 -604 0
-477 -602 -605 0
-477 -603 -604 0
-477 -603 -605 0
-477 -604 -605 0
-484 -533 -548 0
-484 -533 -602 0
-484 -533 -603 0
-484 -533 -604 0
-484 -533 -605 0
-484 -548 -602 0
-484 -548 -603 0
-484 -548 -604 0
-484 -548 -605 0
-484 -602 -603 0
-484 -602 -604 0
-484 -602 -605 0
-484 -603 -604 0
-484 -603 -605 0
-484 -604 -605 0
-533 -548 -602 0
-533 -548 -603 0
-533 -548 -604 0
-533 -548 -605 0
-533 -602 -603 0
-533 -602 -604 0
-533 -602 -605 0
-533 -603 -604 0
-533 -603 -605 0
-533 -604 -605 0
-548 -602 -603 0
-548 -602 -604 0
-548 -602 -605 0
-548 -603 -604 0
-548 -603 -605 0
-548 -604 -605 0
-602 -603 -604 0
-602 -603 -605 0
-602 -604 -605 0
-603 -604 -605 0
477 484 533 548 602 603 604 0
477 484 533 548 602 603 605 0
477 484 533 548 602 604 605 0
477 484 533 548 603 604 605 0
477 484 533 602 603 604 605 0
477 484 548 602 603 604 605 0
477 533 548 602 603 604 605 0
484 533 548 602 603 604 605 0
-32 -33 -34 0
-32 -33 -35 0
-32 -34 -35 0
-33 -34 -35 0
32 33 34 0
32 33 35 0
32 34 35 0
33 34 35 0
-19 -26 -75 0
-19 -26 -90 0
-19 -26 -144 0
-19 -26 -145 0
-19 -26 -146 0
-19 -26 -147 0
-19 -75 -90 0
-19 -75 -144 0
-19 -75 -145 0
-19 -75 -146 0
-19 -75 -147 0
-19 -90 -144 0
-19 -90 -145 0
-19 -90 -146 0
-19 -90 -147 0
-19 -144 -145 0
-19 -144 -146 0
-19 -144 -147 0
-19 -145 -146 0
-19 -145 -147 0
-19 -146 -147 0
-26 -75 -90 0
-26 -75 -144 0
-26 -75 -145 0
-26 -75 -146 0
-26 -75 -147 0
-26 -90 -144 0
-26 -90 -145 0
-26 -90 -146 0
-26 -90 -147 0
-26 -144 -145 0
-26 -144 -146 0
-26 -144 -147 0
-26 -145 -146 0
-26 -145 -147 0
-26 -146 -147 0
-75 -90 -144 0
-75 -90 -145 0
-75 -90 -146 0
-75 -90 -147 0
-75 -144 -145 0
-75 -144 -146 0
-75 -144 -147 0
-75 -145 -146 0
-75 -145 -147 0
-75 -146 -147 0
-90 -144 -145 0
-90 -144 -146 0
-90 -144 -147 0
-90 -145 -146 0
-90 -145 -147 0
-90 -146 -147 0
-144 -145 -146 0
-144 -145 -147 0
-144 -146 -147 0
-145 -146 -147 0
19 26 75 90 144 145 146 0
19 26 75 90 144 145 147 0
19 26 75 90 144 146 147 0
19 26 75 90 145 146 147 0
19 26 75 144 145 146 147 0
19 26 90 144 145 146 147 0
19 75 90 144 145 146 147 0
26 75 90 144 145 146 147 0
-589 -596 -644 0
-589 -596 -659 0
-589 -596 -709 0
-589 -596 -710 0
-589 -596 -711 0
-589 -596 -712 0
-589 -644 -659 0
-589 -644 -709 0
-589 -644 -710 0
-589 -644 -711 0
-589 -644 -712 0
-589 -659 -709 0
-589 -659 -710 0
-589 -659 -711 0
-589 -659 -712 0
-589 -709 -710 0
-589 -709 -711 0
-589 -709 -712 0
-589 -710 -711 0
-589 -710 -712 0
-589 -711 -712 0
-596 -644 -659 0
-596 -644 -709 0
-596 -644 -710 0
-596 -644 -711 0
-596 -644 -712 0
-596 -659 -709 0
-596 -659 -710 0
-596 -659 -711 0
-596 -659 -712 0
-596 -709 -710 0
-596 -709 -711 0
-596 -709 -712 0
-596 -710 -711 0
-596 -710 -712 0
-596 -711 -712 0
-644 -659 -709 0
-644 -659 -710 0
-644 -659 -711 0
-644 -659 -712 0
-644 -709 -710 0
-644 -709 -711 0
-644 -709 -712 0
-644 -710 -711 0
-644 -710 -712 0
-644 -711 -712 0
-659 -709 -710 0
-659 -709 -711 0
-659 -709 -712 0
-659 -710 -711 0
-659 -710 -712 0
-659 -711 -712 0
-709 -710 -711 0
-709 -710 -712 0
-709 -711 -712 0
-710 -711 -712 0
589 596 644 659 709 710 711 0
589 596 644 659 709 710 712 0
589 596 644 659 709 711 712 0
589 596 644 659 710 711 712 0
589 596 644 709 710 711 712 0
589 596 659 709 710 711 712 0
589 644 659 709 710 711 712 0
596 644 659 709 710 711 712 0
-55 -61 -111 0
-55 -61 -124 0
-55 -61 -180 0
-55 -61 -181 0
-55 -61 -182 0
-55 -61 -183 0
-55 -111 -124 0
-55 -111 -180 0
-55 -111 -181 0
-55 -111 -182 0
-55 -111 -183 0
-55 -124 -180 0
-55 -124 -181 0
-55 -124 -182 0
-55 -124 -183 0
-55 -180 -181 0
-55 -180 -182 0
-55 -180 -183 0
-55 -181 -182 0
-55 -181 -183 0
-55 -182 -183 0
-61 -111 -124 0
-61 -111 -180 0
-61 -111 -181 0
-61 -111 -182 0
-61 -111 -183 0
-61 -124 -180 0
-61 -124 -181 0
-61 -124 -182 0
-61 -124 -183 0
-61 -180 -181 0
-61 -180 -182 0
-61 -180 -183 0
-61 -181 -182 0
-61 -181 -183 0
-61 -182 -183 0
-111 -124 -180 0
-111 -124 -181 0
-111 -124 -182 0
-111 -124 -183 0
-111 -180 -181 0
-111 -180 -182 0
-111 -180 -183 0
-111 -181 -182 0
-111 -181 -183 0
-111 -182 -183 0
-124 -180 -181 0
-124 -180 -182 0
-124 -180 -183 0
-124 -181 -182 0
-124 -181 -183 0
-124 -182 -183 0
-180 -181 -182 0
-180 -181 -183 0
-180 -182 -183 0
-181 -182 -183 0
55 61 111 124 180 181 182 0
55 61 111 124 180 181 183 0
55 61 111 124 180 182 183 0
55 61 111 124 181 182 183 0
55 61 111 180 181 182 183 0
55 61 124 180 181 182 183 0
55 111 124 180 181 182 183 0
61 111 124 180 181 182 183 0
-267 -274 -323 0
-267 -274 -338 0
-267 -274 -392 0
-267 -274 -393 0
-267 -274 -394 0
-267 -274 -395 0
-267 -323 -338 0
-267 -323 -392 0
-267 -323 -393 0
-267 -323 -394 0
-267 -323 -395 0
-267 -338 -392 0
-267 -338 -393 0
-267 -338 -394 0
-267 -338 -395 0
-267 -392 -393 0
-267 -392 -394 0
-267 -392 -395 0
-267 -393 -394 0
-267 -393 -395 0
-267 -394 -395 0
-274 -323 -338 0
-274 -323 -392 0
-274 -323 -393 0
-274 -323 -394 0
-274 -323 -395 0
-274 -338 -392 0
-274 -338 -393 0
-274 -338 -394 0
-274 -338 -395 0
-274 -392 -393 0
-274 -392 -394 0
-274 -392 -395 0
-274 -393 -394 0
-274 -393 -395 0
-274 -394 -395 0
-323 -338 -392 0
-323 -338 -393 0
-323 -338 -394 0
-323 -338 -395 0
-323 -392 -393 0
-323 -392 -394 0
-323 -392 -395 0
-323 -393 -394 0
-323 -393 -395 0
-323 -394 -395 0
-338 -392 -393 0
-338 -392 -394 0
-338 -392 -395 0
-338 -393 -394 0
-338 -393 -395 0
-338 -394 -395 0
-392 -393 -394 0
-392 -393 -395 0
-392 -394 -395 0
-393 -394 -395 0
267 274 323 338 392 393 394 0
267 274 323 338 392 393 395 0
267 274 323 338 392 394 395 0
267 274 323 338 393 394 395 0
267 274 323 392 393 394 395 0
267 274 338 392 393 394 395 0
267 323 338 392 393 394 395 0
274 323 338 392 393 394 395 0
-325 -332 -381 0
-325 -332 -396 0
-325 -332 -450 0
-325 -332 -451 0
-325 -332 -452 0
-325 -332 -453 0
-325 -381 -396 0
-325 -381 -450 0
-325 -381 -451 0
-325 -381 -452 0
-325 -381 -453 0
-325 -396 -450 0
-325 -396 -451 0
-325 -396 -452 0
-325 -396 -453 0
-325 -450 -451 0
-325 -450 -452 0
-325 -450 -453 0
-325 -451 -452 0
-325 -451 -453 0
-325 -452 -453 0
-332 -381 -396 0
-332 -381 -450 0
-332 -381 -451 0
-332 -381 -452 0
-332 -381 -453 0
-332 -396 -450 0
-332 -396 -451 0
-332 -396 -452 0
-332 -396 -453 0
-332 -450 -451 0
-332 -450 -452 0
-332 -450 -453 0
-332 -451 -452 0
-332 -451 -453 0
-332 -452 -453 0
-381 -396 -450 0
-381 -396 -451 0
-381 -396 -452 0
-381 -396 -453 0
-381 -450 -451 0
-381 -450 -452 0
-381 -450 -453 0
-381 -451 -452 0
-381 -451 -453 0
-381 -452 -453 0
-396 -450 -451 0
-396 -450 -452 0
-396 -450 -453 0
-396 -451 -452 0
-396 -451 -453 0
-396 -452 -453 0
-450 -451 -452 0
-450 -451 -453 0
-450 -452 -453 0
-451 -452 -453 0
325 332 381 396 450 451 452 0
325 332 381 396 450 451 453 0
325 332 381 396 450 452 453 0
325 332 381 396 451 452 453 0
325 332 381 450 451 452 453 0
325 332 396 450 451 452 453 0
325 381 396 450 451 452 453 0
332 381 396 450 451 452 453 0
-303 -309 -359 0
-303 -309 -372 0
-303 -309 -428 0
-303 -309 -429 0
-303 -309 -430 0
-303 -309 -431 0
-303 -359 -372 0
-303 -359 -428 0
-303 -359 -429 0
-303 -359 -430 0
-303 -359 -431 0
-303 -372 -428 0
-303 -372 -429 0
-303 -372 -430 0
-303 -372 -431 0
-303 -428 -429 0
-303 -428 -430 0
-303 -428 -431 0
-303 -429 -430 0
-303 -429 -431 0
-303 -430 -431 0
-309 -359 -372 0
-309 -359 -428 0
-309 -359 -429 0
-309 -359 -430 0
-309 -359 -431 0
-309 -372 -428 0
-309 -372 -429 0
-309 -372 -430 0
-309 -372 -431 0
-309 -428 -429 0
-309 -428 -430 0
-309 -428 -431 0
-309 -429 -430 0
-309 -429 -431 0
-309 -430 -431 0
-359 -372 -428 0
-359 -372 -429 0
-359 -372 -430 0
-359 -372 -431 0
-359 -428 -429 0
-359 -428 -430 0
-359 -428 -431 0
-359 -429 -430 0
-359 -429 -431 0
-359 -430 -431 0
-372 -428 -429 0
-372 -428 -430 0
-372 -428 -431 0
-372 -429 -430 0
-372 -429 -431 0
-372 -430 -431 0
-428 -429 -430 0
-428 -429 -431 0
-428 -430 -431 0
-429 -430 -431 0
303 309 359 372 428 429 430 0
303 309 359 372 428 429 431 0
303 309 359 372 428 430 431 0
303 309 359 372 429 430 431 0
303 309 359 428 429 430 431 0
303 309 372 428 429 430 431 0
303 359 372 428 429 430 431 0
309 359 372 428 429 430 431 0
-361 -368 -417 0
-361 -368 -432 0
-361 -368 -486 0
-361 -368 -487 0
-361 -368 -488 0
-361 -368 -489 0
-361 -417 -432 0
-361 -417 -486 0
-361 -417 -487 0
-361 -417 -488 0
-361 -417 -489 0
-361 -432 -486 0
-361 -432 -487 0
-361 -432 -488 0
-361 -432 -489 0
-361 -486 -487 0
-361 -486 -488 0
-361 -486 -489 0
-361 -487 -488 0
-361 -487 -489 0
-361 -488 -489 0
-368 -417 -432 0
-368 -417 -486 0
-368 -417 -487 0
-368 -417 -488 0
-368 -417 -489 0
-368 -432 -486 0
-368 -432 -487 0
-368 -432 -488 0
-368 -432 -489 0
-368 -486 -487 0
-368 -486 -488 0
-368 -486 -489 0
-368 -487 -488 0
-368 -487 -489 0
-368 -488 -489 0
-417 -432 -486 0
-417 -432 -487 0
-417 -432 -488 0
-417 -432 -489 0
-417 -486 -487 0
-417 -486 -488 0
-417 -486 -489 0
-417 -487 -488 0
-417 -487 -489 0
-417 -488 -489 0
-432 -486 -487 0
-432 -486 -488 0
-432 -486 -489 0
-432 -487 -488 0
-432 -487 -489 0
-432 -488 -489 0
-486 -487 -488 0
-486 -487 -489 0
-486 -488 -489 0
-487 -488 -489 0
361 368 417 432 486 487 488 0
361 368 417 432 486 487 489 0
361 368 417 432 486 488 489 0
361 368 417 432 487 488 489 0
361 368 417 486 487 488 489 0
361 368 432 486 487 488 489 0
361 417 432 486 487 488 489 0
368 417 432 486 487 488 489 0
-654 -661 -706 0
-654 -661 -721 0
-654 -706 -721 0
-661 -706 -721 0
-143 -150 -199 0
-143 -150 -214 0
-143 -150 -268 0
-143 -150 -269 0
-143 -150 -270 0
-143 -150 -271 0
-143 -199 -214 0
-143 -199 -268 0
-143 -199 -269 0
-143 -199 -270 0
-143 -199 -271 0
-143 -214 -268 0
-143 -214 -269 0
-143 -214 -270 0
-143 -214 -271 0
-143 -268 -269 0
-143 -268 -270 0
-143 -268 -271 0
-143 -269 -270 0
-143 -269 -271 0
-143 -270 -271 0
-150 -199 -214 0
-150 -199 -268 0
-150 -199 -269 0
-150 -199 -270 0
-150 -199 -271 0
-150 -214 -268 0
-150 -214 -269 0
-150 -214 -270 0
-150 -214 -271 0
-150 -268 -269 0
-150 -268 -270 0
-150 -268 -271 0
-150 -269 -270 0
-150 -269 -271 0
-150 -270 -271 0
-199 -214 -268 0
-199 -214 -269 0
-199 -214 -270 0
-199 -214 -271 0
-199 -268 -269 0
-199 -268 -270 0
-199 -268 -271 0
-199 -269 -270 0
-199 -269 -271 0
-199 -270 -271 0
-214 -268 -269 0
-214 -268 -270 0
-214 -268 -271 0
-214 -269 -270 0
-214 -269 -271 0
-214 -270 -271 0
-268 -269 -270 0
-268 -269 -271 0
-268 -270 -271 0
-269 -270 -271 0
143 150 199 214 268 269 270 0
143 150 199 214 268 269 271 0
143 150 199 214 268 270 271 0
143 150 199 214 269 270 271 0
143 150 199 268 269 270 271 0
143 150 214 268 269 270 271 0
143 199 214 268 269 270 271 0
150 199 214 268 269 270 271 0
-179 -185 -235 0
-179 -185 -248 0
-179 -185 -304 0
-179 -185 -305 0
-179 -185 -306 0
-179 -185 -307 0
-179 -235 -248 0
-179 -235 -304 0
-179 -235 -305 0
-179 -235 -306 0
-179 -235 -307 0
-179 -248 -304 0
-179 -248 -305 0
-179 -248 -306 0
-179 -248 -307 0
-179 -304 -305 0
-179 -304 -306 0
-179 -304 -307 0
-179 -305 -306 0
-179 -305 -307 0
-179 -306 -307 0
-185 -235 -248 0
-185 -235 -304 0
-185 -235 -305 0
-185 -235 -306 0
-185 -235 -307 0
-185 -248 -304 0
-185 -248 -305 0
-185 -248 -306 0
-185 -248 -307 0
-185 -304 -305 0
-185 -304 -306 0
-185 -304 -307 0
-185 -305 -306 0
-185 -305 -307 0
-185 -306 -307 0
-235 -248 -304 0
-235 -248 -305 0
-235 -248 -306 0
-235 -248 -307 0
-235 -304 -305 0
-235 -304 -306 0
-235 -304 -307 0
-235 -305 -306 0
-235 -305 -307 0
-235 -306 -307 0
-248 -304 -305 0
-248 -304 -306 0
-248 -304 -307 0
-248 -305 -306 0
-248 -305 -307 0
-248 -306 -307 0
-304 -305 -306 0
-304 -305 -307 0
-304 -306 -307 0
-305 -306 -307 0
179 185 235 248 304 305 306 0
179 185 235 248 304 305 307 0
179 185 235 248 304 306 307 0
179 185 235 248 305 306 307 0
179 185 235 304 305 306 307 0
179 185 248 304 305 306 307 0
179 235 248 304 305 306 307 0
185 235 248 304 305 306 307 0
-209 -216 -265 0
-209 -216 -280 0
-209 -216 -334 0
-209 -216 -335 0
-209 -216 -336 0
-209 -216 -337 0
-209 -265 -280 0
-209 -265 -334 0
-209 -265 -335 0
-209 -265 -336 0
-209 -265 -337 0
-209 -280 -334 0
-209 -280 -335 0
-209 -280 -336 0
-209 -280 -337 0
-209 -334 -335 0
-209 -334 -336 0
-209 -334 -337 0
-209 -335 -336 0
-209 -335 -337 0
-209 -336 -337 0
-216 -265 -280 0
-216 -265 -334 0
-216 -265 -335 0
-216 -265 -336 0
-216 -265 -337 0
-216 -280 -334 0
-216 -280 -335 0
-216 -280 -336 0
-216 -280 -337 0
-216 -334 -335 0
-216 -334 -336 0
-216 -334 -337 0
-216 -335 -336 0
-216 -335 -337 0
-216 -336 -337 0
-265 -280 -334 0
-265 -280 -335 0
-265 -280 -336 0
-265 -280 -337 0
-265 -334 -335 0
-265 -334 -336 0
-265 -334 -337 0
-265 -335 -336 0
-265 -335 -337 0
-265 -336 -337 0
-280 -334 -335 0
-280 -334 -336 0
-280 -334 -337 0
-280 -335 -336 0
-280 -335 -337 0
-280 -336 -337 0
-334 -335 -336 0
-334 -335 -337 0
-334 -336 -337 0
-335 -336 -337 0
209 216 265 280 334 335 336 0
209 216 265 280 334 335 337 0
209 216 265 280 334 336 337 0
209 216 265 280 335 336 337 0
209 216 265 334 335 336 337 0
209 216 280 334 335 336 337 0
209 265 280 334 335 336 337 0
216 265 280 334 335 336 337 0
-391 -398 -447 0
-391 -398 -462 0
-391 -398 -516 0
-391 -398 -517 0
-391 -398 -518 0
-391 -398 -519 0
-391 -447 -462 0
-391 -447 -516 0
-391 -447 -517 0
-391 -447 -518 0
-391 -447 -519 0
-391 -462 -516 0
-391 -462 -517 0
-391 -462 -518 0
-391 -462 -519 0
-391 -516 -517 0
-391 -516 -518 0
-391 -516 -519 0
-391 -517 -518 0
-391 -517 -519 0
-391 -518 -519 0
-398 -447 -462 0
-398 -447 -516 0
-398 -447 -517 0
-398 -447 -518 0
-398 -447 -519 0
-398 -462 -516 0
-398 -462 -517 0
-398 -462 -518 0
-398 -462 -519 0
-398 -516 -517 0
-398 -516 -518 0
-398 -516 -519 0
-398 -517 -518 0
-398 -517 -519 0
-398 -518 -519 0
-447 -462 -516 0
-447 -462 -517 0
-447 -462 -518 0
-447 -462 -519 0
-447 -516 -517 0
-447 -516 -518 0
-447 -516 -519 0
-447 -517 -518 0
-447 -517 -519 0
-447 -518 -519 0
-462 -516 -517 0
-462 -516 -518 0
-462 -516 -519 0
-462 -517 -518 0
-462 -517 -519 0
-462 -518 -519 0
-516 -517 -518 0
-516 -517 -519 0
-516 -518 -519 0
-517 -518 -519 0
391 398 447 462 516 517 518 0
391 398 447 462 516 517 519 0
391 398 447 462 516 518 519 0
391 398 447 462 517 518 519 0
391 398 447 516 517 518 519 0
391 398 462 516 517 518 519 0
391 447 462 516 517 518 519 0
398 447 462 516 517 518 519 0
-503 -510 -560 0
-503 -510 -574 0
-503 -510 -627 0
-503 -510 -628 0
-503 -510 -629 0
-503 -510 -630 0
-503 -560 -574 0
-503 -560 -627 0
-503 -560 -628 0
-503 -560 -629 0
-503 -560 -630 0
-503 -574 -627 0
-503 -574 -628 0
-503 -574 -629 0
-503 -574 -630 0
-503 -627 -628 0
-503 -627 -629 0
-503 -627 -630 0
-503 -628 -629 0
-503 -628 -630 0
-503 -629 -630 0
-510 -560 -574 0
-510 -560 -627 0
-510 -560 -628 0
-510 -560 -629 0
-510 -560 -630 0
-510 -574 -627 0
-510 -574 -628 0
-510 -574 -629 0
-510 -574 -630 0
-510 -627 -628 0
-510 -627 -629 0
-510 -627 -630 0
-510 -628 -629 0
-510 -628 -630 0
-510 -629 -630 0
-560 -574 -627 0
-560 -574 -628 0
-560 -574 -629 0
-560 -574 -630 0
-560 -627 -628 0
-560 -627 -629 0
-560 -627 -630 0
-560 -628 -629 0
-560 -628 -630 0
-560 -629 -630 0
-574 -627 -628 0
-574 -627 -629 0
-574 -627 -630 0
-574 -628 -629 0
-574 -628 -630 0
-574 -629 -630 0
-627 -628 -629 0
-627 -628 -630 0
-627 -629 -630 0
-628 -629 -630 0
503 510 560 574 627 628 629 0
503 510 560 574 627 628 630 0
503 510 560 574 627 629 630 0
503 510 560 574 628 629 630 0
503 510 560 627 628 629 630 0
503 510 574 627 628 629 630 0
503 560 574 627 628 629 630 0
510 560 574 627 628 629 630 0
-449 -456 -505 0
-449 -456 -520 0
-449 -456 -574 0
-449 -456 -575 0
-449 -456 -576 0
-449 -456 -577 0
-449 -505 -520 0
-449 -505 -574 0
-449 -505 -575 0
-449 -505 -576 0
-449 -505 -577 0
-449 -520 -574 0
-449 -520 -575 0
-449 -520 -576 0
-449 -520 -577 0
-449 -574 -575 0
-449 -574 -576 0
-449 -574 -577 0
-449 -575 -576 0
-449 -575 -577 0
-449 -576 -577 0
-456 -505 -520 0
-456 -505 -574 0
-456 -505 -575 0
-456 -505 -576 0
-456 -505 -577 0
-456 -520 -574 0
-456 -520 -575 0
-456 -520 -576 0
-456 -520 -577 0
-456 -574 -575 0
-456 -574 -576 0
-456 -574 -577 0
-456 -575 -576 0
-456 -575 -577 0
-456 -576 -577 0
-505 -520 -574 0
-505 -520 -575 0
-505 -520 -576 0
-505 -520 -577 0
-505 -574 -575 0
-505 -574 -576 0
-505 -574 -577 0
-505 -575 -576 0
-505 -575 -577 0
-505 -576 -577 0
-520 -574 -575 0
-520 -574 -576 0
-520 -574 -577 0
-520 -575 -576 0
-520 -575 -577 0
-520 -576 -577 0
-574 -575 -576 0
-574 -575 -577 0
-574 -576 -577 0
-575 -576 -577 0
449 456 505 520 574 575 576 0
449 456 505 520 574 575 577 0
449 456 505 520 574 576 577 0
449 456 505 520 575 576 577 0
449 456 505 574 575 576 577 0
449 456 520 574 575 576 577 0
449 505 520 574 575 576 577 0
456 505 520 574 575 576 577 0
-4 -5 -6 0
-4 -5 -7 0
-4 -6 -7 0
-5 -6 -7 0
4 5 6 0
4 5 7 0
4 6 7 0
5 6 7 0
-561 -568 -621 0
-561 -568 -631 0
-561 -568 -681 0
-561 -568 -682 0
-561 -568 -683 0
-561 -568 -684 0
-561 -621 -631 0
-561 -621 -681 0
-561 -621 -682 0
-561 -621 -683 0
-561 -621 -684 0
-561 -631 -681 0
-561 -631 -682 0
-561 -631 -683 0
-561 -631 -684 0
-561 -681 -682 0
-561 -681 -683 0
-561 -681 -684 0
-561 -682 -683 0
-561 -682 -684 0
-561 -683 -684 0
-568 -621 -631 0
-568 -621 -681 0
-568 -621 -682 0
-568 -621 -683 0
-568 -621 -684 0
-568 -631 -681 0
-568 -631 -682 0
-568 -631 -683 0
-568 -631 -684 0
-568 -681 -682 0
-568 -681 -683 0
-568 -681 -684 0
-568 -682 -683 0
-568 -682 -684 0
-568 -683 -684 0
-621 -631 -681 0
-621 -631 -682 0
-621 -631 -683 0
-621 -631 -684 0
-621 -681 -682 0
-621 -681 -683 0
-621 -681 -684 0
-621 -682 -683 0
-621 -682 -684 0
-621 -683 -684 0
-631 -681 -682 0
-631 -681 -683 0
-631 -681 -684 0
-631 -682 -683 0
-631 -682 -684 0
-631 -683 -684 0
-681 -682 -683 0
-681 -682 -684 0
-681 -683 -684 0
-682 -683 -684 0
561 568 621 631 681 682 683 0
561 568 621 631 681 682 684 0
561 568 621 631 681 683 684 0
561 568 621 631 682 683 684 0
561 568 621 681 682 683 684 0
561 568 631 681 682 683 684 0
561 621 631 681 682 683 684 0
568 621 631 681 682 683 684 0
-427 -433 -483 0
-427 -433 -496 0
-427 -433 -552 0
-427 -433 -553 0
-427 -433 -554 0
-427 -433 -555 0
-427 -483 -496 0
-427 -483 -552 0
-427 -483 -553 0
-427 -483 -554 0
-427 -483 -555 0
-427 -496 -552 0
-427 -496 -553 0
-427 -496 -554 0
-427 -496 -555 0
-427 -552 -553 0
-427 -552 -554 0
-427 -552 -555 0
-427 -553 -554 0
-427 -553 -555 0
-427 -554 -555 0
-433 -483 -496 0
-433 -483 -552 0
-433 -483 -553 0
-433 -483 -554 0
-433 -483 -555 0
-433 -496 -552 0
-433 -496 -553 0
-433 -496 -554 0
-433 -496 -555 0
-433 -552 -553 0
-433 -552 -554 0
-433 -552 -555 0
-433 -553 -554 0
-433 -553 -555 0
-433 -554 -555 0
-483 -496 -552 0
-483 -496 -553 0
-483 -496 -554 0
-483 -496 -555 0
-483 -552 -553 0
-483 -552 -554 0
-483 -552 -555 0
-483 -553 -554 0
-483 -553 -555 0
-483 -554 -555 0
-496 -552 -553 0
-496 -552 -554 0
-496 -552 -555 0
-496 -553 -554 0
-496 -553 -555 0
-496 -554 -555 0
-552 -553 -554 0
-552 -553 -555 0
-552 -554 -555 0
-553 -554 -555 0
427 433 483 496 552 553 554 0
427 433 483 496 552 553 555 0
427 433 483 496 552 554 555 0
427 433 483 496 553 554 555 0
427 433 483 552 553 554 555 0
427 433 496 552 553 554 555 0
427 483 496 552 553 554 555 0
433 483 496 552 553 554 555 0
-539 -546 -595 0
-539 -546 -610 0
-539 -546 -663 0
-539 -546 -664 0
-539 -546 -665 0
-539 -546 -666 0
-539 -595 -610 0
-539 -595 -663 0
-539 -595 -664 0
-539 -595 -665 0
-539 -595 -666 0
-539 -610 -663 0
-539 -610 -664 0
-539 -610 -665 0
-539 -610 -666 0
-539 -663 -664 0
-539 -663 -665 0
-539 -663 -666 0
-539 -664 -665 0
-539 -664 -666 0
-539 -665 -666 0
-546 -595 -610 0
-546 -595 -663 0
-546 -595 -664 0
-546 -595 -665 0
-546 -595 -666 0
-546 -610 -663 0
-546 -610 -664 0
-546 -610 -665 0
-546 -610 -666 0
-546 -663 -664 0
-546 -663 -665 0
-546 -663 -666 0
-546 -664 -665 0
-546 -664 -666 0
-546 -665 -666 0
-595 -610 -663 0
-595 -610 -664 0
-595 -610 -665 0
-595 -610 -666 0
-595 -663 -664 0
-595 -663 -665 0
-595 -663 -666 0
-595 -664 -665 0
-595 -664 -666 0
-595 -665 -666 0
-610 -663 -664 0
-610 -663 -665 0
-610 -663 -666 0
-610 -664 -665 0
-610 -664 -666 0
-610 -665 -666 0
-663 -664 -665 0
-663 -664 -666 0
-663 -665 -666 0
-664 -665 -666 0
539 546 595 610 663 664 665 0
539 546 595 610 663 664 666 0
539 546 595 610 663 665 666 0
539 546 595 610 664 665 666 0
539 546 595 663 664 665 666 0
539 546 610 663 664 665 666 0
539 595 610 663 664 665 666 0
546 595 610 663 664 665 666 0
-485 -492 -541 0
-485 -492 -556 0
-485 -492 -610 0
-485 -492 -611 0
-485 -492 -612 0
-485 -492 -613 0
-485 -541 -556 0
-485 -541 -610 0
-485 -541 -611 0
-485 -541 -612 0
-485 -541 -613 0
-485 -556 -610 0
-485 -556 -611 0
-485 -556 -612 0
-485 -556 -613 0
-485 -610 -611 0
-485 -610 -612 0
-485 -610 -613 0
-485 -611 -612 0
-485 -611 -613 0
-485 -612 -613 0
-492 -541 -556 0
-492 -541 -610 0
-492 -541 -611 0
-492 -541 -612 0
-492 -541 -613 0
-492 -556 -610 0
-492 -556 -611 0
-492 -556 -612 0
-492 -556 -613 0
-492 -610 -611 0
-492 -610 -612 0
-492 -610 -613 0
-492 -611 -612 0
-492 -611 -613 0
-492 -612 -613 0
-541 -556 -610 0
-541 -556 -611 0
-541 -556 -612 0
-541 -556 -613 0
-541 -610 -611 0
-541 -610 -612 0
-541 -610 -613 0
-541 -611 -612 0
-541 -611 -613 0
-541 -612 -613 0
-556 -610 -611 0
-556 -610 -612 0
-556 -610 -613 0
-556 -611 -612 0
-556 -611 -613 0
-556 -612 -613 0
-610 -611 -612 0
-610 -611 -613 0
-610 -612 -613 0
-611 -612 -613 0
485 492 541 556 610 611 612 0
485 492 541 556 610 611 613 0
485 492 541 556 610 612 613 0
485 492 541 556 611 612 613 0
485 492 541 610 611 612 613 0
485 492 556 610 611 612 613 0
485 541 556 610 611 612 613 0
492 541 556 610 611 612 613 0
-40 -41 -42 0
-40 -41 -43 0
-40 -42 -43 0
-41 -42 -43 0
40 41 42 0
40 41 43 0
40 42 43 0
41 42 43 0
-27 -34 -83 0
-27 -34 -98 0
-27 -34 -152 0
-27 -34 -153 0
-27 -34 -154 0
-27 -34 -155 0
-27 -83 -98 0
-27 -83 -152 0
-27 -83 -153 0
-27 -83 -154 0
-27 -83 -155 0
-27 -98 -152 0
-27 -98 -153 0
-27 -98 -154 0
-27 -98 -155 0
-27 -152 -153 0
-27 -152 -154 0
-27 -152 -155 0
-27 -153 -154 0
-27 -153 -155 0
-27 -154 -155 0
-34 -83 -98 0
-34 -83 -152 0
-34 -83 -153 0
-34 -83 -154 0
-34 -83 -155 0
-34 -98 -152 0
-34 -98 -153 0
-34 -98 -154 0
-34 -98 -155 0
-34 -152 -153 0
-34 -152 -154 0
-34 -152 -155 0
-34 -153 -154 0
-34 -153 -155 0
-34 -154 -155 0
-83 -98 -152 0
-83 -98 -153 0
-83 -98 -154 0
-83 -98 -155 0
-83 -152 -153 0
-83 -152 -154 0
-83 -152 -155 0
-83 -153 -154 0
-83 -153 -155 0
-83 -154 -155 0
-98 -152 -153 0
-98 -152 -154 0
-98 -152 -155 0
-98 -153 -154 0
-98 -153 -155 0
-98 -154 -155 0
-152 -153 -154 0
-152 -153 -155 0
-152 -154 -155 0
-153 -154 -155 0
27 34 83 98 152 153 154 0
27 34 83 98 152 153 155 0
27 34 83 98 152 154 155 0
27 34 83 98 153 154 155 0
27 34 83 152 153 154 155 0
27 34 98 152 153 154 155 0
27 83 98 152 153 154 155 0
34 83 98 152 153 154 155 0
-597 -604 -652 0
-597 -604 -667 0
-597 -604 -717 0
-597 -604 -718 0
-597 -604 -719 0
-597 -604 -720 0
-597 -652 -667 0
-597 -652 -717 0
-597 -652 -718 0
-597 -652 -719 0
-597 -652 -720 0
-597 -667 -717 0
-597 -667 -718 0
-597 -667 -719 0
-597 -667 -720 0
-597 -717 -718 0
-597 -717 -719 0
-597 -717 -720 0
-597 -718 -719 0
-597 -718 -720 0
-597 -719 -720 0
-604 -652 -667 0
-604 -652 -717 0
-604 -652 -718 0
-604 -652 -719 0
-604 -652 -720 0
-604 -667 -717 0
-604 -667 -718 0
-604 -667 -719 0
-604 -667 -720 0
-604 -717 -718 0
-604 -717 -719 0
-604 -717 -720 0
-604 -718 -719 0
-604 -718 -720 0
-604 -719 -720 0
-652 -667 -717 0
-652 -667 -718 0
-652 -667 -719 0
-652 -667 -720 0
-652 -717 -718 0
-652 -717 -719 0
-652 -717 -720 0
-652 -718 -719 0
-652 -718 -720 0
-652 -719 -720 0
-667 -717 -718 0
-667 -717 -719 0
-667 -717 -720 0
-667 -718 -719 0
-667 -718 -720 0
-667 -719 -720 0
-717 -718 -719 0
-717 -718 -720 0
-717 -719 -720 0
-718 -719 -720 0
597 604 652 667 717 718 719 0
597 604 652 667 717 718 720 0
597 604 652 667 717 719 720 0
597 604 652 667 718 719 720 0
597 604 652 717 718 719 720 0
597 604 667 717 718 719 720 0
597 652 667 717 718 719 720 0
604 652 667 717 718 719 720 0
-245 -301 -370 0
-245 -301 -371 0
-245 -370 -371 0
-301 -370 -371 0
-275 -282 -331 0
-275 -282 -346 0
-275 -282 -400 0
-275 -282 -401 0
-275 -282 -402 0
-275 -282 -403 0
-275 -331 -346 0
-275 -331 -400 0
-275 -331 -401 0
-275 -331 -402 0
-275 -331 -403 0
-275 -346 -400 0
-275 -346 -401 0
-275 -346 -402 0
-275 -346 -403 0
-275 -400 -401 0
-275 -400 -402 0
-275 -400 -403 0
-275 -401 -402 0
-275 -401 -403 0
-275 -402 -403 0
-282 -331 -346 0
-282 -331 -400 0
-282 -331 -401 0
-282 -331 -402 0
-282 -331 -403 0
-282 -346 -400 0
-282 -346 -401 0
-282 -346 -402 0
-282 -346 -403 0
-282 -400 -401 0
-282 -400 -402 0
-282 -400 -403 0
-282 -401 -402 0
-282 -401 -403 0
-282 -402 -403 0
-331 -346 -400 0
-331 -346 -401 0
-331 -346 -402 0
-331 -346 -403 0
-331 -400 -401 0
-331 -400 -402 0
-331 -400 -403 0
-331 -401 -402 0
-331 -401 -403 0
-331 -402 -403 0
-346 -400 -401 0
-346 -400 -402 0
-346 -400 -403 0
-346 -401 -402 0
-346 -401 -403 0
-346 -402 -403 0
-400 -401 -402 0
-400 -401 -403 0
-400 -402 -403 0
-401 -402 -403 0
275 282 331 346 400 401 402 0
275 282 331 346 400 401 403 0
275 282 331 346 400 402 403 0
275 282 331 346 401 402 403 0
275 282 331 400 401 402 403 0
275 282 346 400 401 402 403 0
275 331 346 400 401 402 403 0
282 331 346 400 401 402 403 0
-333 -340 -389 0
-333 -340 -404 0
-333 -340 -458 0
-333 -340 -459 0
-333 -340 -460 0
-333 -340 -461 0
-333 -389 -404 0
-333 -389 -458 0
-333 -389 -459 0
-333 -389 -460 0
-333 -389 -461 0
-333 -404 -458 0
-333 -404 -459 0
-333 -404 -460 0
-333 -404 -461 0
-333 -458 -459 0
-333 -458 -460 0
-333 -458 -461 0
-333 -459 -460 0
-333 -459 -461 0
-333 -460 -461 0
-340 -389 -404 0
-340 -389 -458 0
-340 -389 -459 0
-340 -389 -460 0
-340 -389 -461 0
-340 -404 -458 0
-340 -404 -459 0
-340 -404 -460 0
-340 -404 -461 0
-340 -458 -459 0
-340 -458 -460 0
-340 -458 -461 0
-340 -459 -460 0
-340 -459 -461 0
-340 -460 -461 0
-389 -404 -458 0
-389 -404 -459 0
-389 -404 -460 0
-389 -404 -461 0
-389 -458 -459 0
-389 -458 -460 0
-389 -458 -461 0
-389 -459 -460 0
-389 -459 -461 0
-389 -460 -461 0
-404 -458 -459 0
-404 -458 -460 0
-404 -458 -461 0
-404 -459 -460 0
-404 -459 -461 0
-404 -460 -461 0
-458 -459 -460 0
-458 -459 -461 0
-458 -460 -461 0
-459 -460 -461 0
333 340 389 404 458 459 460 0
333 340 389 404 458 459 461 0
333 340 389 404 458 460 461 0
333 340 389 404 459 460 461 0
333 340 389 458 459 460 461 0
333 340 404 458 459 460 461 0
333 389 404 458 459 460 461 0
340 389 404 458 459 460 461 0
-1 0
-2 0
-3 0
4 0
-5 0
6 0
-7 0
8 0
-9 0
10 0
-11 0
12 0
-13 0
14 0
-15 0
16 0
-17 0
18 0
-19 0
20 0
-21 0
22 0
-23 0
24 0
-25 0
26 0
-27 0
28 0
-29 0
30 0
-31 0
32 0
-33 0
34 0
-35 0
36 0
-37 0
38 0
-39 0
40 0
-41 0
42 0
-43 0
44 0
-45 0
46 0
-47 0
48 0
-49 0
50 0
-51 0
52 0
-53 0
54 0
-55 0
56 0
-57 0
58 0
-59 0
60 0
61 0
62 0
-63 0
-64 0
-65 0
-66 0
-67 0
68 0
-69 0
-70 0
-71 0
72 0
-73 0
-74 0
-75 0
76 0
-77 0
-78 0
-79 0
80 0
-81 0
-82 0
-83 0
84 0
-85 0
-86 0
-87 0
88 0
-89 0
-90 0
-91 0
92 0
-93 0
-94 0
-95 0
96 0
-97 0
-98 0
-99 0
100 0
-101 0
-102 0
-103 0
104 0
-105 0
-106 0
-107 0
108 0
-109 0
-110 0
-111 0
112 0
-113 0
-114 0
-115 0
116 0
-117 0
-118 0
-119 0
120 0
-121 0
-122 0
123 0
-124 0
-1 -3 0
-1 -4 0
-1 -6 0
-1 -8 0
-2 -4 0
-2 -6 0
-2 -7 0
-2 -8 0
-2 -10 0
-2 -12 0
-3 -4 0
-3 -6 0
-3 -8 0
-3 -64 0
-3 -66 0
-3 -68 0
-3 -70 0
-5 -8 0
-5 -10 0
-5 -11 0
-5 -12 0
-5 -14 0
-5 -16 0
-6 -63 0
-6 -64 0
-6 -65 0
-6 -66 0
-7 -8 0
-7 -10 0
-7 -12 0
-7 -67 0
-7 -70 0
-7 -72 0
-7 -74 0
-9 -12 0
-9 -14 0
-9 -15 0
-9 -16 0
-9 -18 0
-9 -20 0
-10 -64 0
-10 -67 0
-10 -69 0
-10 -70 0
-11 -12 0
-11 -14 0
-11 -16 0
-11 -71 0
-11 -74 0
-11 -76 0
-11 -78 0
-13 -16 0
-13 -18 0
-13 -19 0
-13 -20 0
-13 -22 0
-13 -24 0
-14 -67 0
-14 -71 0
-14 -73 0
-14 -74 0
-15 -16 0
-15 -18 0
-15 -20 0
-15 -75 0
-15 -78 0
-15 -80 0
-15 -82 0
-17 -20 0
-17 -22 0
-17 -23 0
-17 -24 0
-17 -26 0
-17 -28 0
-18 -71 0
-18 -75 0
-18 -77 0
-18 -78 0
-19 -20 0
-19 -22 0
-19 -24 0
-19 -79 0
-19 -82 0
-19 -84 0
-19 -86 0
-21 -24 0
-21 -26 0
-21 -27 0
-21 -28 0
-21 -30 0
-21 -32 0
-22 -75 0
-22 -79 0
-22 -81 0
-22 -82 0
-23 -24 0
-23 -26 0
-23 -28 0
-23 -83 0
-23 -86 0
-23 -88 0
-23 -90 0
-25 -28 0
-25 -30 0
-25 -31 0
-25 -32 0
-25 -34 0
-25 -36 0
-26 -79 0
-26 -83 0
-26 -85 0
-26 -86 0
-27 -28 0
-27 -30 0
-27 -32 0
-27 -87 0
-27 -90 0
-27 -92 0
-27 -94 0
-29 -32 0
-29 -34 0
-29 -35 0
-29 -36 0
-29 -38 0
-29 -40 0
-30 -83 0
-30 -87 0
-30 -89 0
-30 -90 0
-31 -32 0
-31 -34 0
-31 -36 0
-31 -91 0
-31 -94 0
-31 -96 0
-31 -98 0
-33 -36 0
-33 -38 0
-33 -39 0
-33 -40 0
-33 -42 0
-33 -44 0
-34 -87 0
-34 -91 0
-34 -93 0
-34 -94 0
-35 -36 0
-35 -38 0
-35 -40 0
-35 -95 0
-35 -98 0
-35 -100 0
-35 -102 0
-37 -40 0
-37 -42 0
-37 -43 0
-37 -44 0
-37 -46 0
-37 -48 0
-38 -91 0
-38 -95 0
-38 -97 0
-38 -98 0
-39 -40 0
-39 -42 0
-39 -44 0
-39 -99 0
-39 -102 0
-39 -104 0
-39 -106 0
-41 -44 0
-41 -46 0
-41 -47 0
-41 -48 0
-41 -50 0
-41 -52 0
-42 -95 0
-42 -99 0
-42 -101 0
-42 -102 0
-43 -44 0
-43 -46 0
-43 -48 0
-43 -103 0
-43 -106 0
-43 -108 0
-43 -110 0
-45 -48 0
-45 -50 0
-45 -51 0
-45 -52 0
-45 -54 0
-45 -56 0
-46 -99 0
-46 -103 0
-46 -105 0
-46 -106 0
-47 -48 0
-47 -50 0
-47 -52 0
-47 -107 0
-47 -110 0
-47 -112 0
-47 -114 0
-49 -52 0
-49 -54 0
-49 -55 0
-49 -56 0
-49 -58 0
-49 -60 0
-50 -103 0
-50 -107 0
-50 -109 0
-50 -110 0
-51 -52 0
-51 -54 0
-51 -56 0
-51 -111 0
-51 -114 0
-51 -116 0
-51 -118 0
-53 -56 0
-53 -58 0
-53 -59 0
-53 -60 0
-53 -61 0
-53 -62 0
-54 -107 0
-54 -111 0
-54 -113 0
-54 -114 0
-55 -56 0
-55 -58 0
-55 -60 0
-55 -115 0
-55 -118 0
-55 -120 0
-55 -122 0
-57 -60 0
-57 -61 0
-57 -62 0
-58 -111 0
-58 -115 0
-58 -117 0
-58 -118 0
-59 -60 0
-59 -61 0
-59 -62 0
-59 -119 0
-59 -122 0
-59 -123 0
-59 -124 0
-61 -115 0
-61 -119 0
-61 -121 0
-61 -122 0
-63 -65 0
-63 -66 0
-63 -68 0
-63 -70 0
-64 -66 0
-64 -68 0
-64 -69 0
-64 -70 0
-64 -72 0
-64 -74 0
-65 -66 0
-65 -68 0
-65 -70 0
-65 -126 0
-65 -128 0
-65 -130 0
-65 -132 0
-67 -70 0
-67 -72 0
-67 -73 0
-67 -74 0
-67 -76 0
-67 -78 0
-68 -70 0
-68 -125 0
-68 -126 0
-68 -127 0
-68 -128 0
-69 -70 0
-69 -72 0
-69 -74 0
-69 -129 0
-69 -132 0
-69 -134 0
-69 -136 0
-71 -74 0
-71 -76 0
-71 -77 0
-71 -78 0
-71 -80 0
-71 -82 0
-72 -74 0
-72 -126 0
-72 -129 0
-72 -131 0
-72 -132 0
-73 -74 0
-73 -76 0
-73 -78 0
-73 -133 0
-73 -136 0
-73 -138 0
-73 -140 0
-75 -78 0
-75 -80 0
-75 -81 0
-75 -82 0
-75 -84 0
-75 -86 0
-76 -78 0
-76 -129 0
-76 -133 0
-76 -135 0
-76 -136 0
-77 -78 0
-77 -80 0
-77 -82 0
-77 -137 0
-77 -140 0
-77 -142 0
-77 -144 0
-79 -82 0
-79 -84 0
-79 -85 0
-79 -86 0
-79 -88 0
-79 -90 0
-80 -82 0
-80 -133 0
-80 -137 0
-80 -139 0
-80 -140 0
-81 -82 0
-81 -84 0
-81 -86 0
-81 -141 0
-81 -144 0
-81 -146 0
-81 -148 0
-83 -86 0
-83 -88 0
-83 -89 0
-83 -90 0
-83 -92 0
-83 -94 0
-84 -86 0
-84 -137 0
-84 -141 0
-84 -143 0
-84 -144 0
-85 -86 0
-85 -88 0
-85 -90 0
-85 -145 0
-85 -148 0
-85 -150 0
-85 -152 0
-87 -90 0
-87 -92 0
-87 -93 0
-87 -94 0
-87 -96 0
-87 -98 0
-88 -90 0
-88 -141 0
-88 -145 0
-88 -147 0
-88 -148 0
-89 -90 0
-89 -92 0
-89 -94 0
-89 -149 0
-89 -152 0
-89 -154 0
-89 -156 0
-91 -94 0
-91 -96 0
-91 -97 0
-91 -98 0
-91 -100 0
-91 -102 0
-92 -94 0
-92 -145 0
-92 -149 0
-92 -151 0
-92 -152 0
-93 -94 0
-93 -96 0
-93 -98 0
-93 -153 0
-93 -156 0
-93 -158 0
-93 -160 0
-95 -98 0
-95 -100 0
-95 -101 0
-95 -102 0
-95 -104 0
-95 -106 0
-96 -98 0
-96 -149 0
-96 -153 0
-96 -155 0
-96 -156 0
-97 -98 0
-97 -100 0
-97 -102 0
-97 -157 0
-97 -160 0
-97 -162 0
-97 -164 0
-99 -102 0
-99 -104 0
-99 -105 0
-99 -106 0
-99 -108 0
-99 -110 0
-100 -102 0
-100 -153 0
-100 -157 0
-100 -159 0
-100 -160 0
-101 -102 0
-101 -104 0
-101 -106 0
-101 -161 0
-101 -164 0
-101 -166 0
-101 -168 0
-103 -106 0
-103 -108 0
-103 -109 0
-103 -110 0
-103 -112 0
-103 -114 0
-104 -106 0
-104 -157 0
-104 -161 0
-104 -163 0
-104 -164 0
-105 -106 0
-105 -108 0
-105 -110 0
-105 -165 0
-105 -168 0
-105 -170 0
-105 -172 0
-107 -110 0
-107 -112 0
-107 -113 0
-107 -114 0
-107 -116 0
-107 -118 0
-108 -110 0
-108 -161 0
-108 -165 0
-108 -167 0
-108 -168 0
-109 -110 0
-109 -112 0
-109 -114 0
-109 -169 0
-109 -172 0
-109 -174 0
-109 -176 0
-111 -114 0
-111 -116 0
-111 -117 0
-111 -118 0
-111 -120 0
-111 -122 0
-112 -114 0
-112 -165 0
-112 -169 0
-112 -171 0
-112 -172 0
-113 -114 0
-113 -116 0
-113 -118 0
-113 -173 0
-113 -176 0
-113 -178 0
-113 -180 0
-115 -118 0
-115 -120 0
-115 -121 0
-115 -122 0
-115 -123 0
-115 -124 0
-116 -118 0
-116 -169 0
-116 -173 0
-116 -175 0
-116 -176 0
-117 -118 0
-117 -120 0
-117 -122 0
-117 -177 0
-117 -180 0
-117 -182 0
-117 -184 0
-119 -122 0
-119 -123 0
-119 -124 0
-120 -122 0
-120 -173 0
-120 -177 0
-120 -179 0
-120 -180 0
-121 -122 0
-121 -123 0
-121 -124 0
-121 -181 0
-121 -184 0
-121 -185 0
-121 -186 0
-123 -124 0
-123 -177 0
-123 -181 0
-123 -183 0
-123 -184 0
-125 -127 0
-125 -128 0
-125 -130 0
-125 -132 0
-126 -128 0
-126 -130 0
-126 -131 0
-126 -132 0
-126 -134 0
-126 -136 0
-127 -128 0
-127 -130 0
-127 -132 0
-127 -188 0
-127 -190 0
-127 -192 0
-127 -194 0
-129 -132 0
-129 -134 0
-129 -135 0
-129 -136 0
-129 -138 0
-129 -140 0
-130 -132 0
-130 -187 0
-130 -188 0
-130 -189 0
-130 -190 0
-131 -132 0
-131 -134 0
-131 -136 0
-131 -191 0
-131 -194 0
-131 -196 0
-131 -198 0
-133 -136 0
-133 -138 0
-133 -139 0
-133 -140 0
-133 -142 0
-133 -144 0
-134 -136 0
-134 -188 0
-134 -191 0
-134 -193 0
-134 -194 0
-135 -136 0
-135 -138 0
-135 -140 0
-135 -195 0
-135 -198 0
-135 -200 0
-135 -202 0
-137 -140 0
-137 -142 0
-137 -143 0
-137 -144 0
-137 -146 0
-137 -148 0
-138 -140 0
-138 -191 0
-138 -195 0
-138 -197 0
-138 -198 0
-139 -140 0
-139 -142 0
-139 -144 0
-139 -199 0
-139 -202 0
-139 -204 0
-139 -206 0
-141 -144 0
-141 -146 0
-141 -147 0
-141 -148 0
-141 -150 0
-141 -152 0
-142 -144 0
-142 -195 0
-142 -199 0
-142 -201 0
-142 -202 0
-143 -144 0
-143 -146 0
-143 -148 0
-143 -203 0
-143 -206 0
-143 -208 0
-143 -210 0
-145 -148 0
-145 -150 0
-145 -151 0
-145 -152 0
-145 -154 0
-145 -156 0
-146 -148 0
-146 -199 0
-146 -203 0
-146 -205 0
-146 -206 0
-147 -148 0
-147 -150 0
-147 -152 0
-147 -207 0
-147 -210 0
-147 -212 0
-147 -214 0
-149 -152 0
-149 -154 0
-149 -155 0
-149 -156 0
-149 -158 0
-149 -160 0
-150 -152 0
-150 -203 0
-150 -207 0
-150 -209 0
-150 -210 0
-151 -152 0
-151 -154 0
-151 -156 0
-151 -211 0
-151 -214 0
-151 -216 0
-151 -218 0
-153 -156 0
-153 -158 0
-153 -159 0
-153 -160 0
-153 -162 0
-153 -164 0
-154 -156 0
-154 -207 0
-154 -211 0
-154 -213 0
-154 -214 0
-155 -156 0
-155 -158 0
-155 -160 0
-155 -215 0
-155 -218 0
-155 -220 0
-155 -222 0
-157 -160 0
-157 -162 0
-157 -163 0
-157 -164 0
-157 -166 0
-157 -168 0
-158 -160 0
-158 -211 0
-158 -215 0
-158 -217 0
-158 -218 0
-159 -160 0
-159 -162 0
-159 -164 0
-159 -219 0
-159 -222 0
-159 -224 0
-159 -226 0
-161 -164 0
-161 -166 0
-161 -167 0
-161 -168 0
-161 -170 0
-161 -172 0
-162 -164 0
-162 -215 0
-162 -219 0
-162 -221 0
-162 -222 0
-163 -164 0
-163 -166 0
-163 -168 0
-163 -223 0
-163 -226 0
-163 -228 0
-163 -230 0
-165 -168 0
-165 -170 0
-165 -171 0
-165 -172 0
-165 -174 0
-165 -176 0
-166 -168 0
-166 -219 0
-166 -223 0
-166 -225 0
-166 -226 0
-167 -168 0
-167 -170 0
-167 -172 0
-167 -227 0
-167 -230 0
-167 -232 0
-167 -234 0
-169 -172 0
-169 -174 0
-169 -175 0
-169 -176 0
-169 -178 0
-169 -180 0
-170 -172 0
-170 -223 0
-170 -227 0
-170 -229 0
-170 -230 0
-171 -172 0
-171 -174 0
-171 -176 0
-171 -231 0
-171 -234 0
-171 -236 0
-171 -238 0
-173 -176 0
-173 -178 0
-173 -179 0
-173 -180 0
-173 -182 0
-173 -184 0
-174 -176 0
-174 -227 0
-174 -231 0
-174 -233 0
-174 -234 0
-175 -176 0
-175 -178 0
-175 -180 0
-175 -235 0
-175 -238 0
-175 -240 0
-175 -242 0
-177 -180 0
-177 -182 0
-177 -183 0
-177 -184 0
-177 -185 0
-177 -186 0
-178 -180 0
-178 -231 0
-178 -235 0
-178 -237 0
-178 -238 0
-179 -180 0
-179 -182 0
-179 -184 0
-179 -239 0
-179 -242 0
-179 -244 0
-179 -246 0
-181 -184 0
-181 -185 0
-181 -186 0
-182 -184 0
-182 -235 0
-182 -239 0
-182 -241 0
-182 -242 0
-183 -184 0
-183 -185 0
-183 -186 0
-183 -243 0
-183 -246 0
-183 -247 0
-183 -248 0
-185 -186 0
-185 -239 0
-185 -243 0
-185 -245 0
-185 -246 0
-187 -189 0
-187 -190 0
-187 -192 0
-187 -194 0
-188 -190 0
-188 -192 0
-188 -193 0
-188 -194 0
-188 -196 0
-188 -198 0
-189 -190 0
-189 -192 0
-189 -194 0
-189 -250 0
-189 -252 0
-189 -254 0
-189 -256 0
-191 -194 0
-191 -196 0
-191 -197 0
-191 -198 0
-191 -200 0
-191 -202 0
-192 -194 0
-192 -249 0
-192 -250 0
-192 -251 0
-192 -252 0
-193 -194 0
-193 -196 0
-193 -198 0
-193 -253 0
-193 -256 0
-193 -258 0
-193 -260 0
-195 -198 0
-195 -200 0
-195 -201 0
-195 -202 0
-195 -204 0
-195 -206 0
-196 -198 0
-196 -250 0
-196 -253 0
-196 -255 0
-196 -256 0
-197 -198 0
-197 -200 0
-197 -202 0
-197 -257 0
-197 -260 0
-197 -262 0
-197 -264 0
-199 -202 0
-199 -204 0
-199 -205 0
-199 -206 0
-199 -208 0
-199 -210 0
-200 -202 0
-200 -253 0
-200 -257 0
-200 -259 0
-200 -260 0
-201 -202 0
-201 -204 0
-201 -206 0
-201 -261 0
-201 -264 0
-201 -266 0
-201 -268 0
-203 -206 0
-203 -208 0
-203 -209 0
-203 -210 0
-203 -212 0
-203 -214 0
-204 -206 0
-204 -257 0
-204 -261 0
-204 -263 0
-204 -264 0
-205 -206 0
-205 -208 0
-205 -210 0
-205 -265 0
-205 -268 0
-205 -270 0
-205 -272 0
-207 -210 0
-207 -212 0
-207 -213 0
-207 -214 0
-207 -216 0
-207 -218 0
-208 -210 0
-208 -261 0
-208 -265 0
-208 -267 0
-208 -268 0
-209 -210 0
-209 -212 0
-209 -214 0
-209 -269 0
-209 -272 0
-209 -274 0
-209 -276 0
-211 -214 0
-211 -216 0
-211 -217 0
-211 -218 0
-211 -220 0
-211 -222 0
-212 -214 0
-212 -265 0
-212 -269 0
-212 -271 0
-212 -272 0
-213 -214 0
-213 -216 0
-213 -218 0
-213 -273 0
-213 -276 0
-213 -278 0
-213 -280 0
-215 -218 0
-215 -220 0
-215 -221 0
-215 -222 0
-215 -224 0
-215 -226 0
-216 -218 0
-216 -269 0
-216 -273 0
-216 -275 0
-216 -276 0
-217 -218 0
-217 -220 0
-217 -222 0
-217 -277 0
-217 -280 0
-217 -282 0
-217 -284 0
-219 -222 0
-219 -224 0
-219 -225 0
-219 -226 0
-219 -228 0
-219 -230 0
-220 -222 0
-220 -273 0
-220 -277 0
-220 -279 0
-220 -280 0
-221 -222 0
-221 -224 0
-221 -226 0
-221 -281 0
-221 -284 0
-221 -286 0
-221 -288 0
-223 -226 0
-223 -228 0
-223 -229 0
-223 -230 0
-223 -232 0
-223 -234 0
-224 -226 0
-224 -277 0
-224 -281 0
-224 -283 0
-224 -284 0
-225 -226 0
-225 -228 0
-225 -230 0
-225 -285 0
-225 -288 0
-225 -290 0
-225 -292 0
-227 -230 0
-227 -232 0
-227 -233 0
-227 -234 0
-227 -236 0
-227 -238 0
-228 -230 0
-228 -281 0
-228 -285 0
-228 -287 0
-228 -288 0
-229 -230 0
-229 -232 0
-229 -234 0
-229 -289 0
-229 -292 0
-229 -294 0
-229 -296 0
-231 -234 0
-231 -236 0
-231 -237 0
-231 -238 0
-231 -240 0
-231 -242 0
-232 -234 0
-232 -285 0
-232 -289 0
-232 -291 0
-232 -292 0
-233 -234 0
-233 -236 0
-233 -238 0
-233 -293 0
-233 -296 0
-233 -298 0
-233 -300 0
-235 -238 0
-235 -240 0
-235 -241 0
-235 -242 0
-235 -244 0
-235 -246 0
-236 -238 0
-236 -289 0
-236 -293 0
-236 -295 0
-236 -296 0
-237 -238 0
-237 -240 0
-237 -242 0
-237 -297 0
-237 -300 0
-237 -302 0
-237 -304 0
-239 -242 0
-239 -244 0
-239 -245 0
-239 -246 0
-239 -247 0
-239 -248 0
-240 -242 0
-240 -293 0
-240 -297 0
-240 -299 0
-240 -300 0
-241 -242 0
-241 -244 0
-241 -246 0
-241 -301 0
-241 -304 0
-241 -306 0
-241 -308 0
-243 -246 0
-243 -247 0
-243 -248 0
-244 -246 0
-244 -297 0
-244 -301 0
-244 -303 0
-244 -304 0
-245 -246 0
-245 -247 0
-245 -248 0
-245 -305 0
-245 -308 0
-245 -309 0
-245 -310 0
-247 -248 0
-247 -301 0
-247 -305 0
-247 -307 0
-247 -308 0
-249 -251 0
-249 -252 0
-249 -254 0
-249 -256 0
-250 -252 0
-250 -254 0
-250 -255 0
-250 -256 0
-250 -258 0
-250 -260 0
-251 -252 0
-251 -254 0
-251 -256 0
-251 -312 0
-251 -314 0
-251 -316 0
-251 -318 0
-253 -256 0
-253 -258 0
-253 -259 0
-253 -260 0
-253 -262 0
-253 -264 0
-254 -256 0
-254 -311 0
-254 -312 0
-254 -313 0
-254 -314 0
-255 -256 0
-255 -258 0
-255 -260 0
-255 -315 0
-255 -318 0
-255 -320 0
-255 -322 0
-257 -260 0
-257 -262 0
-257 -263 0
-257 -264 0
-257 -266 0
-257 -268 0
-258 -260 0
-258 -312 0
-258 -315 0
-258 -317 0
-258 -318 0
-259 -260 0
-259 -262 0
-259 -264 0
-259 -319 0
-259 -322 0
-259 -324 0
-259 -326 0
-261 -264 0
-261 -266 0
-261 -267 0
-261 -268 0
-261 -270 0
-261 -272 0
-262 -264 0
-262 -315 0
-262 -319 0
-262 -321 0
-262 -322 0
-263 -264 0
-263 -266 0
-263 -268 0
-263 -323 0
-263 -326 0
-263 -328 0
-263 -330 0
-265 -268 0
-265 -270 0
-265 -271 0
-265 -272 0
-265 -274 0
-265 -276 0
-266 -268 0
-266 -319 0
-266 -323 0
-266 -325 0
-266 -326 0
-267 -268 0
-267 -270 0
-267 -272 0
-267 -327 0
-267 -330 0
-267 -332 0
-267 -334 0
-269 -272 0
-269 -274 0
-269 -275 0
-269 -276 0
-269 -278 0
-269 -280 0
-270 -272 0
-270 -323 0
-270 -327 0
-270 -329 0
-270 -330 0
-271 -272 0
-271 -274 0
-271 -276 0
-271 -331 0
-271 -334 0
-271 -336 0
-271 -338 0
-273 -276 0
-273 -278 0
-273 -279 0
-273 -280 0
-273 -282 0
-273 -284 0
-274 -276 0
-274 -327 0
-274 -331 0
-274 -333 0
-274 -334 0
-275 -276 0
-275 -278 0
-275 -280 0
-275 -335 0
-275 -338 0
-275 -340 0
-275 -342 0
-277 -280 0
-277 -282 0
-277 -283 0
-277 -284 0
-277 -286 0
-277 -288 0
-278 -280 0
-278 -331 0
-278 -335 0
-278 -337 0
-278 -338 0
-279 -280 0
-279 -282 0
-279 -284 0
-279 -339 0
-279 -342 0
-279 -344 0
-279 -346 0
-281 -284 0
-281 -286 0
-281 -287 0
-281 -288 0
-281 -290 0
-281 -292 0
-282 -284 0
-282 -335 0
-282 -339 0
-282 -341 0
-282 -342 0
-283 -284 0
-283 -286 0
-283 -288 0
-283 -343 0
-283 -346 0
-283 -348 0
-283 -350 0
-285 -288 0
-285 -290 0
-285 -291 0
-285 -292 0
-285 -294 0
-285 -296 0
-286 -288 0
-286 -339 0
-286 -343 0
-286 -345 0
-286 -346 0
-287 -288 0
-287 -290 0
-287 -292 0
-287 -347 0
-287 -350 0
-287 -352 0
-287 -354 0
-289 -292 0
-289 -294 0
-289 -295 0
-289 -296 0
-289 -298 0
-289 -300 0
-290 -292 0
-290 -343 0
-290 -347 0
-290 -349 0
-290 -350 0
-291 -292 0
-291 -294 0
-291 -296 0
-291 -351 0
-291 -354 0
-291 -356 0
-291 -358 0
-293 -296 0
-293 -298 0
-293 -299 0
-293 -300 0
-293 -302 0
-293 -304 0
-294 -296 0
-294 -347 0
-294 -351 0
-294 -353 0
-294 -354 0
-295 -296 0
-295 -298 0
-295 -300 0
-295 -355 0
-295 -358 0
-295 -360 0
-295 -362 0
-297 -300 0
-297 -302 0
-297 -303 0
-297 -304 0
-297 -306 0
-297 -308 0
-298 -300 0
-298 -351 0
-298 -355 0
-298 -357 0
-298 -358 0
-299 -300 0
-299 -302 0
-299 -304 0
-299 -359 0
-299 -362 0
-299 -364 0
-299 -366 0
-301 -304 0
-301 -306 0
-301 -307 0
-301 -308 0
-301 -309 0
-301 -310 0
-302 -304 0
-302 -355 0
-302 -359 0
-302 -361 0
-302 -362 0
-303 -304 0
-303 -306 0
-303 -308 0
-303 -363 0
-303 -366 0
-303 -368 0
-303 -370 0
-305 -308 0
-305 -309 0
-305 -310 0
-306 -308 0
-306 -359 0
-306 -363 0
-306 -365 0
-306 -366 0
-307 -308 0
-307 -309 0
-307 -310 0
-307 -367 0
-307 -370 0
-307 -371 0
-307 -372 0
-309 -310 0
-309 -363 0
-309 -367 0
-309 -369 0
-309 -370 0
-311 -313 0
-311 -314 0
-311 -316 0
-311 -318 0
-312 -314 0
-312 -316 0
-312 -317 0
-312 -318 0
-312 -320 0
-312 -322 0
-313 -314 0
-313 -316 0
-313 -318 0
-313 -374 0
-313 -376 0
-313 -378 0
-313 -380 0
-315 -318 0
-315 -320 0
-315 -321 0
-315 -322 0
-315 -324 0
-315 -326 0
-316 -318 0
-316 -373 0
-316 -374 0
-316 -375 0
-316 -376 0
-317 -318 0
-317 -320 0
-317 -322 0
-317 -377 0
-317 -380 0
-317 -382 0
-317 -384 0
-319 -322 0
-319 -324 0
-319 -325 0
-319 -326 0
-319 -328 0
-319 -330 0
-320 -322 0
-320 -374 0
-320 -377 0
-320 -379 0
-320 -380 0
-321 -322 0
-321 -324 0
-321 -326 0
-321 -381 0
-321 -384 0
-321 -386 0
-321 -388 0
-323 -326 0
-323 -328 0
-323 -329 0
-323 -330 0
-323 -332 0
-323 -334 0
-324 -326 0
-324 -377 0
-324 -381 0
-324 -383 0
-324 -384 0
-325 -326 0
-325 -328 0
-325 -330 0
-325 -385 0
-325 -388 0
-325 -390 0
-325 -392 0
-327 -330 0
-327 -332 0
-327 -333 0
-327 -334 0
-327 -336 0
-327 -338 0
-328 -330 0
-328 -381 0
-328 -385 0
-328 -387 0
-328 -388 0
-329 -330 0
-329 -332 0
-329 -334 0
-329 -389 0
-329 -392 0
-329 -394 0
-329 -396 0
-331 -334 0
-331 -336 0
-331 -337 0
-331 -338 0
-331 -340 0
-331 -342 0
-332 -334 0
-332 -385 0
-332 -389 0
-332 -391 0
-332 -392 0
-333 -334 0
-333 -336 0
-333 -338 0
-333 -393 0
-333 -396 0
-333 -398 0
-333 -400 0
-335 -338 0
-335 -340 0
-335 -341 0
-335 -342 0
-335 -344 0
-335 -346 0
-336 -338 0
-336 -389 0
-336 -393 0
-336 -395 0
-336 -396 0
-337 -338 0
-337 -340 0
-337 -342 0
-337 -397 0
-337 -400 0
-337 -402 0
-337 -404 0
-339 -342 0
-339 -344 0
-339 -345 0
-339 -346 0
-339 -348 0
-339 -350 0
-340 -342 0
-340 -393 0
-340 -397 0
-340 -399 0
-340 -400 0
-341 -342 0
-341 -344 0
-341 -346 0
-341 -401 0
-341 -404 0
-341 -406 0
-341 -408 0
-343 -346 0
-343 -348 0
-343 -349 0
-343 -350 0
-343 -352 0
-343 -354 0
-344 -346 0
-344 -397 0
-344 -401 0
-344 -403 0
-344 -404 0
-345 -346 0
-345 -348 0
-345 -350 0
-345 -405 0
-345 -408 0
-345 -410 0
-345 -412 0
-347 -350 0
-347 -352 0
-347 -353 0
-347 -354 0
-347 -356 0
-347 -358 0
-348 -350 0
-348 -401 0
-348 -405 0
-348 -407 0
-348 -408 0
-349 -350 0
-349 -352 0
-349 -354 0
-349 -409 0
-349 -412 0
-349 -414 0
-349 -416 0
-351 -354 0
-351 -356 0
-351 -357 0
-351 -358 0
-351 -360 0
-351 -362 0
-352 -354 0
-352 -405 0
-352 -409 0
-352 -411 0
-352 -412 0
-353 -354 0
-353 -356 0
-353 -358 0
-353 -413 0
-353 -416 0
-353 -418 0
-353 -420 0
-355 -358 0
-355 -360 0
-355 -361 0
-355 -362 0
-355 -364 0
-355 -366 0
-356 -358 0
-356 -409 0
-356 -413 0
-356 -415 0
-356 -416 0
-357 -358 0
-357 -360 0
-357 -362 0
-357 -417 0
-357 -420 0
-357 -422 0
-357 -424 0
-359 -362 0
-359 -364 0
-359 -365 0
-359 -366 0
-359 -368 0
-359 -370 0
-360 -362 0
-360 -413 0
-360 -417 0
-360 -419 0
-360 -420 0
-361 -362 0
-361 -364 0
-361 -366 0
-361 -421 0
-361 -424 0
-361 -426 0
-361 -428 0
-363 -366 0
-363 -368 0
-363 -369 0
-363 -370 0
-363 -371 0
-363 -372 0
-364 -366 0
-364 -417 0
-364 -421 0
-364 -423 0
-364 -424 0
-365 -366 0
-365 -368 0
-365 -370 0
-365 -425 0
-365 -428 0
-365 -430 0
-365 -432 0
-367 -370 0
-367 -371 0
-367 -372 0
-368 -370 0
-368 -421 0
-368 -425 0
-368 -427 0
-368 -428 0
-369 -370 0
-369 -371 0
-369 -372 0
-369 -429 0
-369 -432 0
-369 -433 0
-369 -434 0
-371 -372 0
-371 -425 0
-371 -429 0
-371 -431 0
-371 -432 0
-373 -375 0
-373 -376 0
-373 -378 0
-373 -380 0
-374 -376 0
-374 -378 0
-374 -379 0
-374 -380 0
-374 -382 0
-374 -384 0
-375 -376 0
-375 -378 0
-375 -380 0
-375 -436 0
-375 -438 0
-375 -440 0
-375 -442 0
-377 -380 0
-377 -382 0
-377 -383 0
-377 -384 0
-377 -386 0
-377 -388 0
-378 -380 0
-378 -435 0
-378 -436 0
-378 -437 0
-378 -438 0
-379 -380 0
-379 -382 0
-379 -384 0
-379 -439 0
-379 -442 0
-379 -444 0
-379 -446 0
-381 -384 0
-381 -386 0
-381 -387 0
-381 -388 0
-381 -390 0
-381 -392 0
-382 -384 0
-382 -436 0
-382 -439 0
-382 -441 0
-382 -442 0
-383 -384 0
-383 -386 0
-383 -388 0
-383 -443 0
-383 -446 0
-383 -448 0
-383 -450 0
-385 -388 0
-385 -390 0
-385 -391 0
-385 -392 0
-385 -394 0
-385 -396 0
-386 -388 0
-386 -439 0
-386 -443 0
-386 -445 0
-386 -446 0
-387 -388 0
-387 -390 0
-387 -392 0
-387 -447 0
-387 -450 0
-387 -452 0
-387 -454 0
-389 -392 0
-389 -394 0
-389 -395 0
-389 -396 0
-389 -398 0
-389 -400 0
-390 -392 0
-390 -443 0
-390 -447 0
-390 -449 0
-390 -450 0
-391 -392 0
-391 -394 0
-391 -396 0
-391 -451 0
-391 -454 0
-391 -456 0
-391 -458 0
-393 -396 0
-393 -398 0
-393 -399 0
-393 -400 0
-393 -402 0
-393 -404 0
-394 -396 0
-394 -447 0
-394 -451 0
-394 -453 0
-394 -454 0
-395 -396 0
-395 -398 0
-395 -400 0
-395 -455 0
-395 -458 0
-395 -460 0
-395 -462 0
-397 -400 0
-397 -402 0
-397 -403 0
-397 -404 0
-397 -406 0
-397 -408 0
-398 -400 0
-398 -451 0
-398 -455 0
-398 -457 0
-398 -458 0
-399 -400 0
-399 -402 0
-399 -404 0
-399 -459 0
-399 -462 0
-399 -464 0
-399 -466 0
-401 -404 0
-401 -406 0
-401 -407 0
-401 -408 0
-401 -410 0
-401 -412 0
-402 -404 0
-402 -455 0
-402 -459 0
-402 -461 0
-402 -462 0
-403 -404 0
-403 -406 0
-403 -408 0
-403 -463 0
-403 -466 0
-403 -468 0
-403 -470 0
-405 -408 0
-405 -410 0
-405 -411 0
-405 -412 0
-405 -414 0
-405 -416 0
-406 -408 0
-406 -459 0
-406 -463 0
-406 -465 0
-406 -466 0
-407 -408 0
-407 -410 0
-407 -412 0
-407 -467 0
-407 -470 0
-407 -472 0
-407 -474 0
-409 -412 0
-409 -414 0
-409 -415 0
-409 -416 0
-409 -418 0
-409 -420 0
-410 -412 0
-410 -463 0
-410 -467 0
-410 -469 0
-410 -470 0
-411 -412 0
-411 -414 0
-411 -416 0
-411 -471 0
-411 -474 0
-411 -476 0
-411 -478 0
-413 -416 0
-413 -418 0
-413 -419 0
-413 -420 0
-413 -422 0
-413 -424 0
-414 -416 0
-414 -467 0
-414 -471 0
-414 -473 0
-414 -474 0
-415 -416 0
-415 -418 0
-415 -420 0
-415 -475 0
-415 -478 0
-415 -480 0
-415 -482 0
-417 -420 0
-417 -422 0
-417 -423 0
-417 -424 0
-417 -426 0
-417 -428 0
-418 -420 0
-418 -471 0
-418 -475 0
-418 -477 0
-418 -478 0
-419 -420 0
-419 -422 0
-419 -424 0
-419 -479 0
-419 -482 0
-419 -484 0
-419 -486 0
-421 -424 0
-421 -426 0
-421 -427 0
-421 -428 0
-421 -430 0
-421 -432 0
-422 -424 0
-422 -475 0
-422 -479 0
-422 -481 0
-422 -482 0
-423 -424 0
-423 -426 0
-423 -428 0
-423 -483 0
-423 -486 0
-423 -488 0
-423 -490 0
-425 -428 0
-425 -430 0
-425 -431 0
-425 -432 0
-425 -433 0
-425 -434 0
-426 -428 0
-426 -479 0
-426 -483 0
-426 -485 0
-426 -486 0
-427 -428 0
-427 -430 0
-427 -432 0
-427 -487 0
-427 -490 0
-427 -492 0
-427 -494 0
-429 -432 0
-429 -433 0
-429 -434 0
-430 -432 0
-430 -483 0
-430 -487 0
-430 -489 0
-430 -490 0
-431 -432 0
-431 -433 0
-431 -434 0
-431 -491 0
-431 -494 0
-431 -495 0
-431 -496 0
-433 -434 0
-433 -487 0
-433 -491 0
-433 -493 0
-433 -494 0
-435 -437 0
-435 -438 0
-435 -440 0
-435 -442 0
-436 -438 0
-436 -440 0
-436 -441 0
-436 -442 0
-436 -444 0
-436 -446 0
-437 -438 0
-437 -440 0
-437 -442 0
-437 -498 0
-437 -500 0
-437 -502 0
-437 -504 0
-439 -442 0
-439 -444 0
-439 -445 0
-439 -446 0
-439 -448 0
-439 -450 0
-440 -442 0
-440 -497 0
-440 -498 0
-440 -499 0
-440 -500 0
-441 -442 0
-441 -444 0
-441 -446 0
-441 -501 0
-441 -504 0
-441 -506 0
-441 -508 0
-443 -446 0
-443 -448 0
-443 -449 0
-443 -450 0
-443 -452 0
-443 -454 0
-444 -446 0
-444 -498 0
-444 -501 0
-444 -503 0
-444 -504 0
-445 -446 0
-445 -448 0
-445 -450 0
-445 -505 0
-445 -508 0
-445 -510 0
-445 -512 0
-447 -450 0
-447 -452 0
-447 -453 0
-447 -454 0
-447 -456 0
-447 -458 0
-448 -450 0
-448 -501 0
-448 -505 0
-448 -507 0
-448 -508 0
-449 -450 0
-449 -452 0
-449 -454 0
-449 -509 0
-449 -512 0
-449 -514 0
-449 -516 0
-451 -454 0
-451 -456 0
-451 -457 0
-451 -458 0
-451 -460 0
-451 -462 0
-452 -454 0
-452 -505 0
-452 -509 0
-452 -511 0
-452 -512 0
-453 -454 0
-453 -456 0
-453 -458 0
-453 -513 0
-453 -516 0
-453 -518 0
-453 -520 0
-455 -458 0
-455 -460 0
-455 -461 0
-455 -462 0
-455 -464 0
-455 -466 0
-456 -458 0
-456 -509 0
-456 -513 0
-456 -515 0
-456 -516 0
-457 -458 0
-457 -460 0
-457 -462 0
-457 -517 0
-457 -520 0
-457 -522 0
-457 -524 0
-459 -462 0
-459 -464 0
-459 -465 0
-459 -466 0
-459 -468 0
-459 -470 0
-460 -462 0
-460 -513 0
-460 -517 0
-460 -519 0
-460 -520 0
-461 -462 0
-461 -464 0
-461 -466 0
-461 -521 0
-461 -524 0
-461 -526 0
-461 -528 0
-463 -466 0
-463 -468 0
-463 -469 0
-463 -470 0
-463 -472 0
-463 -474 0
-464 -466 0
-464 -517 0
-464 -521 0
-464 -523 0
-464 -524 0
-465 -466 0
-465 -468 0
-465 -470 0
-465 -525 0
-465 -528 0
-465 -530 0
-465 -532 0
-467 -470 0
-467 -472 0
-467 -473 0
-467 -474 0
-467 -476 0
-467 -478 0
-468 -470 0
-468 -521 0
-468 -525 0
-468 -527 0
-468 -528 0
-469 -470 0
-469 -472 0
-469 -474 0
-469 -529 0
-469 -532 0
-469 -534 0
-469 -536 0
-471 -474 0
-471 -476 0
-471 -477 0
-471 -478 0
-471 -480 0
-471 -482 0
-472 -474 0
-472 -525 0
-472 -529 0
-472 -531 0
-472 -532 0
-473 -474 0
-473 -476 0
-473 -478 0
-473 -533 0
-473 -536 0
-473 -538 0
-473 -540 0
-475 -478 0
-475 -480 0
-475 -481 0
-475 -482 0
-475 -484 0
-475 -486 0
-476 -478 0
-476 -529 0
-476 -533 0
-476 -535 0
-476 -536 0
-477 -478 0
-477 -480 0
-477 -482 0
-477 -537 0
-477 -540 0
-477 -542 0
-477 -544 0
-479 -482 0
-479 -484 0
-479 -485 0
-479 -486 0
-479 -488 0
-479 -490 0
-480 -482 0
-480 -533 0
-480 -537 0
-480 -539 0
-480 -540 0
-481 -482 0
-481 -484 0
-481 -486 0
-481 -541 0
-481 -544 0
-481 -546 0
-481 -548 0
-483 -486 0
-483 -488 0
-483 -489 0
-483 -490 0
-483 -492 0
-483 -494 0
-484 -486 0
-484 -537 0
-484 -541 0
-484 -543 0
-484 -544 0
-485 -486 0
-485 -488 0
-485 -490 0
-485 -545 0
-485 -548 0
-485 -550 0
-485 -552 0
-487 -490 0
-487 -492 0
-487 -493 0
-487 -494 0
-487 -495 0
-487 -496 0
-488 -490 0
-488 -541 0
-488 -545 0
-488 -547 0
-488 -548 0
-489 -490 0
-489 -492 0
-489 -494 0
-489 -549 0
-489 -552 0
-489 -554 0
-489 -556 0
-491 -494 0
-491 -495 0
-491 -496 0
-492 -494 0
-492 -545 0
-492 -549 0
-492 -551 0
-492 -552 0
-493 -494 0
-493 -495 0
-493 -496 0
-493 -553 0
-493 -556 0
-493 -557 0
-493 -558 0
-495 -496 0
-495 -549 0
-495 -553 0
-495 -555 0
-495 -556 0
-497 -499 0
-497 -500 0
-497 -502 0
-497 -504 0
-498 -500 0
-498 -502 0
-498 -503 0
-498 -504 0
-498 -506 0
-498 -508 0
-499 -500 0
-499 -502 0
-499 -504 0
-499 -560 0
-499 -562 0
-499 -564 0
-499 -566 0
-501 -504 0
-501 -506 0
-501 -507 0
-501 -508 0
-501 -510 0
-501 -512 0
-502 -504 0
-502 -559 0
-502 -560 0
-502 -561 0
-502 -562 0
-503 -504 0
-503 -506 0
-503 -508 0
-503 -563 0
-503 -566 0
-503 -568 0
-503 -570 0
-505 -508 0
-505 -510 0
-505 -511 0
-505 -512 0
-505 -514 0
-505 -516 0
-506 -508 0
-506 -560 0
-506 -563 0
-506 -565 0
-506 -566 0
-507 -508 0
-507 -510 0
-507 -512 0
-507 -567 0
-507 -570 0
-507 -572 0
-507 -574 0
-509 -512 0
-509 -514 0
-509 -515 0
-509 -516 0
-509 -518 0
-509 -520 0
-510 -512 0
-510 -563 0
-510 -567 0
-510 -569 0
-510 -570 0
-511 -512 0
-511 -514 0
-511 -516 0
-511 -571 0
-511 -574 0
-511 -576 0
-511 -578 0
-513 -516 0
-513 -518 0
-513 -519 0
-513 -520 0
-513 -522 0
-513 -524 0
-514 -516 0
-514 -567 0
-514 -571 0
-514 -573 0
-514 -574 0
-515 -516 0
-515 -518 0
-515 -520 0
-515 -575 0
-515 -578 0
-515 -580 0
-515 -582 0
-517 -520 0
-517 -522 0
-517 -523 0
-517 -524 0
-517 -526 0
-517 -528 0
-518 -520 0
-518 -571 0
-518 -575 0
-518 -577 0
-518 -578 0
-519 -520 0
-519 -522 0
-519 -524 0
-519 -579 0
-519 -582 0
-519 -584 0
-519 -586 0
-521 -524 0
-521 -526 0
-521 -527 0
-521 -528 0
-521 -530 0
-521 -532 0
-522 -524 0
-522 -575 0
-522 -579 0
-522 -581 0
-522 -582 0
-523 -524 0
-523 -526 0
-523 -528 0
-523 -583 0
-523 -586 0
-523 -588 0
-523 -590 0
-525 -528 0
-525 -530 0
-525 -531 0
-525 -532 0
-525 -534 0
-525 -536 0
-526 -528 0
-526 -579 0
-526 -583 0
-526 -585 0
-526 -586 0
-527 -528 0
-527 -530 0
-527 -532 0
-527 -587 0
-527 -590 0
-527 -592 0
-527 -594 0
-529 -532 0
-529 -534 0
-529 -535 0
-529 -536 0
-529 -538 0
-529 -540 0
-530 -532 0
-530 -583 0
-530 -587 0
-530 -589 0
-530 -590 0
-531 -532 0
-531 -534 0
-531 -536 0
-531 -591 0
-531 -594 0
-531 -596 0
-531 -598 0
-533 -536 0
-533 -538 0
-533 -539 0
-533 -540 0
-533 -542 0
-533 -544 0
-534 -536 0
-534 -587 0
-534 -591 0
-534 -593 0
-534 -594 0
-535 -536 0
-535 -538 0
-535 -540 0
-535 -595 0
-535 -598 0
-535 -600 0
-535 -602 0
-537 -540 0
-537 -542 0
-537 -543 0
-537 -544 0
-537 -546 0
-537 -548 0
-538 -540 0
-538 -591 0
-538 -595 0
-538 -597 0
-538 -598 0
-539 -540 0
-539 -542 0
-539 -544 0
-539 -599 0
-539 -602 0
-539 -604 0
-539 -606 0
-541 -544 0
-541 -546 0
-541 -547 0
-541 -548 0
-541 -550 0
-541 -552 0
-542 -544 0
-542 -595 0
-542 -599 0
-542 -601 0
-542 -602 0
-543 -544 0
-543 -546 0
-543 -548 0
-543 -603 0
-543 -606 0
-543 -608 0
-543 -610 0
-545 -548 0
-545 -550 0
-545 -551 0
-545 -552 0
-545 -554 0
-545 -556 0
-546 -548 0
-546 -599 0
-546 -603 0
-546 -605 0
-546 -606 0
-547 -548 0
-547 -550 0
-547 -552 0
-547 -607 0
-547 -610 0
-547 -612 0
-547 -614 0
-549 -552 0
-549 -554 0
-549 -555 0
-549 -556 0
-549 -557 0
-549 -558 0
-550 -552 0
-550 -603 0
-550 -607 0
-550 -609 0
-550 -610 0
-551 -552 0
-551 -554 0
-551 -556 0
-551 -611 0
-551 -614 0
-551 -616 0
-551 -618 0
-553 -556 0
-553 -557 0
-553 -558 0
-554 -556 0
-554 -607 0
-554 -611 0
-554 -613 0
-554 -614 0
-555 -556 0
-555 -557 0
-555 -558 0
-555 -615 0
-555 -618 0
-555 -619 0
-555 -620 0
-557 -558 0
-557 -611 0
-557 -615 0
-557 -617 0
-557 -618 0
-559 -561 0
-559 -562 0
-559 -564 0
-559 -566 0
-560 -562 0
-560 -564 0
-560 -565 0
-560 -566 0
-560 -568 0
-560 -570 0
-561 -562 0
-561 -564 0
-561 -566 0
-561 -622 0
-561 -623 0
-561 -625 0
-561 -627 0
-563 -566 0
-563 -568 0
-563 -569 0
-563 -570 0
-563 -572 0
-563 -574 0
-564 -566 0
-564 -621 0
-564 -622 0
-564 -623 0
-565 -566 0
-565 -568 0
-565 -570 0
-565 -624 0
-565 -627 0
-565 -629 0
-565 -631 0
-567 -570 0
-567 -572 0
-567 -573 0
-567 -574 0
-567 -576 0
-567 -578 0
-568 -570 0
-568 -622 0
-568 -624 0
-568 -626 0
-568 -627 0
-569 -570 0
-569 -572 0
-569 -574 0
-569 -628 0
-569 -631 0
-569 -633 0
-569 -635 0
-571 -574 0
-571 -576 0
-571 -577 0
-571 -578 0
-571 -580 0
-571 -582 0
-572 -574 0
-572 -624 0
-572 -628 0
-572 -630 0
-572 -631 0
-573 -574 0
-573 -576 0
-573 -578 0
-573 -632 0
-573 -635 0
-573 -637 0
-573 -639 0
-575 -578 0
-575 -580 0
-575 -581 0
-575 -582 0
-575 -584 0
-575 -586 0
-576 -578 0
-576 -628 0
-576 -632 0
-576 -634 0
-576 -635 0
-577 -578 0
-577 -580 0
-577 -582 0
-577 -636 0
-577 -639 0
-577 -641 0
-577 -643 0
-579 -582 0
-579 -584 0
-579 -585 0
-579 -586 0
-579 -588 0
-579 -590 0
-580 -582 0
-580 -632 0
-580 -636 0
-580 -638 0
-580 -639 0
-581 -582 0
-581 -584 0
-581 -586 0
-581 -640 0
-581 -643 0
-581 -645 0
-581 -647 0
-583 -586 0
-583 -588 0
-583 -589 0
-583 -590 0
-583 -592 0
-583 -594 0
-584 -586 0
-584 -636 0
-584 -640 0
-584 -642 0
-584 -643 0
-585 -586 0
-585 -588 0
-585 -590 0
-585 -644 0
-585 -647 0
-585 -649 0
-585 -651 0
-587 -590 0
-587 -592 0
-587 -593 0
-587 -594 0
-587 -596 0
-587 -598 0
-588 -590 0
-588 -640 0
-588 -644 0
-588 -646 0
-588 -647 0
-589 -590 0
-589 -592 0
-589 -594 0
-589 -648 0
-589 -651 0
-589 -653 0
-589 -655 0
-591 -594 0
-591 -596 0
-591 -597 0
-591 -598 0
-591 -600 0
-591 -602 0
-592 -594 0
-592 -644 0
-592 -648 0
-592 -650 0
-592 -651 0
-593 -594 0
-593 -596 0
-593 -598 0
-593 -652 0
-593 -655 0
-593 -657 0
-593 -659 0
-595 -598 0
-595 -600 0
-595 -601 0
-595 -602 0
-595 -604 0
-595 -606 0
-596 -598 0
-596 -648 0
-596 -652 0
-596 -654 0
-596 -655 0
-597 -598 0
-597 -600 0
-597 -602 0
-597 -656 0
-597 -659 0
-597 -661 0
-597 -663 0
-599 -602 0
-599 -604 0
-599 -605 0
-599 -606 0
-599 -608 0
-599 -610 0
-600 -602 0
-600 -652 0
-600 -656 0
-600 -658 0
-600 -659 0
-601 -602 0
-601 -604 0
-601 -606 0
-601 -660 0
-601 -663 0
-601 -665 0
-601 -667 0
-603 -606 0
-603 -608 0
-603 -609 0
-603 -610 0
-603 -612 0
-603 -614 0
-604 -606 0
-604 -656 0
-604 -660 0
-604 -662 0
-604 -663 0
-605 -606 0
-605 -608 0
-605 -610 0
-605 -664 0
-605 -667 0
-605 -669 0
-605 -671 0
-607 -610 0
-607 -612 0
-607 -613 0
-607 -614 0
-607 -616 0
-607 -618 0
-608 -610 0
-608 -660 0
-608 -664 0
-608 -666 0
-608 -667 0
-609 -610 0
-609 -612 0
-609 -614 0
-609 -668 0
-609 -671 0
-609 -673 0
-609 -675 0
-611 -614 0
-611 -616 0
-611 -617 0
-611 -618 0
-611 -619 0
-611 -620 0
-612 -614 0
-612 -664 0
-612 -668 0
-612 -670 0
-612 -671 0
-613 -614 0
-613 -616 0
-613 -618 0
-613 -672 0
-613 -675 0
-613 -677 0
-613 -679 0
-615 -618 0
-615 -619 0
-615 -620 0
-616 -618 0
-616 -668 0
-616 -672 0
-616 -674 0
-616 -675 0
-617 -618 0
-617 -619 0
-617 -620 0
-617 -676 0
-617 -679 0
-617 -680 0
-619 -620 0
-619 -672 0
-619 -676 0
-619 -678 0
-619 -679 0
-621 -623 0
-621 -625 0
-621 -627 0
-622 -623 0
-622 -625 0
-622 -626 0
-622 -627 0
-622 -629 0
-622 -631 0
-624 -627 0
-624 -629 0
-624 -630 0
-624 -631 0
-624 -633 0
-624 -635 0
-625 -627 0
-625 -681 0
-626 -627 0
-626 -629 0
-626 -631 0
-626 -682 0
-626 -685 0
-626 -687 0
-626 -689 0
-628 -631 0
-628 -633 0
-628 -634 0
-628 -635 0
-628 -637 0
-628 -639 0
-629 -631 0
-629 -682 0
-629 -684 0
-629 -685 0
-630 -631 0
-630 -633 0
-630 -635 0
-630 -686 0
-630 -689 0
-630 -691 0
-630 -693 0
-632 -635 0
-632 -637 0
-632 -638 0
-632 -639 0
-632 -641 0
-632 -643 0
-633 -635 0
-633 -682 0
-633 -686 0
-633 -688 0
-633 -689 0
-634 -635 0
-634 -637 0
-634 -639 0
-634 -690 0
-634 -693 0
-634 -695 0
-634 -697 0
-636 -639 0
-636 -641 0
-636 -642 0
-636 -643 0
-636 -645 0
-636 -647 0
-637 -639 0
-637 -686 0
-637 -690 0
-637 -692 0
-637 -693 0
-638 -639 0
-638 -641 0
-638 -643 0
-638 -694 0
-638 -697 0
-638 -699 0
-638 -701 0
-640 -643 0
-640 -645 0
-640 -646 0
-640 -647 0
-640 -649 0
-640 -651 0
-641 -643 0
-641 -690 0
-641 -694 0
-641 -696 0
-641 -697 0
-642 -643 0
-642 -645 0
-642 -647 0
-642 -698 0
-642 -701 0
-642 -703 0
-642 -705 0
-644 -647 0
-644 -649 0
-644 -650 0
-644 -651 0
-644 -653 0
-644 -655 0
-645 -647 0
-645 -694 0
-645 -698 0
-645 -700 0
-645 -701 0
-646 -647 0
-646 -649 0
-646 -651 0
-646 -702 0
-646 -705 0
-646 -707 0
-646 -709 0
-648 -651 0
-648 -653 0
-648 -654 0
-648 -655 0
-648 -657 0
-648 -659 0
-649 -651 0
-649 -698 0
-649 -702 0
-649 -704 0
-649 -705 0
-650 -651 0
-650 -653 0
-650 -655 0
-650 -706 0
-650 -709 0
-650 -711 0
-650 -713 0
-652 -655 0
-652 -657 0
-652 -658 0
-652 -659 0
-652 -661 0
-652 -663 0
-653 -655 0
-653 -702 0
-653 -706 0
-653 -708 0
-653 -709 0
-654 -655 0
-654 -657 0
-654 -659 0
-654 -710 0
-654 -713 0
-654 -715 0
-654 -717 0
-656 -659 0
-656 -661 0
-656 -662 0
-656 -663 0
-656 -665 0
-656 -667 0
-657 -659 0
-657 -706 0
-657 -710 0
-657 -712 0
-657 -713 0
-658 -659 0
-658 -661 0
-658 -663 0
-658 -714 0
-658 -717 0
-658 -719 0
-658 -721 0
-660 -663 0
-660 -665 0
-660 -666 0
-660 -667 0
-660 -669 0
-660 -671 0
-661 -663 0
-661 -710 0
-661 -714 0
-661 -716 0
-661 -717 0
-662 -663 0
-662 -665 0
-662 -667 0
-662 -718 0
-662 -721 0
-662 -723 0
-662 -725 0
-664 -667 0
-664 -669 0
-664 -670 0
-664 -671 0
-664 -673 0
-664 -675 0
-665 -667 0
-665 -714 0
-665 -718 0
-665 -720 0
-665 -721 0
-666 -667 0
-666 -669 0
-666 -671 0
-666 -722 0
-666 -725 0
-666 -727 0
-666 -729 0
-668 -671 0
-668 -673 0
-668 -674 0
-668 -675 0
-668 -677 0
-668 -679 0
-669 -671 0
-669 -718 0
-669 -722 0
-669 -724 0
-669 -725 0
-670 -671 0
-670 -673 0
-670 -675 0
-670 -726 0
-670 -729 0
-670 -731 0
-670 -733 0
-672 -675 0
-672 -677 0
-672 -678 0
-672 -679 0
-672 -680 0
-673 -675 0
-673 -722 0
-673 -726 0
-673 -728 0
-673 -729 0
-674 -675 0
-674 -677 0
-674 -679 0
-674 -730 0
-674 -733 0
-674 -735 0
-676 -679 0
-676 -680 0
-677 -679 0
-677 -726 0
-677 -730 0
-677 -732 0
-677 -733 0
-678 -679 0
-678 -680 0
-678 -734 0
-682 -685 0
-682 -687 0
-682 -688 0
-682 -689 0
-682 -691 0
-682 -693 0
-683 -685 0
-684 -685 0
-684 -687 0
-684 -689 0
-686 -689 0
-686 -691 0
-686 -692 0
-686 -693 0
-686 -695 0
-686 -697 0
-687 -689 0
-688 -689 0
-688 -691 0
-688 -693 0
-690 -693 0
-690 -695 0
-690 -696 0
-690 -697 0
-690 -699 0
-690 -701 0
-691 -693 0
-692 -693 0
-692 -695 0
-692 -697 0
-694 -697 0
-694 -699 0
-694 -700 0
-694 -701 0
-694 -703 0
-694 -705 0
-695 -697 0
-696 -697 0
-696 -699 0
-696 -701 0
-698 -701 0
-698 -703 0
-698 -704 0
-698 -705 0
-698 -707 0
-698 -709 0
-699 -701 0
-700 -701 0
-700 -703 0
-700 -705 0
-702 -705 0
-702 -707 0
-702 -708 0
-702 -709 0
-702 -711 0
-702 -713 0
-703 -705 0
-704 -705 0
-704 -707 0
-704 -709 0
-706 -709 0
-706 -711 0
-706 -712 0
-706 -713 0
-706 -715 0
-706 -717 0
-707 -709 0
-708 -709 0
-708 -711 0
-708 -713 0
-710 -713 0
-710 -715 0
-710 -716 0
-710 -717 0
-710 -719 0
-710 -721 0
-711 -713 0
-712 -713 0
-712 -715 0
-712 -717 0
-714 -717 0
-714 -719 0
-714 -720 0
-714 -721 0
-714 -723 0
-714 -725 0
-715 -717 0
-716 -717 0
-716 -719 0
-716 -721 0
-718 -721 0
-718 -723 0
-718 -724 0
-718 -725 0
-718 -727 0
-718 -729 0
-719 -721 0
-720 -721 0
-720 -723 0
-720 -725 0
-722 -725 0
-722 -727 0
-722 -728 0
-722 -729 0
-722 -731 0
-722 -733 0
-723 -725 0
-724 -725 0
-724 -727 0
-724 -729 0
-726 -729 0
-726 -731 0
-726 -732 0
-726 -733 0
-726 -735 0
-727 -729 0
-728 -729 0
-728 -731 0
-728 -733 0
-730 -733 0
-730 -735 0
-730 -736 0
-731 -733 0
-732 -733 0
-732 -735 0
397 403 406 408 -463 -466 0
397 403 406 -408 463 -466 0
397 403 406 -408 -463 466 0
397 403 -406 408 463 466 0
397 403 -406 -408 -463 -466 0
397 -403 406 408 463 466 0
397 -403 406 -408 -463 -466 0
397 -403 -406 408 463 -466 0
397 -403 -406 408 -463 466 0
397 -403 -406 -408 463 466 0
-397 403 406 408 463 -466 0
-397 403 406 408 -463 466 0
-397 403 406 -408 463 466 0
-397 403 -406 408 -463 -466 0
-397 403 -406 -408 463 -466 0
-397 403 -406 -408 -463 466 0
-397 -403 406 408 -463 -466 0
-397 -403 406 -408 463 -466 0
-397 -403 406 -408 -463 466 0
-397 -403 -406 408 463 466 0
-397 -403 -406 -408 -463 -466 0
