p cnf 281 639
-1 105 0
-105 106 0
-2 -105 0
-2 106 0
-106 107 0
-3 -106 0
-3 107 0
-4 -107 0
-1 108 0
-108 109 0
-16 -108 110 0
-110 111 0
-57 -110 0
-16 109 0
-109 112 0
-57 -109 111 0
-111 113 0
-58 -111 0
-57 112 0
-112 114 0
-58 -112 113 0
-113 115 0
-59 -113 0
-58 114 0
-59 -114 115 0
-60 -115 0
-5 116 0
-116 117 0
-6 -116 0
-6 117 0
-117 118 0
-7 -117 0
-7 118 0
-8 -118 0
-5 119 0
-119 120 0
-20 -119 121 0
-121 122 0
-61 -121 0
-20 120 0
-120 123 0
-61 -120 122 0
-122 124 0
-62 -122 0
-61 123 0
-123 125 0
-62 -123 124 0
-124 126 0
-63 -124 0
-62 125 0
-63 -125 126 0
-64 -126 0
-9 127 0
-127 128 0
-10 -127 0
-10 128 0
-128 129 0
-11 -128 0
-11 129 0
-12 -129 0
-9 130 0
-130 131 0
-24 -130 132 0
-132 133 0
-65 -132 0
-24 131 0
-131 134 0
-65 -131 133 0
-133 135 0
-66 -133 0
-65 134 0
-134 136 0
-66 -134 135 0
-135 137 0
-67 -135 0
-66 136 0
-67 -136 137 0
-68 -137 0
-12 138 0
-138 139 0
-53 -138 140 0
-140 141 0
-54 -140 0
-53 139 0
-139 142 0
-54 -139 141 0
-141 143 0
-55 -141 0
-54 142 0
-55 -142 143 0
-56 -143 0
-13 144 0
-144 145 0
-14 -144 0
-14 145 0
-145 146 0
-15 -145 0
-15 146 0
-16 -146 0
13 147 0
-147 148 0
28 -147 149 0
-149 150 0
69 -149 151 0
-151 152 0
70 -151 153 0
-153 154 0
71 -153 0
28 148 0
69 -148 150 0
70 -150 152 0
71 -152 154 0
72 -154 0
-13 155 0
-155 156 0
-28 -155 157 0
-157 158 0
-69 -157 0
-28 156 0
-156 159 0
-69 -156 158 0
-158 160 0
-70 -158 0
-69 159 0
-159 161 0
-70 -159 160 0
-160 162 0
-71 -160 0
-70 161 0
-71 -161 162 0
-72 -162 0
17 18 19 20 0
-17 163 0
-163 164 0
-18 -163 0
-18 164 0
-164 165 0
-19 -164 0
-19 165 0
-20 -165 0
17 166 0
-166 167 0
32 -166 168 0
-168 169 0
73 -168 170 0
-170 171 0
74 -170 172 0
-172 173 0
75 -172 0
32 167 0
73 -167 169 0
74 -169 171 0
75 -171 173 0
76 -173 0
-17 174 0
-174 175 0
-32 -174 176 0
-176 177 0
-73 -176 0
-32 175 0
-175 178 0
-73 -175 177 0
-177 179 0
-74 -177 0
-73 178 0
-178 180 0
-74 -178 179 0
-179 181 0
-75 -179 0
-74 180 0
-75 -180 181 0
-76 -181 0
21 22 23 24 0
-21 182 0
-182 183 0
-22 -182 0
-22 183 0
-183 184 0
-23 -183 0
-23 184 0
-24 -184 0
21 185 0
-185 186 0
36 -185 187 0
-187 188 0
77 -187 189 0
-189 190 0
78 -189 191 0
-191 192 0
79 -191 0
36 186 0
77 -186 188 0
78 -188 190 0
79 -190 192 0
80 -192 0
-21 193 0
-193 194 0
-36 -193 195 0
-195 196 0
-77 -195 0
-36 194 0
-194 197 0
-77 -194 196 0
-196 198 0
-78 -196 0
-77 197 0
-197 199 0
-78 -197 198 0
-198 200 0
-79 -198 0
-78 199 0
-79 -199 200 0
-80 -200 0
25 26 27 28 0
-25 201 0
-201 202 0
-26 -201 0
-26 202 0
-202 203 0
-27 -202 0
-27 203 0
-28 -203 0
25 204 0
-204 205 0
40 -204 206 0
-206 207 0
81 -206 208 0
-208 209 0
82 -208 210 0
-210 211 0
83 -210 0
40 205 0
81 -205 207 0
82 -207 209 0
83 -209 211 0
84 -211 0
-25 212 0
-212 213 0
-40 -212 214 0
-214 215 0
-81 -214 0
-40 213 0
-213 216 0
-81 -213 215 0
-215 217 0
-82 -215 0
-81 216 0
-216 218 0
-82 -216 217 0
-217 219 0
-83 -217 0
-82 218 0
-83 -218 219 0
-84 -219 0
29 30 31 32 0
-29 220 0
-220 221 0
-30 -220 0
-30 221 0
-221 222 0
-31 -221 0
-31 222 0
-32 -222 0
29 223 0
-223 224 0
44 -223 225 0
-225 226 0
85 -225 227 0
-227 228 0
86 -227 229 0
-229 230 0
87 -229 0
44 224 0
85 -224 226 0
86 -226 228 0
87 -228 230 0
88 -230 0
-29 231 0
-231 232 0
-44 -231 233 0
-233 234 0
-85 -233 0
-44 232 0
-232 235 0
-85 -232 234 0
-234 236 0
-86 -234 0
-85 235 0
-235 237 0
-86 -235 236 0
-236 238 0
-87 -236 0
-86 237 0
-87 -237 238 0
-88 -238 0
33 34 35 36 0
-33 239 0
-239 240 0
-34 -239 0
-34 240 0
-240 241 0
-35 -240 0
-35 241 0
-36 -241 0
-33 242 0
-242 243 0
-48 -242 244 0
-244 245 0
-89 -244 0
-48 243 0
-243 246 0
-89 -243 245 0
-245 247 0
-90 -245 0
-89 246 0
-246 248 0
-90 -246 247 0
-247 249 0
-91 -247 0
-90 248 0
-91 -248 249 0
-92 -249 0
-37 250 0
-250 251 0
-38 -250 0
-38 251 0
-251 252 0
-39 -251 0
-39 252 0
-40 -252 0
-37 253 0
-253 254 0
-52 -253 255 0
-255 256 0
-93 -255 0
-52 254 0
-254 257 0
-93 -254 256 0
-256 258 0
-94 -256 0
-93 257 0
-257 259 0
-94 -257 258 0
-258 260 0
-95 -258 0
-94 259 0
-95 -259 260 0
-96 -260 0
-41 261 0
-261 262 0
-42 -261 0
-42 262 0
-262 263 0
-43 -262 0
-43 263 0
-44 -263 0
-41 264 0
-264 265 0
-97 -264 266 0
-266 267 0
-98 -266 0
-97 265 0
-265 268 0
-98 -265 267 0
-267 269 0
-99 -267 0
-98 268 0
-99 -268 269 0
-100 -269 0
-45 270 0
-270 271 0
-46 -270 0
-46 271 0
-271 272 0
-47 -271 0
-47 272 0
-48 -272 0
-45 273 0
-273 274 0
-101 -273 275 0
-275 276 0
-102 -275 0
-101 274 0
-274 277 0
-102 -274 276 0
-276 278 0
-103 -276 0
-102 277 0
-103 -277 278 0
-104 -278 0
-49 279 0
-279 280 0
-50 -279 0
-50 280 0
-280 281 0
-51 -280 0
-51 281 0
-52 -281 0
26 27 0
-1 -6 0
-1 -7 0
-1 -8 0
-1 -12 0
-2 -8 0
-2 -55 0
-2 -56 0
-2 -60 0
-3 -8 0
-3 -56 0
-5 -10 0
-5 -11 0
-5 -12 0
-5 -16 0
-6 -12 0
-6 -53 0
-6 -59 0
-6 -60 0
-6 -64 0
-7 -12 0
-7 -53 0
-7 -54 0
-7 -60 0
-9 -14 0
-9 -15 0
-9 -16 0
-9 -20 0
-10 -16 0
-10 -57 0
-10 -63 0
-10 -64 0
-10 -68 0
-11 -16 0
-11 -53 0
-11 -57 0
-11 -58 0
-11 -64 0
-13 -18 0
-13 -19 0
-13 -20 0
-13 -24 0
-14 -20 0
-14 -61 0
-14 -67 0
-14 -68 0
-14 -72 0
-15 -20 0
-15 -57 0
-15 -61 0
-15 -62 0
-15 -68 0
-17 -22 0
-17 -23 0
-17 -24 0
-17 -28 0
-18 -24 0
-18 -65 0
-18 -71 0
-18 -72 0
-18 -76 0
-19 -24 0
-19 -61 0
-19 -65 0
-19 -66 0
-19 -72 0
-21 -26 0
-21 -27 0
-21 -28 0
-21 -32 0
-22 -28 0
-22 -69 0
-22 -75 0
-22 -76 0
-22 -80 0
-23 -28 0
-23 -65 0
-23 -69 0
-23 -70 0
-23 -76 0
-25 -30 0
-25 -31 0
-25 -32 0
-25 -36 0
-26 -32 0
-26 -73 0
-26 -79 0
-26 -80 0
-26 -84 0
-27 -32 0
-27 -69 0
-27 -73 0
-27 -74 0
-27 -80 0
-29 -34 0
-29 -35 0
-29 -36 0
-29 -40 0
-30 -36 0
-30 -77 0
-30 -83 0
-30 -84 0
-30 -88 0
-31 -36 0
-31 -73 0
-31 -77 0
-31 -78 0
-31 -84 0
-33 -38 0
-33 -39 0
-33 -40 0
-33 -44 0
-34 -40 0
-34 -81 0
-34 -87 0
-34 -88 0
-34 -92 0
-35 -40 0
-35 -77 0
-35 -81 0
-35 -82 0
-35 -88 0
-37 -42 0
-37 -43 0
-37 -44 0
-37 -48 0
-38 -44 0
-38 -85 0
-38 -91 0
-38 -92 0
-38 -96 0
-39 -44 0
-39 -81 0
-39 -85 0
-39 -86 0
-39 -92 0
-41 -46 0
-41 -47 0
-41 -48 0
-41 -52 0
-42 -48 0
-42 -89 0
-42 -95 0
-42 -96 0
-42 -100 0
-43 -48 0
-43 -85 0
-43 -89 0
-43 -90 0
-43 -96 0
-45 -50 0
-45 -51 0
-45 -52 0
-46 -52 0
-46 -93 0
-46 -99 0
-46 -100 0
-46 -104 0
-47 -52 0
-47 -89 0
-47 -93 0
-47 -94 0
-47 -100 0
-50 -97 0
-50 -103 0
-50 -104 0
-51 -93 0
-51 -97 0
-51 -98 0
-51 -104 0
-53 -58 0
-53 -59 0
-53 -60 0
-53 -64 0
-54 -60 0
-55 -60 0
-57 -62 0
-57 -63 0
-57 -64 0
-57 -68 0
-58 -64 0
-59 -64 0
-61 -66 0
-61 -67 0
-61 -68 0
-61 -72 0
-62 -68 0
-63 -68 0
-65 -70 0
-65 -71 0
-65 -72 0
-65 -76 0
-66 -72 0
-67 -72 0
-69 -74 0
-69 -75 0
-69 -76 0
-69 -80 0
-70 -76 0
-71 -76 0
-73 -78 0
-73 -79 0
-73 -80 0
-73 -84 0
-74 -80 0
-75 -80 0
-77 -82 0
-77 -83 0
-77 -84 0
-77 -88 0
-78 -84 0
-79 -84 0
-81 -86 0
-81 -87 0
-81 -88 0
-81 -92 0
-82 -88 0
-83 -88 0
-85 -90 0
-85 -91 0
-85 -92 0
-85 -96 0
-86 -92 0
-87 -92 0
-89 -94 0
-89 -95 0
-89 -96 0
-89 -100 0
-90 -96 0
-91 -96 0
-93 -98 0
-93 -99 0
-93 -100 0
-93 -104 0
-94 -100 0
-95 -100 0
-97 -102 0
-97 -103 0
-97 -104 0
-98 -104 0
-99 -104 0
